 H  C  N  I Pb 
 1.0000000000000000
    18.0608005523681641    0.0000000000000000    0.0000000000000000
    -0.0049186488613486   18.0627994537353516    0.0000000000000000
     0.0000000000000000    0.0000000000000000   62.4874992370605469
 H   C   N   I   Pb 
 143  39  47  72  24
Cartesian
  7.5051150321960449  4.8344688415527344 35.6567153930664062
  7.3937845230102539 12.8609237670898438 35.8556137084961009
 16.7183303833007812  5.1013832092285147 36.3269462585449219
 16.8662319183349609 14.6741123199462891 35.9027976989746094
  5.8507952690124512  1.5412433147430418 35.5579223632812500
  5.6807780265808105 10.4559717178344727 35.6449775695800781
 14.4444112777709961  1.6101162433624268 35.8099021911621165
  1.9678745269775373  4.3011975288391113 35.2198028564453125
  1.4965209960937489 12.2612543106079102 35.5530815124511719
 10.8316621780395508  3.4973323345184326 35.3652954101562500
 10.8670263290405273 13.3027019500732422 34.9773178100585938
  6.8554863929748535  0.3115699589252472 34.8171577453613281
  4.5651974678039551 11.2414445877075195 34.5756607055664062
 15.7636070251464844  0.6965963840484619 35.0909042358398438
  1.1032085418701161  5.1475949287414551 36.4456825256347656
 18.0245819091796875 12.4807243347167951 36.3432197570800781
  9.2333116531372070  3.1050202846527100 35.9334373474121165
  9.8338623046875000 12.3528232574462873 36.0131988525390625
  5.4501504898071280  7.9868063926696777 35.9427795410156250
  3.4008886814117432  1.0887447595596313 35.6328125000000071
 12.2010898590087891  0.5135179758071899 35.7678070068359375
  8.0553836822509766  6.3640632629394522 34.9888267517089915
  6.8752832412719727 14.1146659851074219 34.7842025756835938
 15.9601764678955060  4.1710486412048340 35.0619773864746094
 17.7010860443115234 15.7739648818969727 34.8546371459960938
  4.1446137428283691  7.2157387733459473 35.0892333984375000
  2.8116940716281533 17.7737717926502228 34.7644195556640625
 12.1489423969760537 16.9664969444274902 35.0673904418945312
 10.1709699630737305  5.5926218032836914 34.6101379394531250
  9.1119508743286133 14.5512180328369141 34.1013755798339844
  0.0029830932617177  3.5336432456970215 34.1620674133300781
  1.4102897644043004 14.3078575134277344 34.4688224792480469
  3.4034519195556636  9.2214221954345703 34.1515655517578125
  4.9928430775180459 17.0646345615386963 34.2213592529296946
 14.3829664448276144 16.9669530391693115 34.5432929992675781
  8.2272710800170898  5.1870017051696777 42.2601699829101634
  7.8567390441894531 14.7300300598144531 41.9519653320312500
 17.4306712150573766  5.0620450973510742 42.4634819030761719
 16.6559364795684814 13.6088972091674787 41.9412269592285156
  5.4178695678710938  0.8028937578201294 42.1494445800781250
  5.6224880218505859  9.9535121917724609 42.0813026428222727
 14.3001298904418928  0.9949585199356079 42.2130775451660156
 14.8135986328125000  9.4207067489624006 42.0469818115234375
  1.5800474882125854  3.0520093441009517 40.3873062133789062
  1.8135221004486082 12.4737977981567365 40.7132072448730469
 10.3929224014282227  3.0760529041290283 40.2033309936523438
 10.2951202392578107 12.2202653884887695 40.8652381896972727
  3.2765815258026123  7.4601740837097168 40.7546882629394531
  2.9502741554751992 16.7494407892227173 40.3960533142089915
 11.7353305816650391  8.0990638732910156 40.6190109252929688
 12.1862310627475363 16.5638309717178345 40.5472183227539062
  1.2138739824295044  3.3338165283203125 42.0647430419921875
  0.5122213959693909 11.9875869750976562 41.7656707763671875
  9.8701829910278320  3.2581954002380371 41.8504562377929688
  9.6335763931274414 12.9037141799926758 42.3231391906738281
  3.9316117763519287  7.9882249832153320 42.2761535644531321
  3.3583275536075234 17.1968775987625122 42.0284996032714844
 12.7358703613281250  7.9573493003845215 42.0334205627441406
 12.5479320744052529 17.1343477964401245 42.1534385681152344
  7.8927898406982413  6.1634578704833984 40.8749580383300852
  7.4919915199279785 15.0550146102905273 40.2777709960937500
 16.7432215213775670  5.7816438674926758 41.0290222167968821
 16.8151937723159826 15.0713396072387695 41.0174369812011790
  6.1412992477416992  1.1461812257766724 40.6128425598144602
  5.8367729187011719 10.5543212890625000 40.4614334106445312
 14.9162778854370117  1.4570332765579224 40.6461944580078125
 15.0392551422119141 10.4361543655395508 40.6226310729980469
  0.0116130113601685  4.5727353096008301 39.5993957519531250
  0.7852342128753662 14.4528350830078125 40.1039581298828196
  9.2398471832275391  4.9131307601928711 39.4401321411132812
  9.0120601654052734 13.5199327468872070 39.4630317687988352
  4.6522516468539825 17.9148376584053040 39.3933715820312500
  4.4096264839172363  9.0393018722534180 39.4982795715332102
 13.6654581287875772 17.9909980073571205 39.4855766296386719
 13.0648336410522443  9.6926651000976562 39.6151657104492259
  8.1032123565673828  5.4420318603515616 48.0459518432617259
  8.1007528305053711 14.4734306335449219 48.0459518432617259
 17.1336116790771484  5.4420318603515616 48.0459518432617259
 17.1311531066894531 14.4734306335449219 48.0459518432617259
  5.4410333633422852  0.9265221953392029 48.0449485778808594
  5.4385743141174316  9.9579219818115234 48.0449485778808594
 14.4714326858520490  0.9265221953392029 48.0449485778808594
 14.4689741134643555  9.9579219818115234 48.0449485778808594
  1.4218254089355467  3.0919990539550781 46.4558296203613281
  1.4193661212921143 12.1233978271484375 46.4558296203613281
 10.4522256851196289  3.0919990539550781 46.4558296203613281
 10.4497661590576172 12.1233978271484375 46.4558296203613281
  3.0899283885955806  7.6075901985168457 46.4545211791992188
  3.0874691009521484 16.6389904022216797 46.4545211791992188
 12.1203289031982422  7.6075901985168457 46.4545211791992188
 12.1178693771362305 16.6389904022216797 46.4545211791992188
  0.9247469902038573  3.5893490314483643 48.0459518432617259
  0.9222877025604248 12.6207475662231445 48.0459518432617259
  9.9551477432250977  3.5893490314483643 48.0459518432617259
  9.9526882171630859 12.6207475662231445 48.0459518432617259
  3.5868983268737793  8.1048498153686523 48.0448913574218821
  3.5844390392303462 17.1362495422363281 48.0448913574218821
 12.6172990798950195  8.1048498153686523 48.0448913574218821
 12.6148395538330078 17.1362495422363281 48.0448913574218821
  7.6061611175537109  5.9393639564514160 46.4558296203613281
  7.6037015914916992 14.9707632064819336 46.4558296203613281
 16.6365604400634766  5.9393639564514160 46.4558296203613281
 16.6341018676757812 14.9707632064819336 46.4558296203613281
  5.9380125999450684  1.4238001108169553 46.4545211791992188
  5.9355530738830566 10.4551992416381836 46.4545211791992188
 14.9684123992919904  1.4238001108169553 46.4545211791992188
 14.9659538269042951 10.4551992416381836 46.4545211791992188
 -0.0011664569610730  4.5157265663146973 45.3548011779785156
 -0.0036257810425013 13.5471258163452148 45.3548011779785156
  9.0292339324951172  4.5157265663146973 45.3548011779785156
  9.0267744064331037 13.5471258163452148 45.3548011779785156
  4.5152091979980469  0.0000000000000000 45.3536758422851562
  4.5127501487731934  9.0313997268676740 45.3536758422851562
 13.5456094741821289  0.0000000000000000 45.3536758422851562
 13.5431499481201172  9.0313997268676740 45.3536758422851562
 14.4090538024902344  9.2296466827392578 32.2101097106933594
 15.8630838394165021  9.0578384399414062 33.2493171691894531
 13.7741823196411133 11.3009004592895508 33.3751411437988281
 13.8411302566528320 11.3689022064208984 35.1263542175292969
 12.3632535934448242  8.1502914428710938 34.4910812377929688
 12.1253004074096680  9.8281917572021484 34.9986228942871094
 14.4506940841674805  7.7308654785156250 35.5148735046386719
 15.6681690216064453  9.0178403854370117 35.5676879882812500
 15.5301342010498047  6.8074893951416016 33.7201232910156321
 13.7903509140014648  6.8361067771911621 33.4228096008300781
 14.0796833038330078  6.8799252510070792 31.0335235595703125
 15.7499380111694336  7.4352955818176261 31.1206245422363281
 16.2199649810791016 11.1525201797485352 33.1751174926757812
 16.4385929107666016 10.9567394256591797 34.9142341613769602
 15.7617092132568359 12.4702758789062500 34.2596321105957031
 10.8434114456176758  9.3472433090209961 33.0188255310058594
 12.2309389114379883  8.8313283920288086 32.0821723937988281
 12.0755100250244141 10.5492620468139648 32.5486450195312571
 12.8737030029296857  9.0633392333984375 36.9082908630371165
 14.0356683731079084 10.4315137863159180 36.9722366333007812
 14.4531335830688477  8.8815069198608398 37.6906890869140625
 14.8783912658691406  4.6524209976196280 32.1070899963378906
 15.2565002441406250  4.9588775634765625 30.4144630432128906
 16.7229328155517578  2.9370050430297852 31.1305427551269567
 17.5490589141845703  7.0131077766418448 32.3032150268554688
  1.0678291320800803  2.3945336341857906 31.4099178314208984
  1.8604602813720703  6.4747185707092285 32.5808258056640625
  2.6980895996093763  4.1682877540588379 32.0835075378417969
 18.0058364868164062  4.1859688758850098 35.0415534973144531
  0.5702209472656248 13.9953641891479492 35.0846443176269531
  9.4338531494140625  4.9217243194580078 35.0561370849609375
  8.8862781524658203 13.7422981262207031 34.8014106750488281
  4.2890906333923340  9.2193336486816406 34.7883148193359375
  4.8483628490939736 18.0110289156436920 34.7428970336914062
 13.9574093082919699 17.8474830389022827 35.0285491943359375
  0.1289221644401550  4.4141178131103516 40.6720695495605469
  0.2819974422454834 13.7818021774291992 40.8096351623535156
  9.1426715850830078  4.6301455497741699 40.4959487915039062
  8.9024286270141602 13.6482715606689453 40.5491256713867188
  4.5614123344421387  9.0010938644409180 40.5838851928710938
  4.5310396412387490 17.9727404117584229 40.4900894165039062
 13.3700847625732422  9.2676610946655273 40.5872039794921875
 13.5580410221591592 18.0354001112282276 40.5818023681640696
  9.0289716720581055  4.5156092643737793 46.4455223083496165
  9.0265130996704102 13.5470085144042969 46.4455223083496165
 18.0593719482421875  4.5156092643737793 46.4455223083496165
 18.0569133758544922 13.5470085144042969 46.4455223083496165
  4.5152091979980469  0.0000180629995157 46.4442062377929759
  4.5127501487731934  9.0314178466796857 46.4442062377929759
 13.5456094741821289  0.0000180629995157 46.4442062377929759
 13.5431499481201172  9.0314178466796857 46.4442062377929759
 16.9559478759765625  5.0177850723266602 31.6791534423828161
 17.4292583465576172  3.7148423194885254 31.4529552459716797
 17.8776588439941406  5.9955573081970215 32.0929145812988281
  0.7210140228271490  3.4023833274841309 31.6158714294433629
  1.1767807006835933  5.6888151168823242 32.2363662719726562
  1.6342430114746089  4.3901381492614746 31.9899024963378906
 14.8138828277587873  8.7562313079833984 33.1303672790527344
 14.3244886398315430 10.9336719512939435 34.2443656921386719
 12.5572948455810547  9.1972608566284180 34.2120475769042969
 14.5873203277587873  8.8270559310913086 35.5814971923828196
 14.7536649703979492  7.2259836196899414 33.0606765747070384
 15.0139923095703125  6.7618627548217773 31.6117935180664098
 15.7763614654541016 11.3799905776977539 34.1522712707519531
 11.9171190261840803  9.5124235153198242 32.8785095214843750
 13.9289140701293928  9.3478136062622070 36.8416061401367188
 15.4735870361328125  5.2981815338134766 31.4452190399169922
  1.0651016235351558  4.5318207740783691 35.6216011047363281
  0.6503620147705098 12.8076820373535156 35.6407470703125000
  9.8427467346191406  3.7271776199340820 35.4077987670898438
  9.9015989303588867 13.0282011032104474 35.2311248779296875
  8.2230091094970703  5.3711066246032706 35.1800117492675781
  7.6393151283264160 13.5546178817749006 35.1612510681152415
 16.8202724456787109  4.5697050094604492 35.4576950073242188
 17.5960483551025391 14.8077268600463867 35.1864852905273438
  4.6588015556335440  8.0732917785644531 35.3095436096191406
  3.6229636669158936  0.2869093418121338 35.0398101806640625
 12.6649936893954873 17.8369523882865941 35.2520942687988281
  5.9056844711303711  0.6750876307487488 35.0172882080078125
  4.9071073532104492 10.3511514663696289 34.9924240112304688
 14.7574663162231445  0.7798177599906921 35.3154907226562500
  1.0291907787322998  3.5412411689758296 41.0775413513183594
  0.8997412919998169 12.6644306182861310 41.1139717102050781
  9.8308362960815430  3.5777812004089355 40.8796348571777344
  9.6636867523193359 12.8861818313598615 41.3163833618164134
  3.8958353996276855  8.1020135879516602 41.2690010070800781
  3.5625232914462686 17.2871290445327759 41.0321044921875000
 12.5777053833007812  8.3775625228881836 41.1234245300292969
 12.7219471195712686 17.2028629779815709 41.1545829772949219
  8.3803243637084961  5.3635478019714347 41.2673339843750071
  8.0362854003906250 14.5345230102539045 40.9675903320312500
 17.4132891297340393  5.1229271888732910 41.4473800659179688
 17.1880469322204590 14.1653909683227539 41.2878913879394602
  5.3962545394897461  0.6533875465393066 41.1453895568847656
  5.3911089897155762  9.8852643966674805 41.0862922668457031
 14.3032846450805664  0.8624457120895386 41.2013664245605540
 14.4919204711914045  9.7164916992187500 41.1177520751953125
  0.8273094892501831  3.6869695186614990 47.0359649658203125
  0.8248501420021057 12.7183685302734375 47.0359649658203125
  9.8577098846435547  3.6869695186614990 47.0359649658203125
  9.8552503585815412 12.7183685302734375 47.0359649658203125
  3.6843190193176270  8.2023353576660156 47.0346527099609375
  3.6818594932556152 17.2337341308593750 47.0346527099609375
 12.7147188186645508  8.2023353576660156 47.0346527099609375
 12.7122592926025391 17.2337341308593750 47.0346527099609375
  8.2006769180297852  5.3445744514465332 47.0360260009765696
  8.1982173919677734 14.3759746551513672 47.0360260009765696
 17.2310771942138672  5.3445744514465332 47.0360260009765696
 17.2286186218261719 14.3759746551513672 47.0360260009765696
  5.3436489105224600  0.8290914893150328 47.0346527099609375
  5.3411893844604483  9.8604917526245117 47.0346527099609375
 14.3740482330322266  0.8290914893150328 47.0346527099609375
 14.3715896606445312  9.8604917526245117 47.0346527099609375
 14.0627927780151349  9.4262533187866211 34.2855339050292969
  9.1844095448032022 17.6695292592048645 34.5939521789550852
  8.3115358352661133  8.9095630645751953 34.6572914123535227
  0.0796680748462677  0.2068381756544113 34.4922370910644531
  0.6480860710144043  8.9492874145507812 34.6708030700683594
  4.5747833251953125  4.4127254486083984 34.6761703491210938
  4.2308626174926758 13.9833297729492188 34.4300575256347727
 13.3503437042236310  3.9918146133422847 34.7100601196289134
 13.0007076263427734 14.3913784027099609 34.5368461608886790
 17.9471588144078851 17.8218406885862350 40.9052963256835938
  0.0597824677824974  9.0604772567749006 40.9500198364257812
  8.9812049865722656  0.0656666308641434 40.9030761718750000
  8.9654264450073242  9.0755481719970703 40.9277038574218750
  4.7228889465332031  4.2974820137023926 40.9621620178222656
  4.4606790542602539 13.6262750625610352 40.8574981689453196
 13.4010934829711896  4.6604886054992676 40.9771499633789062
 13.5813674926757812 13.4555606842041016 40.8411026000976634
  2.5575964450836182  2.0360083580017090 38.0551033020019531
  2.5996854305267330 11.0254526138305664 38.0692596435546946
 11.6079730987548828  1.9495849609375000 38.0557708740234375
 11.0891885757446271 11.4359369277954102 38.1753578186035156
  6.6266136169433585  6.9601726531982422 38.1979103088378906
  6.5747094154357901 15.9958009719848633 37.9266166687011719
 16.0590362548828125  6.5294184684753409 38.3835601806640625
 15.6217565536499023 16.0475482940673828 37.9041366577148438
  2.2409083843231201  6.6630377769470215 38.2967605590820384
  2.1338591575622559 15.8073530197143555 37.9185409545898438
 11.2003889083862305  6.7382493019103995 37.7086257934570312
 11.2023487091064453 15.6657047271728516 38.2745742797851562
  7.2354702949523917  2.6083271503448486 37.7622833251953125
  6.7898168563842765 11.4259262084960938 37.9419975280761719
 15.9633474349975568  2.4317378997802734 38.2840499877929759
 16.3660526275634766 11.8147068023681641 38.2534790039062500
  0.0000000000000000  0.0000000000000000 47.1735610961914062
 -0.0024593239650130  9.0313997268676740 47.1735610961914062
  9.0304002761840803  0.0000000000000000 47.1735610961914062
  9.0279407501220685  9.0313997268676740 47.1735610961914062
  4.5139794349670410  4.5156998634338379 47.1742515563964844
  4.5115203857421875 13.5470991134643537 47.1742515563964844
 13.5443792343139648  4.5156998634338379 47.1742515563964844
 13.5419197082519531 13.5470991134643537 47.1742515563964844
  2.4519233703613277  2.0629522800445557 44.0401268005371165
  2.4494640827178955 11.0943517684936523 44.0401268005371165
 11.4823226928710920  2.0629522800445557 44.0401268005371165
 11.4798641204833984 11.0943517684936523 44.0401268005371165
  6.5760178565979004  6.9684472084045410 44.0401268005371165
  6.5735583305358887 15.9998464584350586 44.0401268005371165
 15.6064186096191406  6.9684472084045410 44.0401268005371165
 15.6039590835571289 15.9998464584350586 44.0401268005371165
  2.0610768795013428  6.5788145065307617 44.0400009155273509
  2.0586175918579102 15.6102142333984375 44.0400009155273509
 11.0914773941040039  6.5788145065307617 44.0400009155273509
 11.0890178680419922 15.6102142333984375 44.0400009155273509
  6.9668641090393066  2.4525938034057613 44.0400657653808665
  6.9644045829772949 11.4839935302734375 44.0400657653808665
 15.9972639083862305  2.4525938034057613 44.0400657653808665
 15.9948053359985352 11.4839935302734375 44.0400657653808665
  2.4316265583038330  2.0832188129425049 50.0684852600097656
  2.4291670322418213 11.1146183013915998 50.0684852600097656
 11.4620265960693359  2.0832188129425049 50.0684852600097656
 11.4595670700073224 11.1146183013915998 50.0684852600097656
  6.5963144302368164  6.9481806755065918 50.0684852600097656
  6.5938549041748047 15.9795799255371076 50.0684852600097656
 15.6267137527465803  6.9481806755065918 50.0684852600097656
 15.6242542266845703 15.9795799255371076 50.0684852600097656
  2.0811281204223633  6.5990090370178223 50.0690460205078125
  2.0786688327789307 15.6304082870483398 50.0690460205078125
 11.1115283966064453  6.5990090370178223 50.0690460205078125
 11.1090688705444336 15.6304082870483398 50.0690460205078125
  6.9468131065368652  2.4323906898498531 50.0690460205078125
  6.9443535804748535 11.4637899398803711 50.0690460205078125
 15.9772129058837891  2.4323906898498531 50.0690460205078125
 15.9747543334960938 11.4637899398803711 50.0690460205078125
 18.0602807310060598  0.1287845671176910 37.7946128845214844
  0.1323307454586029  9.0972375869750959 37.8048591613769531
  9.0617498615756631 17.9673654139041901 37.7449951171875000
  8.9893093109130859  9.0289793014526367 37.7255210876464915
  4.5933837890625000  4.5392484664916992 37.8534736633300781
  4.4097204208374023 13.6695766448974609 37.7244949340820312
 13.5353269577026367  4.5418057441711426 37.8924636840820312
 13.5252571105957031 13.7112674713134766 37.6773376464843750
  0.0000090280000222  0.0000090310004452 44.0429992675781250
 -0.0024502959568053  9.0314083099365234 44.0429992675781250
  9.0304088592529297  0.0000090310004452 44.0429992675781250
  9.0279493331909180  9.0314083099365234 44.0429992675781250
  4.5139703750610352  4.5156903266906738 44.0427513122558594
  4.5115113258361816 13.5470905303955078 44.0427513122558594
 13.5443706512451172  4.5156903266906738 44.0427513122558594
 13.5419111251831037 13.5470905303955078 44.0427513122558594
  0.0000000000000000  0.0000000000000000 50.4472808837890696
 -0.0024593239650130  9.0313997268676740 50.4472808837890696
  9.0304002761840803  0.0000000000000000 50.4472808837890696
  9.0279407501220685  9.0313997268676740 50.4472808837890696
  4.5139703750610352  4.5156998634338379 50.4472808837890696
  4.5115113258361816 13.5470991134643537 50.4472808837890696
 13.5443706512451172  4.5156998634338379 50.4472808837890696
 13.5419111251831055 13.5470991134643537 50.4472808837890696
