 H  C  N  I Pb 
 1.0000000000000000
    18.0608005523681641    0.0000000000000000    0.0000000000000000
    -0.0049186488613486   18.0627994537353516    0.0000000000000000
     0.0000000000000000    0.0000000000000000   62.4874992370605469
 H   C   N   I   Pb 
 143  39  47  72  24
Cartesian
  7.5634870529174796  4.7030158042907715 35.8192176818847656
  7.3931293487548828 12.9397077560424805 35.8702430725097656
 16.6411800384521484  5.0643854141235352 36.3130493164062500
 16.9159584045410156 14.7041873931884766 35.9470176696777415
  5.7878837585449219  1.4672422409057617 35.6852226257324219
  5.6298618316650382 10.4780387878417969 35.6967811584472656
 14.4348917007446289  1.5228483676910400 35.9429550170898438
  1.9579448699951214  4.2360219955444336 35.2865333557128906
  1.4773120880126960 12.2086849212646484 35.5802574157714844
 10.9489870071411133  3.5660645961761475 35.3612518310546875
 10.8520975112915039 13.3151559829711914 34.9987640380859375
  6.8057928085327148  0.2704294919967651 34.8934593200683594
  4.5537209510803214 11.2378978729248047 34.5469436645507884
 15.7562437057495099  0.6278785467147827 35.1897392272949290
  1.0806770324707056  5.1167120933532706 36.4773139953613281
 18.0180473327636719 12.4789619445800781 36.3903465270996094
  9.4062156677246094  3.1020555496215820 36.0429039001464844
  9.8172302246093750 12.3770875930786133 36.0250434875488352
  5.3845729827880859  8.0160417556762695 36.0507392883300781
  3.3073730468750000  1.0094041824340820 35.6533393859863352
 12.1718482971191406  0.4610781073570251 35.7859306335449219
  7.9663558006286621  6.2574992179870605 35.0453300476074290
  6.9079995155334473 14.2207355499267578 34.7856826782226634
 15.9489574432373047  4.1232881546020508 35.0409812927246094
 17.7631282806396484 15.7772731781005859 34.8808326721191406
  4.0738005638122559  7.2493810653686515 35.1964988708496165
  2.7751573780551553 17.7234400212764776 34.7038307189941406
 12.1369852283969522 16.9241305589675903 35.0239677429199219
 10.1201353073120117  5.5759487152099600 34.5474853515625000
  9.1541919708251935 14.5957965850830078 34.1146965026855469
  0.0169486999511713  3.4967472553253174 34.1741752624511719
  1.4362449645996107 14.2613162994384766 34.4747695922851634
  3.3709230422973633  9.2121334075927734 34.1601753234863281
  4.9578971127048135 17.0435917377471924 34.1864776611328196
 14.3733000019565225 16.9171837568283117 34.5409049987792969
  8.1536760330200195  5.1393756866455078 42.2707672119140625
  7.8065581321716300 14.8012466430664045 41.9438247680664134
 17.4958440065383911  5.0324044227600098 42.5220756530761719
 16.6976920366287231 13.7484607696533203 42.0151748657226634
  5.3765068054199219  0.8490291237831115 42.1455307006836009
  5.6325354576110840  9.9682636260986310 42.0283012390136719
 14.3390254974365234  1.0772285461425781 42.1770744323730540
 14.7697401046752912  9.5724754333496094 42.1145248413086009
  1.5654060840606687  3.0024132728576660 40.3556900024414062
  1.7977722883224487 12.4247426986694336 40.7498512268066406
 10.4451951980590803  3.1303505897521973 40.2499198913574290
 10.2183017730712891 12.2151813507080078 40.9920463562011790
  3.2635300159454346  7.4149808883666983 40.8890228271484375
  2.9541036346927285 16.6891775131225586 40.4928169250488281
 11.8165798187255859  8.0553064346313477 40.6059951782226562
 12.1373781422153115 16.6033103466033936 40.7155342102050781
  1.2382996082305906  3.2792148590087891 42.0518951416015696
  0.5406685471534729 12.0504560470581037 41.8871536254882812
  9.8335704803466797  3.2534995079040527 41.8863258361816477
  9.5176897048950195 12.9489641189575195 42.4145317077636790
  3.9793953895568848  8.0276489257812500 42.3617134094238281
  3.3846463421359654 17.2277936935424805 42.1025161743164062
 12.7438173294067365  8.0117416381835938 42.0846939086914062
 12.5829462269321084 17.2571636438369751 42.2744140625000071
  7.8384332656860352  6.1545534133911124 40.8926086425781250
  7.5076389312744141 15.1064157485961896 40.2312736511230540
 16.7947163581848145  5.7694129943847656 41.1165695190429688
 16.8413991928100586 15.1204080581665039 40.9582061767578125
  6.0886416435241699  1.1573195457458494 40.5893898010253906
  5.7901172637939453 10.5249319076538086 40.3658485412597656
 14.9132690429687500  1.4563918113708496 40.5525245666503977
 15.0236740112304670 10.4994220733642578 40.6923141479492188
  0.0032693296670914  4.5648145675659180 39.6500930786132884
  0.7762719988822937 14.3688554763793945 40.0162620544433665
  9.2666330337524414  4.9756317138671875 39.4874992370605540
  9.0094432830810547 13.5098609924316406 39.5089530944824219
  4.6265572765842080 17.8474939912557602 39.4371871948242188
  4.3292813301086426  8.9384307861328125 39.5269317626953125
 13.5857357243075967 17.9538293033838308 39.5260276794433594
 13.1435556411743164  9.6501417160034180 39.6183319091796875
  8.1032123565673828  5.4420318603515616 48.0459518432617259
  8.1007528305053711 14.4734306335449219 48.0459518432617259
 17.1336116790771484  5.4420318603515616 48.0459518432617259
 17.1311531066894531 14.4734306335449219 48.0459518432617259
  5.4410333633422852  0.9265221953392029 48.0449485778808594
  5.4385743141174316  9.9579219818115234 48.0449485778808594
 14.4714326858520490  0.9265221953392029 48.0449485778808594
 14.4689741134643555  9.9579219818115234 48.0449485778808594
  1.4218254089355467  3.0919990539550781 46.4558296203613281
  1.4193661212921143 12.1233978271484375 46.4558296203613281
 10.4522256851196289  3.0919990539550781 46.4558296203613281
 10.4497661590576172 12.1233978271484375 46.4558296203613281
  3.0899283885955806  7.6075901985168457 46.4545211791992188
  3.0874691009521484 16.6389904022216797 46.4545211791992188
 12.1203289031982422  7.6075901985168457 46.4545211791992188
 12.1178693771362305 16.6389904022216797 46.4545211791992188
  0.9247469902038573  3.5893490314483643 48.0459518432617259
  0.9222877025604248 12.6207475662231445 48.0459518432617259
  9.9551477432250977  3.5893490314483643 48.0459518432617259
  9.9526882171630859 12.6207475662231445 48.0459518432617259
  3.5868983268737793  8.1048498153686523 48.0448913574218821
  3.5844390392303462 17.1362495422363281 48.0448913574218821
 12.6172990798950195  8.1048498153686523 48.0448913574218821
 12.6148395538330078 17.1362495422363281 48.0448913574218821
  7.6061611175537109  5.9393639564514160 46.4558296203613281
  7.6037015914916992 14.9707632064819336 46.4558296203613281
 16.6365604400634766  5.9393639564514160 46.4558296203613281
 16.6341018676757812 14.9707632064819336 46.4558296203613281
  5.9380125999450684  1.4238001108169553 46.4545211791992188
  5.9355530738830566 10.4551992416381836 46.4545211791992188
 14.9684123992919904  1.4238001108169553 46.4545211791992188
 14.9659538269042951 10.4551992416381836 46.4545211791992188
 -0.0011664569610730  4.5157265663146973 45.3548011779785156
 -0.0036257810425013 13.5471258163452148 45.3548011779785156
  9.0292339324951172  4.5157265663146973 45.3548011779785156
  9.0267744064331037 13.5471258163452148 45.3548011779785156
  4.5152091979980469  0.0000000000000000 45.3536758422851562
  4.5127501487731934  9.0313997268676740 45.3536758422851562
 13.5456094741821289  0.0000000000000000 45.3536758422851562
 13.5431499481201172  9.0313997268676740 45.3536758422851562
 14.3701477050781250  9.2254323959350586 32.2601623535156250
 15.8176136016845703  9.0939626693725586 33.2915077209472656
 13.7095870971679688 11.3404607772827148 33.4353408813476634
 13.8641986846923828 11.3337469100952148 35.1915626525878906
 12.3568935394287109  8.1572370529174805 34.5625610351562500
 12.1115493774414062  9.8474178314208984 35.0545043945312500
 14.4477052688598633  7.7316474914550772 35.5373725891113352
 15.6626739501953125  9.0432224273681641 35.6346893310546875
 15.5413093566894531  6.8219642639160156 33.7490539550781321
 13.8022899627685547  6.7893967628478995 33.4415130615234446
 14.0441064834594727  6.8768620491027832 31.0678119659423864
 15.7003030776977521  7.4486064910888663 31.1455650329589844
 16.2093238830566406 11.1275739669799805 33.1923294067382884
 16.4018821716308594 10.9753417968750000 34.9553146362304688
 15.7552528381347656 12.4787225723266602 34.2424507141113281
 10.7926101684570312  9.3801221847534180 33.0458793640136790
 12.2090406417846680  8.8201398849487305 32.1351623535156250
 12.0494289398193359 10.5572919845581055 32.5724334716796946
 12.9223585128784180  8.9653530120849609 37.0273246765136719
 13.9599332809448224 10.4303445816040039 36.9928817749023438
 14.5380096435546875  8.9563980102539062 37.7218513488769531
 14.9042901992797852  4.6824722290039062 32.1468658447265625
 15.2650146484375000  4.9762225151062003 30.4406108856201207
 16.7857322692871094  2.9776797294616699 31.1722984313964844
 17.5309600830078125  7.0749940872192383 32.2829666137695384
  1.1446571350097658  2.4670982360839844 31.3835334777832031
  1.8848724365234386  6.5564641952514648 32.4870567321777344
  2.7522544860839839  4.2740097045898438 31.9977035522460938
 17.9938201904296875  4.1317620277404785 35.0648536682128906
  0.5866413116455083 13.9754810333251953 35.1295013427734446
  9.4542589187622070  4.8913474082946777 35.0772781372070312
  8.9168958663940430 13.7856836318969709 34.8114128112792969
  4.2426323890686035  9.2301177978515625 34.8251075744628906
  4.8038233974948525 17.9645889997482300 34.7483139038086009
 13.9464515903964621 17.7902266383171082 35.0419197082519531
  0.1540726125240326  4.3770442008972168 40.7120056152343750
  0.3000963926315308 13.7593669891357422 40.8037261962890625
  9.1482543945312500  4.6439933776855469 40.5451049804687500
  8.8765659332275391 13.6645135879516602 40.5985565185546875
  4.5236206054687491  8.9529972076416016 40.6127166748046875
  4.5110167721286416 17.9536054357886314 40.5297737121582031
 13.4077529907226562  9.2883577346801758 40.6014747619628977
 13.5215477207675576 18.0458604022860527 40.6230583190917969
  9.0289716720581055  4.5156092643737793 46.4455223083496165
  9.0265130996704102 13.5470085144042969 46.4455223083496165
 18.0593719482421875  4.5156092643737793 46.4455223083496165
 18.0569133758544922 13.5470085144042969 46.4455223083496165
  4.5152091979980469  0.0000180629995157 46.4442062377929759
  4.5127501487731934  9.0314178466796857 46.4442062377929759
 13.5456094741821289  0.0000180629995157 46.4442062377929759
 13.5431499481201172  9.0314178466796857 46.4442062377929759
 16.9867496490478516  5.0485382080078125 31.6915359497070312
 17.4664325714111328  3.7614760398864746 31.4583759307861364
 17.9002971649169922  6.0565009117126465 32.0697174072265625
  0.7734928131103532  3.4744906425476074 31.5880451202392578
  1.1997871398925803  5.7696504592895508 32.1926612854003906
  1.6792163848876940  4.4845094680786133 31.9338455200195348
 14.7774906158447266  8.7652330398559570 33.1627922058105469
 14.3087921142578125 10.9358062744140625 34.2691802978515625
 12.5300788879394531  9.2089538574218750 34.2614173889160227
 14.5852384567260742  8.8214216232299805 35.6309547424316406
 14.7557754516601562  7.2203598022460938 33.0845909118652415
 14.9925556182861328  6.7746725082397461 31.6155929565429723
 15.7575578689575195 11.3770475387573242 34.1572341918945312
 11.8841753005981445  9.5208673477172852 32.9188728332519531
 13.9297561645507812  9.3372421264648438 36.8893890380859375
 15.5045070648193359  5.3267002105712882 31.4633808135986364
  1.0436935424804683  4.4756727218627930 35.6753692626953196
  0.6424808502197242 12.7904052734374982 35.6891593933105469
  9.9379720687866211  3.7369165420532222 35.4614181518554759
  9.8954887390136719 13.0361976623535156 35.2584114074707031
  8.2057027816772461  5.2830801010131836 35.2823219299316406
  7.6556987762451172 13.6462745666503906 35.1807823181152415
 16.7971611022949219  4.5315461158752441 35.4407234191894531
 17.6393013000488281 14.8161783218383789 35.2381134033203125
  4.5766625404357910  8.1039333343505859 35.4083366394042969
  3.5683164596557617  0.2144795060157776 35.0312919616699290
 12.6554712513461709 17.7795034050941467 35.2486648559570384
  5.8505091667175293  0.6170091032981873 35.0858230590820312
  4.8587083816528320 10.3831319808959961 35.0108757019043040
 14.7539644241333008  0.6967427730560303 35.4021186828613281
  1.0349030494689941  3.5005354881286617 41.0779838562011719
  0.8965617418289185 12.6764173507690430 41.1748428344726562
  9.8321952819824201  3.6061940193176270 40.9319915771484375
  9.5906267166137695 12.9134683609008789 41.4075584411621094
  3.8968701362609863  8.0826082229614258 41.3543052673339915
  3.5550784328952427 17.2591942548751831 41.1004180908203196
 12.6042127609252912  8.3831768035888672 41.1366119384765625
 12.7047771671786904 17.2608156204223633 41.2681007385253906
  8.3236684799194336  5.3526024818420401 41.3048553466796875
  8.0120267868041992 14.5901699066162109 40.9662742614746094
 17.4622820019721985  5.0983281135559082 41.5057754516601562
 17.2218282222747838 14.2282114028930664 41.2786178588867259
  5.3673739433288574  0.6702216863632202 41.1428947448730469
  5.3786654472351074  9.8761720657348633 41.0506706237792969
 14.3154420852661115  0.9019242525100708 41.1788101196289134
 14.4733715057373047  9.7947092056274414 41.1686058044433594
  0.8273094892501831  3.6869695186614990 47.0359649658203125
  0.8248501420021057 12.7183685302734375 47.0359649658203125
  9.8577098846435547  3.6869695186614990 47.0359649658203125
  9.8552503585815412 12.7183685302734375 47.0359649658203125
  3.6843190193176270  8.2023353576660156 47.0346527099609375
  3.6818594932556152 17.2337341308593750 47.0346527099609375
 12.7147188186645508  8.2023353576660156 47.0346527099609375
 12.7122592926025391 17.2337341308593750 47.0346527099609375
  8.2006769180297852  5.3445744514465332 47.0360260009765696
  8.1982173919677734 14.3759746551513672 47.0360260009765696
 17.2310771942138672  5.3445744514465332 47.0360260009765696
 17.2286186218261719 14.3759746551513672 47.0360260009765696
  5.3436489105224600  0.8290914893150328 47.0346527099609375
  5.3411893844604483  9.8604917526245117 47.0346527099609375
 14.3740482330322266  0.8290914893150328 47.0346527099609375
 14.3715896606445312  9.8604917526245117 47.0346527099609375
 14.0470085144042951  9.4218454360961896 34.3196563720703125
  9.1893228748813272 17.6626249551773071 34.6529884338378977
  8.2567129135131836  8.8331146240234375 34.6428871154785156
  0.1129557415843010  0.2435865849256516 34.5312728881835938
  0.6676211357116699  8.9430084228515625 34.6954994201660227
  4.5583510398864746  4.4144010543823242 34.7253570556640625
  4.2481288909912109 13.9512214660644513 34.4530296325683594
 13.3865499496459961  4.0017027854919434 34.7113075256347656
 12.9582109451293928 14.3828830718994123 34.4065780639648438
 17.9701108271256089 17.8477696180343628 40.9023132324218750
  0.0661599263548851  9.0508699417114258 40.9787979125976562
  8.9866733551025391  0.1010157763957977 40.9488372802734375
  8.9685516357421875  9.0785665512084961 40.9230957031250000
  4.7015619277954093  4.2694091796875000 40.9750938415527344
  4.4721932411193848 13.5697040557861328 40.8713188171386790
 13.3822259902954102  4.5911736488342285 40.9582214355468750
 13.5953140258789062 13.5271244049072266 40.8590049743652415
  2.6003835201263428  2.0325038433074951 38.0597381591796875
  2.5806641578674316 11.0450487136840820 38.1126937866210938
 11.6319818496704084  1.9546277523040771 38.0447158813476562
 11.0637245178222656 11.4725637435913068 38.2511634826660227
  6.6102313995361328  6.9656906127929679 38.2628440856933665
  6.5909018516540518 16.0132656097412109 37.9498710632324290
 16.0704593658447266  6.5161929130554199 38.4320945739746094
 15.6445398330688477 16.0131797790527344 37.9397163391113281
  2.1973369121551514  6.6183233261108398 38.3018951416015625
  2.1364505290985107 15.8220548629760742 37.8981361389160156
 11.1587562561035156  6.7063908576965323 37.8240699768066406
 11.2064123153686523 15.6742191314697266 38.2294616699218821
  7.2241759300231925  2.6100196838378906 37.7912445068359375
  6.7874999046325684 11.4416437149047852 37.9176521301269531
 15.9810647964477539  2.4703481197357173 38.3422012329101634
 16.4186897277832031 11.8764228820800781 38.2933654785156250
  0.0000000000000000  0.0000000000000000 47.1735610961914062
 -0.0024593239650130  9.0313997268676740 47.1735610961914062
  9.0304002761840803  0.0000000000000000 47.1735610961914062
  9.0279407501220685  9.0313997268676740 47.1735610961914062
  4.5139794349670410  4.5156998634338379 47.1742515563964844
  4.5115203857421875 13.5470991134643537 47.1742515563964844
 13.5443792343139648  4.5156998634338379 47.1742515563964844
 13.5419197082519531 13.5470991134643537 47.1742515563964844
  2.4519233703613277  2.0629522800445557 44.0401268005371165
  2.4494640827178955 11.0943517684936523 44.0401268005371165
 11.4823226928710920  2.0629522800445557 44.0401268005371165
 11.4798641204833984 11.0943517684936523 44.0401268005371165
  6.5760178565979004  6.9684472084045410 44.0401268005371165
  6.5735583305358887 15.9998464584350586 44.0401268005371165
 15.6064186096191406  6.9684472084045410 44.0401268005371165
 15.6039590835571289 15.9998464584350586 44.0401268005371165
  2.0610768795013428  6.5788145065307617 44.0400009155273509
  2.0586175918579102 15.6102142333984375 44.0400009155273509
 11.0914773941040039  6.5788145065307617 44.0400009155273509
 11.0890178680419922 15.6102142333984375 44.0400009155273509
  6.9668641090393066  2.4525938034057613 44.0400657653808665
  6.9644045829772949 11.4839935302734375 44.0400657653808665
 15.9972639083862305  2.4525938034057613 44.0400657653808665
 15.9948053359985352 11.4839935302734375 44.0400657653808665
  2.4316265583038330  2.0832188129425049 50.0684852600097656
  2.4291670322418213 11.1146183013915998 50.0684852600097656
 11.4620265960693359  2.0832188129425049 50.0684852600097656
 11.4595670700073224 11.1146183013915998 50.0684852600097656
  6.5963144302368164  6.9481806755065918 50.0684852600097656
  6.5938549041748047 15.9795799255371076 50.0684852600097656
 15.6267137527465803  6.9481806755065918 50.0684852600097656
 15.6242542266845703 15.9795799255371076 50.0684852600097656
  2.0811281204223633  6.5990090370178223 50.0690460205078125
  2.0786688327789307 15.6304082870483398 50.0690460205078125
 11.1115283966064453  6.5990090370178223 50.0690460205078125
 11.1090688705444336 15.6304082870483398 50.0690460205078125
  6.9468131065368652  2.4323906898498531 50.0690460205078125
  6.9443535804748535 11.4637899398803711 50.0690460205078125
 15.9772129058837891  2.4323906898498531 50.0690460205078125
 15.9747543334960938 11.4637899398803711 50.0690460205078125
 18.0559112397022545  0.1344569623470306 37.8087196350097656
  0.1347090899944305  9.0894298553466797 37.8169288635253906
  9.0623831013217568 17.9538553729653358 37.7673072814941406
  8.9444627761840820  9.0137929916381836 37.7180480957031321
  4.5646686553955078  4.5482416152954102 37.8649711608886719
  4.3820581436157227 13.6720390319824219 37.7272453308105540
 13.5535316467285156  4.5517992973327637 37.8916320800781250
 13.5362014770507795 13.6739501953124982 37.6960868835449219
  0.0000090280000222  0.0000090310004452 44.0429992675781250
 -0.0024502959568053  9.0314083099365234 44.0429992675781250
  9.0304088592529297  0.0000090310004452 44.0429992675781250
  9.0279493331909180  9.0314083099365234 44.0429992675781250
  4.5139703750610352  4.5156903266906738 44.0427513122558594
  4.5115113258361816 13.5470905303955078 44.0427513122558594
 13.5443706512451172  4.5156903266906738 44.0427513122558594
 13.5419111251831037 13.5470905303955078 44.0427513122558594
  0.0000000000000000  0.0000000000000000 50.4472808837890696
 -0.0024593239650130  9.0313997268676740 50.4472808837890696
  9.0304002761840803  0.0000000000000000 50.4472808837890696
  9.0279407501220685  9.0313997268676740 50.4472808837890696
  4.5139703750610352  4.5156998634338379 50.4472808837890696
  4.5115113258361816 13.5470991134643537 50.4472808837890696
 13.5443706512451172  4.5156998634338379 50.4472808837890696
 13.5419111251831055 13.5470991134643537 50.4472808837890696
