 H  C  N  I Pb 
 1.0000000000000000
    18.0608005523681641    0.0000000000000000    0.0000000000000000
    -0.0049186488613486   18.0627994537353516    0.0000000000000000
     0.0000000000000000    0.0000000000000000   62.4874992370605469
 H   C   N   I   Pb 
 143  39  47  72  24
Cartesian
  8.0808334350585938  5.4944114685058594 36.3000793457031250
  8.0563354492187500 15.1446294784545898 36.0806083679199219
 16.9923439025878906  4.7678246498107910 36.5624732971191406
 17.4001045227050781 14.5579910278320295 36.6569519042968821
  5.4134397506713867  0.8350195884704589 36.3920021057128977
  5.5177187919616699 10.0588407516479492 36.3962287902832102
 14.0247526168823242  1.2507910728454590 36.3599739074707031
  1.9273834228515609  3.7173755168914795 34.6739463806152344
  1.5847549438476554 12.2937078475952148 34.8897590637207031
 10.3936214447021484  3.2355325222015381 34.8655128479003906
  9.4462709426879865 11.8654966354370117 35.4218063354492188
  6.4776329994201660  0.5873537063598633 35.0336914062500000
  5.3881654739379883 10.9462232589721680 34.9341850280761719
 15.2420282363891602  1.1412006616592407 35.1376457214355469
  1.2794704437255864  3.7843925952911373 36.2915153503418040
  0.7367572784423836 12.4958829879760742 36.3976898193359375
 10.1399507522583008  4.2502522468566895 36.1955795288085938
  8.9558820724487305 12.9045953750610352 36.7028961181640625
  4.2370972633361816  7.8644876480102539 36.4248390197753906
  3.1336819389835000 17.8076716661453283 36.2358589172363281
 12.2675451496616006 17.5573986172676086 36.3157844543457031
  6.9004068374633789  5.2078461647033683 35.0599899291992188
  8.1451835632324219 15.5746307373046875 34.3976173400878906
 16.2034816741943359  5.0746903419494629 35.0336456298828125
 17.3669242858886719 15.6511516571044922 35.2797012329101634
  3.4111988544464107  7.4467887878417960 34.9661979675292969
  2.7918085316196084 17.0316085815429688 34.7367820739746094
 12.4207395771518350 16.3281176090240479 35.0459480285644602
  8.2866239547729492  3.7550611495971680 33.9478836059570312
  9.0421819686889648 13.5573577880859375 33.7856941223144602
 18.0450286865234375  4.5001206398010254 33.7221603393554688
  0.7548046112060552 14.2672271728515625 34.0227546691894531
  4.0358042716979980  9.3492803573608398 33.8741607666015625
  4.8766454914584756 17.4624571800231934 33.8343849182128906
 14.2979511478915793 17.3179795742034948 34.1569786071777344
  8.1999158859252930  5.5643930435180664 42.2551002502441406
  7.8911380767822257 14.7692613601684570 42.0214653015136719
 17.3521447181701660  5.1336765289306641 42.4751243591308594
 16.9108881950378418 14.4798564910888654 42.1573257446289062
  5.5293006896972656  0.9670546650886536 42.0909805297851562
  5.3428916931152344  9.9965791702270508 42.2706794738769531
 14.5616798400878906  0.9194286465644836 42.2348289489746165
 15.1108722686767578  9.6470193862915039 41.9280624389648509
  1.5188852548599243  3.1117227077484131 40.3771476745605469
  1.6899144649505615 12.4253549575805664 40.9174194335937500
 10.2930631637573242  2.9396843910217285 40.7397003173828125
 10.2805624008178711 12.1381940841674805 41.1692848205566477
  3.3358023166656494  7.4156894683837882 40.5503692626953196
  3.0780984619632363 16.6336350440979004 40.8035583496093821
 11.8955173492431641  8.1431722640991211 41.0125427246093821
 12.0228895405307412 16.8439251184463501 40.6727142333984446
  1.1486899852752686  3.3924634456634521 42.0568199157714915
  0.7901638150215149 12.6463766098022461 42.3783760070800781
 10.0199995040893555  3.6664156913757324 42.2722091674804688
  9.5799407958984375 12.9056568145751935 42.5793762207031250
  3.7591168880462642  7.9285073280334464 42.1488800048828125
  3.6773697594180703 17.2384958267211914 42.3191719055175852
 13.0636157989501953  8.1271076202392578 42.2967987060546875
 12.5517009953036904 17.3549884557724035 42.2459640502929688
  7.4760918617248535  5.8526206016540527 40.7134704589843821
  7.6809329986572266 15.1033830642700195 40.3291893005371094
 16.6604728698730469  5.8239102363586426 41.0161399841308594
 16.7767306566238439 15.1602077484130859 40.5874938964843750
  5.9777607917785645  1.3837559223175047 40.4673461914062500
  5.8180937767028809 10.6299314498901367 40.7191696166992259
 15.1817102432250977  1.3191809654235840 40.6633949279785227
 15.1776247024536115 10.4072170257568359 40.3690719604492188
 17.9968832805752754  4.6207146644592285 39.6139678955078125
  0.5040049552917480 14.0218706130981445 39.6972999572753906
  8.7202072143554688  4.2536072731018066 39.6333885192871094
  9.1747169494628906 13.4838514328002930 39.6635780334472727
  4.4988588551059365 17.9781517237424850 39.5176620483398438
  4.5709633827209473  9.0598640441894513 39.5208015441894602
 13.6803865432739258  0.0249589681625366 39.5518341064453125
 13.2105369567871076  9.5786046981811523 39.6900672912597656
  8.1032123565673828  5.4420318603515616 48.0459518432617259
  8.1007528305053711 14.4734306335449219 48.0459518432617259
 17.1336116790771484  5.4420318603515616 48.0459518432617259
 17.1311531066894531 14.4734306335449219 48.0459518432617259
  5.4410333633422852  0.9265221953392029 48.0449485778808594
  5.4385743141174316  9.9579219818115234 48.0449485778808594
 14.4714326858520490  0.9265221953392029 48.0449485778808594
 14.4689741134643555  9.9579219818115234 48.0449485778808594
  1.4218254089355467  3.0919990539550781 46.4558296203613281
  1.4193661212921143 12.1233978271484375 46.4558296203613281
 10.4522256851196289  3.0919990539550781 46.4558296203613281
 10.4497661590576172 12.1233978271484375 46.4558296203613281
  3.0899283885955806  7.6075901985168457 46.4545211791992188
  3.0874691009521484 16.6389904022216797 46.4545211791992188
 12.1203289031982422  7.6075901985168457 46.4545211791992188
 12.1178693771362305 16.6389904022216797 46.4545211791992188
  0.9247469902038573  3.5893490314483643 48.0459518432617259
  0.9222877025604248 12.6207475662231445 48.0459518432617259
  9.9551477432250977  3.5893490314483643 48.0459518432617259
  9.9526882171630859 12.6207475662231445 48.0459518432617259
  3.5868983268737793  8.1048498153686523 48.0448913574218821
  3.5844390392303462 17.1362495422363281 48.0448913574218821
 12.6172990798950195  8.1048498153686523 48.0448913574218821
 12.6148395538330078 17.1362495422363281 48.0448913574218821
  7.6061611175537109  5.9393639564514160 46.4558296203613281
  7.6037015914916992 14.9707632064819336 46.4558296203613281
 16.6365604400634766  5.9393639564514160 46.4558296203613281
 16.6341018676757812 14.9707632064819336 46.4558296203613281
  5.9380125999450684  1.4238001108169553 46.4545211791992188
  5.9355530738830566 10.4551992416381836 46.4545211791992188
 14.9684123992919904  1.4238001108169553 46.4545211791992188
 14.9659538269042951 10.4551992416381836 46.4545211791992188
 -0.0011664569610730  4.5157265663146973 45.3548011779785156
 -0.0036257810425013 13.5471258163452148 45.3548011779785156
  9.0292339324951172  4.5157265663146973 45.3548011779785156
  9.0267744064331037 13.5471258163452148 45.3548011779785156
  4.5152091979980469  0.0000000000000000 45.3536758422851562
  4.5127501487731934  9.0313997268676740 45.3536758422851562
 13.5456094741821289  0.0000000000000000 45.3536758422851562
 13.5431499481201172  9.0313997268676740 45.3536758422851562
 12.9280328750610352  8.0421457290649414 34.0014533996582102
 13.3158254623413086  9.1061439514160156 32.6462173461914062
 11.6954345703125000  9.7722930908203125 35.0358657836914134
 12.4211349487304688 11.4332447052001953 35.1612052917480540
 15.0724897384643537  9.1320877075195312 35.9843864440917969
 13.9231204986572266 10.3238725662231428 36.6404838562011719
 15.6070060729980469 10.0881757736206055 33.6570320129394531
 14.4514942169189453 11.1701335906982422 33.0289878845214844
 15.6739978790283203  8.6784601211547852 32.6826477050781250
 15.6199159622192383  7.9840636253356925 34.3014907836914062
 15.9670143127441406  6.2740364074707031 32.7208137512207031
 14.3962726593017578  5.9833483695983887 33.4483413696289062
 11.2240171432495117  9.8637552261352539 32.8099517822265625
 12.4409561157226562 11.1431026458740234 32.4043083190917969
 10.9531984329223633 11.5376033782958984 33.2774696350097656
 13.4364194869995117  8.1267690658569336 37.5068664550781321
 13.3846521377563477  7.3371257781982422 35.9415245056152415
 12.0814590454101562  8.4848098754882812 36.4081535339355469
 15.0390272140502930 12.2785720825195312 35.6251220703125000
 15.8317432403564453 12.6587800979614258 34.0784912109375000
 16.5299625396728516 11.4468536376953125 35.1489562988281250
 14.9891014099121094  7.1879744529724112 30.7025661468505859
 14.4208717346191406  5.5804829597473145 31.0392189025878942
 12.0896482467651367  5.6821475028991699 32.5966682434082031
 13.4616260528564435  8.6886167526245117 29.8164043426513707
  9.7895412445068359  6.6111836433410636 32.4337120056152344
 11.1615695953369123  9.5985536575317383 29.6778087615966797
  9.3084716796875000  8.5637331008911133 31.0458412170410192
  0.0336093902587901  4.4126749038696289 34.7901649475097656
  0.4448108673095730 13.9768409729003906 35.0110359191894531
  8.6373014450073242  4.2030725479125977 34.8796691894531250
  8.8510532379150391 13.7248315811157227 34.8320007324218750
  4.3883366584777832  9.2121009826660156 34.8904647827148438
  4.6287826756015420 17.8244082927703857 34.8268165588378906
 13.8406995991244912 17.7729218006134033 35.0279006958007812
  0.0614991188049316  4.4672694206237793 40.6964530944824219
  0.2225863635540009 13.7898559570312500 40.7353134155273509
  8.8843421936035156  4.3929071426391602 40.7126350402832031
  9.0040864944458008 13.6142854690551758 40.7358970642089915
  4.5825319290161124  9.0301046371459961 40.6114425659179688
  4.5076607922092080 18.0262834727764130 40.6161804199218821
 13.5490188598632812  9.2853946685791016 40.6591835021972727
 13.5947065353393555  0.0413582883775234 40.6477508544921875
  9.0289716720581055  4.5156092643737793 46.4455223083496165
  9.0265130996704102 13.5470085144042969 46.4455223083496165
 18.0593719482421875  4.5156092643737793 46.4455223083496165
 18.0569133758544922 13.5470085144042969 46.4455223083496165
  4.5152091979980469  0.0000180629995157 46.4442062377929759
  4.5127501487731934  9.0314178466796857 46.4442062377929759
 13.5456094741821289  0.0000180629995157 46.4442062377929759
 13.5431499481201172  9.0314178466796857 46.4442062377929759
 12.9506912231445312  7.1269969940185547 31.2139797210693359
 11.8977136611938477  6.5453457832336417 31.9382381439208984
 12.6531791687011719  8.2068452835083008 30.3880558013916051
 10.5914106369018555  7.0573458671569824 31.8461704254150391
 11.3579282760620099  8.7463970184326172 30.3045806884765625
 10.2973690032958984  8.1571559906005859 31.0552120208740270
 13.6835794448852539  8.7378673553466797 33.6153373718261719
 12.3420734405517560 10.5123043060302734 34.5488281250000071
 14.0361442565917969  9.4601612091064453 35.9619941711425781
 14.8377857208251953 10.7845153808593750 33.9663581848144531
 15.0616703033447248  8.0551757812500000 33.3569259643554688
 14.9388217926025373  6.6485657691955566 32.7508544921875071
 11.7285795211791974 10.7717075347900391 33.1761016845703125
 13.1655559539794922  8.3001241683959961 36.4533195495605469
 15.5640716552734375 11.8393783569335938 34.7699890136718750
 14.3405590057373047  6.6186423301696777 31.3556709289550817
  1.1434364318847692  3.9424314498901367 35.2885017395019602
  0.9452114105224629 12.8460025787353516 35.4837150573730469
  9.7740449905395508  3.8349847793579102 35.3633079528808594
  9.1649389266967773 12.8016138076782227 35.7117729187011790
  7.8391237258911133  5.0737385749816895 35.4457931518554688
  8.3148651123046875 14.8965711593627930 35.1304855346679688
 17.0372848510742188  4.7790460586547852 35.5277671813964844
 17.6630573272705078 14.7408075332641602 35.6863517761230469
  3.9856553077697754  8.0806694030761719 35.4434127807617188
  3.4502455452457070 17.5345457792282104 35.2803115844726562
 12.7379802921786904 17.1886392235755920 35.4724159240722727
  5.5743660926818848  0.4505440592765808 35.4446983337402344
  5.1269264221191406 10.1264266967773438 35.4325180053711009
 14.4328899383544904  0.7371179461479186 35.5490341186523438
  0.9492047429084777  3.6273667812347412 41.0749855041503977
  0.9102183580398560 12.9188280105590820 41.3821296691894602
  9.7668638229370117  3.6556935310363765 41.2846488952636790
  9.6641893386840820 12.8273801803588867 41.5483627319336009
  3.8592245578765869  8.0640869140625000 41.1542739868164062
  3.7124864319339395 17.2611188888549840 41.3066101074218750
 12.8065280914306641  8.4591398239135742 41.3578910827636719
 12.6750625828281027 17.3927674889564514 41.2444763183593750
  8.1427726745605469  5.3344845771789551 41.2871093750000000
  8.1334962844848633 14.5579423904418945 41.0693473815918040
 17.3088276386260986  5.2023110389709473 41.4719123840332031
 17.2708051800727844 14.4883661270141602 41.1810569763183665
  5.4010181427001944  0.8279148340225219 41.1091461181640625
  5.2641072273254395  9.9201908111572266 41.2633438110351634
 14.5087642669677734  0.8122518062591553 41.2399253845214844
 14.7103271484375000  9.8092651367187500 41.0256385803222656
  0.8273094892501831  3.6869695186614990 47.0359649658203125
  0.8248501420021057 12.7183685302734375 47.0359649658203125
  9.8577098846435547  3.6869695186614990 47.0359649658203125
  9.8552503585815412 12.7183685302734375 47.0359649658203125
  3.6843190193176270  8.2023353576660156 47.0346527099609375
  3.6818594932556152 17.2337341308593750 47.0346527099609375
 12.7147188186645508  8.2023353576660156 47.0346527099609375
 12.7122592926025391 17.2337341308593750 47.0346527099609375
  8.2006769180297852  5.3445744514465332 47.0360260009765696
  8.1982173919677734 14.3759746551513672 47.0360260009765696
 17.2310771942138672  5.3445744514465332 47.0360260009765696
 17.2286186218261719 14.3759746551513672 47.0360260009765696
  5.3436489105224600  0.8290914893150328 47.0346527099609375
  5.3411893844604483  9.8604917526245117 47.0346527099609375
 14.3740482330322266  0.8290914893150328 47.0346527099609375
 14.3715896606445312  9.8604917526245117 47.0346527099609375
 13.7634382247924805  9.8888807296752930 34.5376052856445384
  8.8285751342773438  0.2890528738498688 34.4538764953613281
  8.7094917297363281  9.3616933822631836 34.7619972229003906
 17.8389566391706467  0.1156988665461540 34.5373535156250071
  0.5608257651329041  9.1249818801879883 34.6908073425292969
  4.5051288604736328  4.4737086296081543 34.4595718383789062
  4.5913453102111816 13.5713367462158203 34.5581550598144531
 13.3429975509643537  3.9238562583923340 34.9414787292480469
 12.9472818374633771 14.1587305068969709 34.1266975402832102
  0.0316382385790348  0.0726905018091202 40.9024734497070312
  0.2640946507453918  8.9452943801879883 41.0005912780761719
  8.9811262348666787 18.0255688279867172 40.8813285827636719
  9.0399379730224609  8.8347940444946289 40.9616050720214844
  4.5972723960876456  4.4231309890747070 40.8455772399902344
  4.5891222953796387 13.6161451339721662 40.9126129150390696
 13.3686771392822266  4.6070570945739746 41.0358924865722656
 13.6575584411621076 13.6222543716430646 40.8598861694335938
  2.6032969951629639  1.9573490619659424 37.9713859558105469
  2.6537995338439941 11.0699281692504883 38.1317024230957031
 11.6448326110839826  1.8951908349990843 38.1396369934082031
 11.1759538650512695 11.4275636672973633 38.4566688537597656
  6.3916292190551749  7.0901894569396973 38.0120353698730469
  6.6271128654479980 16.0453701019287109 37.9877624511718821
 15.9100542068481445  6.7168889045715332 38.3516235351562500
 15.5463151931762695 16.1474361419677734 38.1014175415039062
  2.0435585975646973  6.4066400527954102 38.0070343017578125
  2.1005103588104248 15.7063064575195312 38.0434799194335938
 10.6136455535888672  6.1710577011108398 38.0189933776855469
 10.9980411529541016 15.6092157363891602 38.0882263183593750
  7.0073900222778311  2.5345711708068848 38.0871810913085938
  6.9156856536865234 11.4685964584350586 38.3157081604003977
 15.9643287658691406  2.5133199691772456 38.3246688842773438
 16.5322380065917969 11.7564249038696289 38.5245780944824290
  0.0000000000000000  0.0000000000000000 47.1735610961914062
 -0.0024593239650130  9.0313997268676740 47.1735610961914062
  9.0304002761840803  0.0000000000000000 47.1735610961914062
  9.0279407501220685  9.0313997268676740 47.1735610961914062
  4.5139794349670410  4.5156998634338379 47.1742515563964844
  4.5115203857421875 13.5470991134643537 47.1742515563964844
 13.5443792343139648  4.5156998634338379 47.1742515563964844
 13.5419197082519531 13.5470991134643537 47.1742515563964844
  2.4519233703613277  2.0629522800445557 44.0401268005371165
  2.4494640827178955 11.0943517684936523 44.0401268005371165
 11.4823226928710920  2.0629522800445557 44.0401268005371165
 11.4798641204833984 11.0943517684936523 44.0401268005371165
  6.5760178565979004  6.9684472084045410 44.0401268005371165
  6.5735583305358887 15.9998464584350586 44.0401268005371165
 15.6064186096191406  6.9684472084045410 44.0401268005371165
 15.6039590835571289 15.9998464584350586 44.0401268005371165
  2.0610768795013428  6.5788145065307617 44.0400009155273509
  2.0586175918579102 15.6102142333984375 44.0400009155273509
 11.0914773941040039  6.5788145065307617 44.0400009155273509
 11.0890178680419922 15.6102142333984375 44.0400009155273509
  6.9668641090393066  2.4525938034057613 44.0400657653808665
  6.9644045829772949 11.4839935302734375 44.0400657653808665
 15.9972639083862305  2.4525938034057613 44.0400657653808665
 15.9948053359985352 11.4839935302734375 44.0400657653808665
  2.4316265583038330  2.0832188129425049 50.0684852600097656
  2.4291670322418213 11.1146183013915998 50.0684852600097656
 11.4620265960693359  2.0832188129425049 50.0684852600097656
 11.4595670700073224 11.1146183013915998 50.0684852600097656
  6.5963144302368164  6.9481806755065918 50.0684852600097656
  6.5938549041748047 15.9795799255371076 50.0684852600097656
 15.6267137527465803  6.9481806755065918 50.0684852600097656
 15.6242542266845703 15.9795799255371076 50.0684852600097656
  2.0811281204223633  6.5990090370178223 50.0690460205078125
  2.0786688327789307 15.6304082870483398 50.0690460205078125
 11.1115283966064453  6.5990090370178223 50.0690460205078125
 11.1090688705444336 15.6304082870483398 50.0690460205078125
  6.9468131065368652  2.4323906898498531 50.0690460205078125
  6.9443535804748535 11.4637899398803711 50.0690460205078125
 15.9772129058837891  2.4323906898498531 50.0690460205078125
 15.9747543334960938 11.4637899398803711 50.0690460205078125
 17.9594553112983704  0.0929241329431534 37.7583160400390696
  0.1267502307891846  9.0799264907836914 37.8081474304199219
  9.0582246780395508  0.1299720108509064 37.6983871459960938
  8.9971914291381836  9.0623168945312482 37.7812805175781321
  4.5200986862182617  4.4796495437622070 37.6979064941406250
  4.5440421104431152 13.5957479476928711 37.6734733581542969
 13.4751358032226562  4.5703959465026855 37.9401702880859446
 13.4030618667602521 13.7234077453613281 37.7149009704589915
  0.0000090280000222  0.0000090310004452 44.0429992675781250
 -0.0024502959568053  9.0314083099365234 44.0429992675781250
  9.0304088592529297  0.0000090310004452 44.0429992675781250
  9.0279493331909180  9.0314083099365234 44.0429992675781250
  4.5139703750610352  4.5156903266906738 44.0427513122558594
  4.5115113258361816 13.5470905303955078 44.0427513122558594
 13.5443706512451172  4.5156903266906738 44.0427513122558594
 13.5419111251831037 13.5470905303955078 44.0427513122558594
  0.0000000000000000  0.0000000000000000 50.4472808837890696
 -0.0024593239650130  9.0313997268676740 50.4472808837890696
  9.0304002761840803  0.0000000000000000 50.4472808837890696
  9.0279407501220685  9.0313997268676740 50.4472808837890696
  4.5139703750610352  4.5156998634338379 50.4472808837890696
  4.5115113258361816 13.5470991134643537 50.4472808837890696
 13.5443706512451172  4.5156998634338379 50.4472808837890696
 13.5419111251831055 13.5470991134643537 50.4472808837890696
