 H  C  N  I Pb 
 1.0000000000000000
    18.0608005523681641    0.0000000000000000    0.0000000000000000
    -0.0049186488613486   18.0627994537353516    0.0000000000000000
     0.0000000000000000    0.0000000000000000   62.4874992370605469
 H   C   N   I   Pb 
 143  39  47  72  24
Cartesian
  7.9608850479125977  5.7609090805053711 35.7192802429199219
  7.6180362701416016 15.0068054199218750 35.6802291870117259
 17.5780258178710938  5.7974357604980469 36.2772178649902344
 17.2494735717773438 14.6562337875366211 36.1879844665527344
  5.7375230053439736 17.2105622291564941 35.8462409973144531
  6.0636143684387207 10.1657991409301758 35.7374191284179688
 14.3728094100952148  1.3752651214599609 36.1288986206054688
  0.4433326721191400  2.4663512706756592 35.1224021911621094
  1.1188869476318373 11.6856880187988281 35.3320426940918040
 10.2170429229736328  3.2048125267028809 34.5270462036132812
  9.4086618423461914 11.8750829696655273 35.2178688049316406
  6.4816360473632812  0.3400560021400452 34.8093414306640625
  5.1035885810852051 11.3178501129150391 34.8134918212890696
 15.7012529373168945  0.5087049007415771 35.3524131774902415
 17.8237705230712891  3.3685531616210938 36.4922256469726562
  0.0687961578369147 12.3651132583618164 36.5377426147460938
 10.1201162338256818  4.6069469451904297 35.5639495849609375
  8.0897598266601562 12.5361642837524396 36.0742683410644602
  5.1513080596923828  7.8425626754760742 35.9332580566406250
  3.2894703606143594 16.8944550752639771 35.7010192871093750
 12.1450805664062482  0.4169776439666748 35.8868942260742188
  6.5964603424072266  5.0232729911804199 34.8841133117675852
  8.7622060775756836 15.8783693313598633 34.6827278137207102
  0.3706436157226562  6.5395045280456543 34.9528656005859375
 17.9173622131347656 15.5422430038452148 34.8428115844726562
  3.5834410190582275  7.5892505645751953 35.1935882568359446
  2.4213234642520547 17.9882747456431389 34.6448020935058594
 12.0583156803622842 16.8984916210174561 35.0715713500976562
  7.9267187118530273  3.3095726966857910 33.9808731079101562
 10.0511274337768555 13.9454565048217773 34.2711334228515625
  0.9066333770751963  4.4805827140808105 33.9612617492675781
  1.1298255920410178 13.7221240997314453 34.0799255371093821
  3.4278771877288818  9.7342548370361328 34.3416481018066477
  4.3660559654235840  1.0404824018478394 33.9514007568359375
 14.3122390964999777 16.8293234109878540 34.6158523559570312
  8.5814437866210938  5.9353785514831543 41.8950080871582031
  7.8639483451843262 14.7192182540893555 42.0384674072265625
 17.4974145889282227  5.0400462150573730 42.5132255554199219
 16.5715970993042028 13.6304779052734375 42.0232162475586009
  5.5513181686401367  0.9730717539787292 41.9833068847656250
  5.4425764083862305  9.8969564437866211 42.2200584411621094
 14.2884559631347638  1.1713130474090576 42.1697425842285156
 14.0367517471313459 10.7275352478027344 41.6402931213378906
  1.5371692180633543  2.9727387428283687 40.3173599243164134
  1.8515508174896240 12.6866846084594727 40.8411064147949219
 10.5550670623779297  3.1295845508575439 40.6730575561523438
 10.2681789398193359 12.2307796478271484 40.8921623229980540
  3.3054559230804439  7.4258136749267569 40.5366439819335938
  3.0541230896487832 16.6728361845016479 40.6867523193359375
 12.7801694869995117  7.3320193290710449 41.3322830200195312
 12.2120508411899209 16.5602414608001745 40.7640571594238352
  1.2065112590789795  3.1964795589447021 42.0371170043945312
  0.6871681809425354 12.2606849670410156 42.0926780700683594
 10.7086868286132812  4.5703802108764648 41.6609039306640625
  9.5775108337402344 12.8115472793579102 42.3562431335449219
  3.7422785758972168  7.9681220054626465 42.1578216552734375
  3.6507157543674107 17.3048930168151855 42.2091369628906250
 12.4254932403564453  8.8448467254638672 42.1257781982421946
 12.5163177708163857 17.3794168233871460 42.2829399108886719
  7.1574749946594238  5.2824363708496094 41.0907478332519602
  7.6034445762634268 15.1894550323486310 40.3699531555175852
 16.8783600330352783  5.8387384414672852 41.1192703247070384
 16.4543473720550537 14.8045902252197266 40.7416343688964844
  6.0162072181701660  1.3228939771652222 40.3268280029296875
  5.9231324195861816 10.4931106567382795 40.6497001647949219
 15.0150184631347656  1.4026441574096680 40.5766944885253906
 15.2018098831176740 10.4253311157226562 40.3749465942382812
  0.0730827301740646  4.6214122772216797 39.6224288940429759
  0.4839958548545837 14.2889604568481428 39.8719100952148438
  8.3083839416503906  3.4903249740600586 40.1727943420410227
  9.0984430313110352 13.6678562164306641 39.5173759460449219
  4.4845809200778604 17.9342963695526123 39.4014358520507812
  4.6335592269897461  8.9921216964721680 39.4829330444335938
 13.7653812626376748 17.7782829403877258 39.5927276611328125
 14.5402889251708984  8.2106285095214844 40.0950889587402344
  8.1032123565673828  5.4420318603515616 48.0459518432617259
  8.1007528305053711 14.4734306335449219 48.0459518432617259
 17.1336116790771484  5.4420318603515616 48.0459518432617259
 17.1311531066894531 14.4734306335449219 48.0459518432617259
  5.4410333633422852  0.9265221953392029 48.0449485778808594
  5.4385743141174316  9.9579219818115234 48.0449485778808594
 14.4714326858520490  0.9265221953392029 48.0449485778808594
 14.4689741134643555  9.9579219818115234 48.0449485778808594
  1.4218254089355467  3.0919990539550781 46.4558296203613281
  1.4193661212921143 12.1233978271484375 46.4558296203613281
 10.4522256851196289  3.0919990539550781 46.4558296203613281
 10.4497661590576172 12.1233978271484375 46.4558296203613281
  3.0899283885955806  7.6075901985168457 46.4545211791992188
  3.0874691009521484 16.6389904022216797 46.4545211791992188
 12.1203289031982422  7.6075901985168457 46.4545211791992188
 12.1178693771362305 16.6389904022216797 46.4545211791992188
  0.9247469902038573  3.5893490314483643 48.0459518432617259
  0.9222877025604248 12.6207475662231445 48.0459518432617259
  9.9551477432250977  3.5893490314483643 48.0459518432617259
  9.9526882171630859 12.6207475662231445 48.0459518432617259
  3.5868983268737793  8.1048498153686523 48.0448913574218821
  3.5844390392303462 17.1362495422363281 48.0448913574218821
 12.6172990798950195  8.1048498153686523 48.0448913574218821
 12.6148395538330078 17.1362495422363281 48.0448913574218821
  7.6061611175537109  5.9393639564514160 46.4558296203613281
  7.6037015914916992 14.9707632064819336 46.4558296203613281
 16.6365604400634766  5.9393639564514160 46.4558296203613281
 16.6341018676757812 14.9707632064819336 46.4558296203613281
  5.9380125999450684  1.4238001108169553 46.4545211791992188
  5.9355530738830566 10.4551992416381836 46.4545211791992188
 14.9684123992919904  1.4238001108169553 46.4545211791992188
 14.9659538269042951 10.4551992416381836 46.4545211791992188
 -0.0011664569610730  4.5157265663146973 45.3548011779785156
 -0.0036257810425013 13.5471258163452148 45.3548011779785156
  9.0292339324951172  4.5157265663146973 45.3548011779785156
  9.0267744064331037 13.5471258163452148 45.3548011779785156
  4.5152091979980469  0.0000000000000000 45.3536758422851562
  4.5127501487731934  9.0313997268676740 45.3536758422851562
 13.5456094741821289  0.0000000000000000 45.3536758422851562
 13.5431499481201172  9.0313997268676740 45.3536758422851562
 14.0007581710815430 10.0289258956909180 32.5210914611816477
 13.0103378295898438  8.6011028289794922 32.8918380737304688
 15.7828578948974609  9.0505323410034180 33.8843727111816406
 15.4625072479248047  8.6464681625366211 35.5703201293945312
 13.4161100387573224 11.5846719741821289 34.9802665710449290
 14.5074825286865217 10.7793893814086896 36.1074562072753977
 12.0771684646606445  9.9091615676879883 35.6524009704589844
 12.2272644042968750  8.2248802185058594 35.0877075195312500
 11.1073198318481428  9.9677267074584961 33.5915145874023438
 12.0926198959350586 11.4425296783447266 33.5318717956543040
 10.9414215087890625 11.6561536788940430 31.5868663787841832
 12.3975830078125000 10.8591289520263654 30.9936523437500036
 14.4856338500976562  7.0372843742370605 33.1112518310546875
 13.9461736679077148  6.7045202255249023 34.7787361145019602
 15.6609916687011719  6.5571942329406738 34.3754043579101562
 15.6111869812011701 12.5202884674072248 34.7868423461914062
 15.2886400222778303 11.6937475204467773 33.2611808776855469
 16.3993339538574219 10.9492273330688477 34.4648933410644602
 13.6297349929809570  9.4903392791748047 37.5100097656250000
 14.0291414260864240  7.8774132728576660 36.8839569091796875
 12.4156723022460938  8.2236385345458984 37.4750900268554688
  9.6569223403930646  9.5632648468017578 31.5030536651611364
 10.3955326080322266  9.8817214965820312 29.9211826324462926
 12.4744319915771484  8.5761356353759766 29.2794418334960938
 10.1327524185180664  7.5722498893737793 32.7514343261718750
 13.7123041152954084  6.4446959495544434 29.4781303405761719
 11.3823184967041016  5.4145693778991699 32.9439506530761790
 13.1793861389160156  4.8618669509887695 31.3388710021972656
  0.3880615234374983  4.5025177001953125 34.9211654663086009
  0.5186996459960931 13.6125364303588867 34.9987678527832102
  8.3995485305786133  4.0872955322265625 34.6146659851074219
  9.1417531967163068 13.8753433227539045 34.8797721862792969
  4.3119554519653320  9.4447708129882812 34.9200210571289062
  4.4367227554321289  0.2063408493995667 34.6590919494628906
 13.8937944630160928 17.6893804669380188 35.1528701782226562
  0.1803046315908432  4.4005632400512695 40.6952400207519602
  0.1351790130138397 13.7444696426391584 40.7614059448242188
  8.8463954925537109  4.2012767791748047 40.8265953063964844
  8.9404668807983398 13.7058954238891602 40.6193771362304759
  4.6194052696228027  8.9656000137329102 40.5809288024902344
  4.5265459278598428 18.0280256122350693 40.4946212768554688
 13.9996538162231445  8.8513660430908203 40.8028564453125000
 13.6091160038486123 17.9974964931607246 40.6585693359375000
  9.0289716720581055  4.5156092643737793 46.4455223083496165
  9.0265130996704102 13.5470085144042969 46.4455223083496165
 18.0593719482421875  4.5156092643737793 46.4455223083496165
 18.0569133758544922 13.5470085144042969 46.4455223083496165
  4.5152091979980469  0.0000180629995157 46.4442062377929759
  4.5127501487731934  9.0314178466796857 46.4442062377929759
 13.5456094741821289  0.0000180629995157 46.4442062377929759
 13.5431499481201172  9.0314178466796857 46.4442062377929759
 11.2363491058349609  8.2304944992065430 31.0009117126464844
 12.2394514083862305  7.8995804786682129 30.0750408172607457
 10.9099950790405273  7.3156456947326660 32.0187072753906250
 12.9431591033935529  6.6883044242858887 30.1899929046630895
 11.6227006912231428  6.1106295585632324 32.1369781494140625
 12.6391668319702148  5.8002896308898926 31.2297687530517578
 13.2139425277709961  9.6272468566894531 33.1833534240722727
 15.0418062210083008  8.5999059677124023 34.5576095581054688
 14.2826271057128906 10.9130859375000000 35.0467071533203196
 12.7626466751098633  9.0567169189453125 35.5588531494140625
 11.9370212554931623 10.4690752029418945 33.0800781250000000
 11.4937686920166016 10.6990556716918945 31.6115169525146484
 14.7597284317016584  7.1557931900024414 34.1708412170410156
 15.4753751754760724 11.5286197662353516 34.3311386108398509
 13.2662277221679688  8.6490135192871094 36.9190216064453196
 10.6074161529541016  9.6024255752563477 30.9668445587158203
  0.1992740631103527  3.3614954948425293 35.5647048950195384
  0.6090335845947272 12.4953565597534180 35.6786499023437500
  9.6814870834350586  3.9926609992980957 34.8710212707519531
  8.8565120697021484 12.7077274322509766 35.4128608703613281
  7.6213502883911133  5.0735359191894522 35.0547943115234375
  8.4217710494995117 14.9724006652832031 35.0405044555664134
  0.0103015899658234  5.6749176979064941 35.3845481872558594
 17.8066959381103516 14.6348695755004883 35.3230018615722656
  4.3736248016357422  8.2035121917724609 35.3429298400878906
  3.3228170135989785 17.6483380794525146 34.9797134399414062
 12.5783561924472451 17.7253467440605164 35.3221626281738281
  5.6283768871799111 17.9747913554310799 35.1498832702636719
  5.2225937843322754 10.3729295730590820 35.1609344482421946
 14.7147159576416016  0.5433254241943359 35.6048049926757812
  1.0088790655136108  3.4736802577972412 41.0506324768066406
  0.9173228740692139 12.8388719558715820 41.2633361816406250
 10.1101417541503906  3.9695386886596680 41.0867118835449290
  9.6359643936157209 12.8664264678955078 41.3515319824218750
  3.8490130901336665  8.0577936172485352 41.1528053283691477
  3.6899611214175820 17.2980571389198303 41.1884651184082102
 12.9911470413208008  8.3140230178833008 41.4610252380371094
 12.7270464161410928 17.2719557881355286 41.2919158935546875
  8.1673650741577148  5.2429404258728027 41.2923126220703125
  8.0826025009155273 14.5950250625610352 41.0540237426757812
 17.4916658997535741  5.1316776275634766 41.5093231201171875
 17.0073034763336217 14.0898675918579084 41.2180328369140696
  5.4249572753906241  0.8096110820770264 40.9935111999511719
  5.3724346160888672  9.8319578170776367 41.2070312500000071
 14.3502159118652344  0.9075765609741211 41.1923179626464844
 14.4332799911499023 10.0891475677490234 40.9404602050781250
  0.8273094892501831  3.6869695186614990 47.0359649658203125
  0.8248501420021057 12.7183685302734375 47.0359649658203125
  9.8577098846435547  3.6869695186614990 47.0359649658203125
  9.8552503585815412 12.7183685302734375 47.0359649658203125
  3.6843190193176270  8.2023353576660156 47.0346527099609375
  3.6818594932556152 17.2337341308593750 47.0346527099609375
 12.7147188186645508  8.2023353576660156 47.0346527099609375
 12.7122592926025391 17.2337341308593750 47.0346527099609375
  8.2006769180297852  5.3445744514465332 47.0360260009765696
  8.1982173919677734 14.3759746551513672 47.0360260009765696
 17.2310771942138672  5.3445744514465332 47.0360260009765696
 17.2286186218261719 14.3759746551513672 47.0360260009765696
  5.3436489105224600  0.8290914893150328 47.0346527099609375
  5.3411893844604483  9.8604917526245117 47.0346527099609375
 14.3740482330322266  0.8290914893150328 47.0346527099609375
 14.3715896606445312  9.8604917526245117 47.0346527099609375
 13.8278226852416992  9.5365352630615217 34.5777397155761719
  9.1344261169433594  0.3435429036617279 34.5297203063964844
  8.5542058944702148  9.0808315277099609 34.7194671630859375
 17.9850937798619270  0.0162094030529261 34.3745117187500000
  0.7040575742721558  9.0071458816528320 34.5508537292480540
  4.1624069213867188  4.2667489051818848 34.5668411254882812
  4.5259652137756348 13.8604173660278320 34.6144905090332031
 13.3211402893066406  3.6861019134521484 34.6997337341308594
 12.7802896499633789 14.2947387695312500 34.4018211364746094
  0.0268829585984349 17.8099627792835236 40.8944320678710938
  0.1877748668193817  8.9156179428100586 40.9539146423339844
  9.0475740432739258  0.1632940471172333 40.9171333312988281
  9.2550001144409180  8.8458652496337891 40.9711341857910156
  4.6951546669006348  4.4145708084106445 40.8982505798339844
  4.5342626571655273 13.6082057952880859 40.9182739257812500
 13.5330572128295898  4.7731933593750000 40.9069442749023509
 13.4651994705200195 13.6137418746948242 40.8794898986816406
  2.4567751884460449  1.9274250268936157 38.0001525878906250
  2.6623983383178711 10.9891166687011719 38.1339759826660227
 11.7294120788574219  1.9081231355667114 38.2290191650390696
 11.1490764617919922 11.4710493087768555 38.3409194946289134
  6.5000014305114746  6.9878435134887695 37.9551467895507812
  6.6524062156677246 15.9730491638183594 37.9574241638183665
 16.1291542053222656  6.5591773986816406 38.3219184875488281
 15.7667922973632812 15.7481460571289062 38.0322456359863281
  2.2223043441772461  6.5013318061828613 38.1504592895507812
  2.2215225696563721 15.7417879104614258 37.8957290649414134
 10.5107936859130859  5.9749526977539062 37.6972236633300781
 11.1114702224731428 15.7511491775512695 38.1718597412109375
  6.9739294052124023  2.4170682430267334 37.8737716674804688
  6.9501690864562988 11.4015264511108398 38.1750793457031321
 16.0510787963867188  2.4953382015228271 38.3147506713867188
 16.4005851745605469 11.5990467071533203 38.3700942993164062
  0.0000000000000000  0.0000000000000000 47.1735610961914062
 -0.0024593239650130  9.0313997268676740 47.1735610961914062
  9.0304002761840803  0.0000000000000000 47.1735610961914062
  9.0279407501220685  9.0313997268676740 47.1735610961914062
  4.5139794349670410  4.5156998634338379 47.1742515563964844
  4.5115203857421875 13.5470991134643537 47.1742515563964844
 13.5443792343139648  4.5156998634338379 47.1742515563964844
 13.5419197082519531 13.5470991134643537 47.1742515563964844
  2.4519233703613277  2.0629522800445557 44.0401268005371165
  2.4494640827178955 11.0943517684936523 44.0401268005371165
 11.4823226928710920  2.0629522800445557 44.0401268005371165
 11.4798641204833984 11.0943517684936523 44.0401268005371165
  6.5760178565979004  6.9684472084045410 44.0401268005371165
  6.5735583305358887 15.9998464584350586 44.0401268005371165
 15.6064186096191406  6.9684472084045410 44.0401268005371165
 15.6039590835571289 15.9998464584350586 44.0401268005371165
  2.0610768795013428  6.5788145065307617 44.0400009155273509
  2.0586175918579102 15.6102142333984375 44.0400009155273509
 11.0914773941040039  6.5788145065307617 44.0400009155273509
 11.0890178680419922 15.6102142333984375 44.0400009155273509
  6.9668641090393066  2.4525938034057613 44.0400657653808665
  6.9644045829772949 11.4839935302734375 44.0400657653808665
 15.9972639083862305  2.4525938034057613 44.0400657653808665
 15.9948053359985352 11.4839935302734375 44.0400657653808665
  2.4316265583038330  2.0832188129425049 50.0684852600097656
  2.4291670322418213 11.1146183013915998 50.0684852600097656
 11.4620265960693359  2.0832188129425049 50.0684852600097656
 11.4595670700073224 11.1146183013915998 50.0684852600097656
  6.5963144302368164  6.9481806755065918 50.0684852600097656
  6.5938549041748047 15.9795799255371076 50.0684852600097656
 15.6267137527465803  6.9481806755065918 50.0684852600097656
 15.6242542266845703 15.9795799255371076 50.0684852600097656
  2.0811281204223633  6.5990090370178223 50.0690460205078125
  2.0786688327789307 15.6304082870483398 50.0690460205078125
 11.1115283966064453  6.5990090370178223 50.0690460205078125
 11.1090688705444336 15.6304082870483398 50.0690460205078125
  6.9468131065368652  2.4323906898498531 50.0690460205078125
  6.9443535804748535 11.4637899398803711 50.0690460205078125
 15.9772129058837891  2.4323906898498531 50.0690460205078125
 15.9747543334960938 11.4637899398803711 50.0690460205078125
 17.9430072018876672 18.0030145011842251 37.8542404174804688
  0.1733279377222061  9.0255584716796875 37.8613204956054759
  9.0282506942749023  0.1409682631492615 37.7735519409179688
  8.9757995605468750  8.8885440826416016 37.7732429504394531
  4.3974304199218750  4.3433113098144531 37.7135429382324219
  4.4847412109375000 13.5031347274780256 37.7314872741699290
 13.3386640548706055  4.5045642852783203 37.6451454162597656
 13.2263364791870117 13.6556234359741211 37.5915870666503977
  0.0000090280000222  0.0000090310004452 44.0429992675781250
 -0.0024502959568053  9.0314083099365234 44.0429992675781250
  9.0304088592529297  0.0000090310004452 44.0429992675781250
  9.0279493331909180  9.0314083099365234 44.0429992675781250
  4.5139703750610352  4.5156903266906738 44.0427513122558594
  4.5115113258361816 13.5470905303955078 44.0427513122558594
 13.5443706512451172  4.5156903266906738 44.0427513122558594
 13.5419111251831037 13.5470905303955078 44.0427513122558594
  0.0000000000000000  0.0000000000000000 50.4472808837890696
 -0.0024593239650130  9.0313997268676740 50.4472808837890696
  9.0304002761840803  0.0000000000000000 50.4472808837890696
  9.0279407501220685  9.0313997268676740 50.4472808837890696
  4.5139703750610352  4.5156998634338379 50.4472808837890696
  4.5115113258361816 13.5470991134643537 50.4472808837890696
 13.5443706512451172  4.5156998634338379 50.4472808837890696
 13.5419111251831055 13.5470991134643537 50.4472808837890696
