 H  C  N  I Pb 
 1.0000000000000000
    18.0608005523681641    0.0000000000000000    0.0000000000000000
    -0.0049186488613486   18.0627994537353516    0.0000000000000000
     0.0000000000000000    0.0000000000000000   62.4874992370605469
 H   C   N   I   Pb 
 143  39  47  72  24
Cartesian
  7.3648753166198730  5.1116175651550293 35.1479682922363281
  7.4963355064392090 12.5721693038940430 35.7255439758300852
 16.7238292694091797  5.2827272415161133 36.2411003112792969
 16.7669162750244141 14.7344770431518555 35.8051986694335938
  5.8411626815795898  1.6613085269927979 35.2177696228027415
  5.8337993621826172 10.3683071136474609 35.5449867248535227
 14.4666929244995117  1.8474066257476804 35.3608436584472656
  1.9892082214355480  4.3610329627990723 35.1209564208984446
  1.4096450805664076 12.3067569732666016 35.5824470520019602
 10.5815353393554670  3.3770978450775146 35.3030509948730469
 10.8230991363525391 13.7169322967529297 34.9209823608398438
  6.8262515068054190  0.3208362460136414 34.6337699890136719
  4.5925221443176270 11.2433538436889648 34.6657485961914062
 15.8089084625244141  0.8433151245117188 34.7749633789062500
  1.1507644653320315  5.2119507789611816 36.3792953491210938
 17.9217319488525391 12.5462255477905273 36.3474388122558594
  8.8796319961547852  3.1231167316436768 35.6526527404785156
  9.9626283645629883 12.5193805694580078 35.8546638488769602
  5.5696001052856445  7.9080076217651367 35.7516860961914062
  3.4247474670410156  1.2370426654815672 35.5610198974609446
 12.3270149230957031  0.6096581220626831 35.8281593322753906
  8.2144021987915039  6.5904984474182129 34.7136268615722656
  6.7601222991943359 13.7647085189819336 34.6720924377441477
 15.9824695587158185  4.3973875045776367 34.9426116943359446
 17.6148624420166016 15.7736110687255842 34.7006568908691406
  4.2312555313110352  7.1817650794982910 34.9057464599609375
  2.7970265606418252 17.7867803871631622 34.9945755004882812
 12.2883362034335715 16.9894630908966064 35.3117828369140625
 10.3093461990356428  5.5520420074462891 34.6783142089843750
  8.8717784881591797 14.6513500213623047 34.0513191223144531
 -0.0001735687255828  3.6771161556243896 34.0586624145507812
  1.2890319824218737 14.2706766128540039 34.3525543212890696
  3.4196140766143799  9.2607269287109375 34.1511497497558665
  4.9167927959933877 16.9908611774444580 34.3791122436523509
 14.4787859180942160 16.9979491233825684 34.6207542419433594
  8.2034006118774414  5.3379259109497070 42.0442047119140696
  7.9796166419982910 14.7056751251220703 41.9098815917968750
 17.3085799217224121  5.1241965293884277 42.3078498840332031
 16.4945508241653442 13.3483133316040039 41.5770492553710938
  5.3790655136108398  0.7631388306617737 42.1677818298339915
  5.4433026313781738 10.1249952316284180 42.0754699707031250
 14.4092197418212891  0.9484670162200928 42.1999435424804759
 15.0314159393310547  8.6765880584716797 41.6816635131836009
  1.6444538831710815  3.0893881320953369 40.4283256530761790
  1.9376916885375977 12.6423339843750000 40.8651962280273438
 10.4324493408203125  2.9566361904144283 40.4026679992675852
 10.3745756149291974 12.1721658706665039 40.7291069030761790
  3.3539168834686279  7.4312152862548819 40.6981430053710938
  2.9440967300906777 16.7857041358947754 40.3177833557128906
 11.4843206405639631  8.6221952438354492 40.8118896484375000
 12.1514915684238076 16.5859951972961426 40.6109962463378906
  1.1468734741210938  3.4084458351135254 42.0626754760742259
  0.4656084179878235 11.8547821044921875 41.3684844970703196
  9.8567895889282227  3.3906195163726807 41.9839096069335938
  9.8088960647583008 12.8902750015258789 42.2170829772949219
  3.8738954067230225  8.0693387985229492 42.2348175048828125
  3.3389050224795933 17.2238690257072449 41.9628639221191406
 12.6317663192749023  7.8654122352600098 41.8835716247558665
 12.5958732822909951 17.1472241878509521 42.1984252929687571
  7.8979892730712882  6.0956258773803711 40.5093154907226634
  7.5268263816833487 14.9837961196899414 40.2446632385253977
 16.7314532995224035  5.7753458023071289 40.7979354858398438
 16.7361899614334106 15.0037364959716797 41.1276702880859375
  6.1728119850158691  1.1236276626586914 40.6775245666503906
  5.7739825248718262 10.6420850753784180 40.4428520202636719
 14.9475088119506836  1.4281297922134399 40.6064720153808594
 15.2916097640991211  9.9502897262573242 40.5133018493652415
  0.1164374947547913  4.5563659667968750 39.5027847290039062
  0.9101935625076293 14.7058048248290998 40.5629577636718750
  9.2607793807983381  4.6317367553710938 39.3294868469238281
  8.9862585067749023 13.4237155914306623 39.3891792297363352
  4.6861824253574014 17.9569144546985626 39.3932228088378906
  4.4967112541198730  8.9891891479492188 39.4594726562500000
 13.5871547916904092 17.9943771585822105 39.5045738220214844
 13.0767526626586914  9.9957876205444336 39.8298683166503906
  8.1032123565673828  5.4420318603515616 48.0459518432617259
  8.1007528305053711 14.4734306335449219 48.0459518432617259
 17.1336116790771484  5.4420318603515616 48.0459518432617259
 17.1311531066894531 14.4734306335449219 48.0459518432617259
  5.4410333633422852  0.9265221953392029 48.0449485778808594
  5.4385743141174316  9.9579219818115234 48.0449485778808594
 14.4714326858520490  0.9265221953392029 48.0449485778808594
 14.4689741134643555  9.9579219818115234 48.0449485778808594
  1.4218254089355467  3.0919990539550781 46.4558296203613281
  1.4193661212921143 12.1233978271484375 46.4558296203613281
 10.4522256851196289  3.0919990539550781 46.4558296203613281
 10.4497661590576172 12.1233978271484375 46.4558296203613281
  3.0899283885955806  7.6075901985168457 46.4545211791992188
  3.0874691009521484 16.6389904022216797 46.4545211791992188
 12.1203289031982422  7.6075901985168457 46.4545211791992188
 12.1178693771362305 16.6389904022216797 46.4545211791992188
  0.9247469902038573  3.5893490314483643 48.0459518432617259
  0.9222877025604248 12.6207475662231445 48.0459518432617259
  9.9551477432250977  3.5893490314483643 48.0459518432617259
  9.9526882171630859 12.6207475662231445 48.0459518432617259
  3.5868983268737793  8.1048498153686523 48.0448913574218821
  3.5844390392303462 17.1362495422363281 48.0448913574218821
 12.6172990798950195  8.1048498153686523 48.0448913574218821
 12.6148395538330078 17.1362495422363281 48.0448913574218821
  7.6061611175537109  5.9393639564514160 46.4558296203613281
  7.6037015914916992 14.9707632064819336 46.4558296203613281
 16.6365604400634766  5.9393639564514160 46.4558296203613281
 16.6341018676757812 14.9707632064819336 46.4558296203613281
  5.9380125999450684  1.4238001108169553 46.4545211791992188
  5.9355530738830566 10.4551992416381836 46.4545211791992188
 14.9684123992919904  1.4238001108169553 46.4545211791992188
 14.9659538269042951 10.4551992416381836 46.4545211791992188
 -0.0011664569610730  4.5157265663146973 45.3548011779785156
 -0.0036257810425013 13.5471258163452148 45.3548011779785156
  9.0292339324951172  4.5157265663146973 45.3548011779785156
  9.0267744064331037 13.5471258163452148 45.3548011779785156
  4.5152091979980469  0.0000000000000000 45.3536758422851562
  4.5127501487731934  9.0313997268676740 45.3536758422851562
 13.5456094741821289  0.0000000000000000 45.3536758422851562
 13.5431499481201172  9.0313997268676740 45.3536758422851562
 14.4345207214355469  9.1813907623291016 32.1226615905761719
 15.8607549667358398  9.0419130325317383 33.1752204895019602
 13.7062139511108381 11.1819124221801740 33.2465209960937571
 13.6725778579711896 11.2346334457397461 35.0108985900878906
 12.4097366333007812  8.0202856063842773 34.3591728210449219
 12.0779371261596680  9.6880245208740234 34.8361663818359375
 14.3804759979248047  7.6476669311523429 35.3921241760253977
 15.6142625808715820  8.9186944961547852 35.5423316955566406
 15.4812965393066406  6.7538180351257324 33.6788520812988281
 13.7799205780029297  6.8004255294799805 33.2590103149414134
 14.1654767990112305  6.9157576560974121 30.9272537231445312
 15.8458070755004883  7.3899722099304199 31.0879707336425781
 16.1956005096435547 11.1581420898437500 33.2164573669433594
 16.2445735931396484 10.9363088607788086 34.9839401245117188
 15.6063442230224609 12.4384002685546875 34.2966575622558594
 10.8417997360229492  9.1954755783081055 32.8236007690429688
 12.2866268157958984  8.7188758850097656 31.9091091156005895
 12.0344800949096680 10.4153680801391602 32.4229240417480469
 12.7428588867187500  9.0768709182739258 36.7012557983398438
 14.0213203430175763 10.3093023300170881 36.9164962768554688
 14.2048530578613263  8.6890048980712891 37.5825119018554688
 14.8263797760009766  4.6569519042968750 32.0092277526855469
 15.3022232055664062  4.9503688812255859 30.3539466857910156
 16.6954460144042969  2.8800673484802246 31.1551361083984375
 17.5788764953613281  6.9467964172363281 32.3226356506347656
  1.0081081390380855  2.2818408012390137 31.4773845672607457
  1.8603000640869145  6.3439459800720206 32.6300239562988281
  2.6573810577392587  4.0199527740478516 32.2018928527832031
 18.0182209014892578  4.3045110702514648 34.9606781005859375
  0.4625682830810565 14.0019845962524414 35.0166702270507812
  9.4173021316528320  4.9725818634033203 34.9260978698730469
  8.8034572601318359 13.7807512283325195 34.7091979980468750
  4.3566350936889648  9.2127733230590803 34.7194938659668040
  4.8187240818515420 18.0103815793991089 34.7636871337890625
 14.0463461140170676 17.9310106039047241 34.9983634948730469
  0.1549700349569320  4.4314670562744141 40.5857887268066406
  0.3263797760009766 13.8543796539306641 40.9431648254394531
  9.1640052795410156  4.5283122062683105 40.4184608459472656
  8.9492874145507812 13.5747108459472656 40.4764137268066406
  4.5648736953735352  9.0301046371459961 40.5506668090820312
  4.5440696934238067 17.9902238696813583 40.4746246337890625
 13.3779640197753906  9.2967901229858398 40.6220054626464915
 13.5501894215121865 18.0278081260621548 40.5978698730468821
  9.0289716720581055  4.5156092643737793 46.4455223083496165
  9.0265130996704102 13.5470085144042969 46.4455223083496165
 18.0593719482421875  4.5156092643737793 46.4455223083496165
 18.0569133758544922 13.5470085144042969 46.4455223083496165
  4.5152091979980469  0.0000180629995157 46.4442062377929759
  4.5127501487731934  9.0314178466796857 46.4442062377929759
 13.5456094741821289  0.0000180629995157 46.4442062377929759
 13.5431499481201172  9.0314178466796857 46.4442062377929759
 16.9479427337646484  4.9572782516479492 31.6850833892822266
 17.4051990509033203  3.6523370742797852 31.4709205627441406
 17.8856430053710938  5.9188637733459464 32.1022262573242188
  0.6882381439208978  3.3092908859252925 31.6369571685791051
  1.1677398681640636  5.5759334564208984 32.2808876037597656
  1.6134319305419922  4.2738370895385742 32.0308876037597656
 14.8178567886352539  8.7118225097656250 33.0436515808105469
 14.2321977615356428 10.8517055511474592 34.1473159790039062
 12.5488634109497070  9.0682649612426758 34.0656623840332031
 14.5314483642578107  8.7335290908813477 35.4982528686523438
 14.7633771896362287  7.1924095153808594 32.9732589721679688
 15.0655851364135742  6.7498130798339844 31.5326499938964844
 15.6636896133422834 11.3522624969482422 34.1548843383789134
 11.9197683334350586  9.3655290603637695 32.7153587341308594
 13.8209047317504883  9.2527475357055664 36.7230834960937500
 15.4888935089111328  5.2787246704101562 31.3891677856445312
  1.0901508331298844  4.6322650909423828 35.5313720703125071
  0.5476989746093752 12.8514204025268555 35.6374893188476562
  9.6184177398681641  3.7084333896636963 35.2361297607421946
  9.9261169433593750 13.2692489624023438 35.1504669189453125
  8.2485332489013672  5.5740513801574707 34.8742904663085938
  7.6136107444763184 13.3156795501708984 35.0217628479003977
 16.8422927856445312  4.6904377937316895 35.4021072387695312
 17.5025653839111328 14.8279657363891602 35.0924453735351562
  4.7581768035888672  8.0291948318481445 35.1345748901367188
  3.6149857044219966  0.3388675451278687 35.0980186462402344
 12.7816185215488058 17.8881475925445557 35.3571014404296875
  5.8904614448547354  0.7057093977928162 34.8428993225097727
  4.9938230514526367 10.3310270309448242 34.9612083435058665
 14.8195581436157209  0.9306890964508057 35.0593719482421946
  1.0308165550231934  3.5850174427032471 41.0685958862304688
  0.9399678111076355 12.7065315246582031 41.0704956054687500
  9.8564577102661133  3.5638976097106934 40.9835929870605469
  9.7507028579711914 12.8303508758544922 41.2095603942871094
  3.8978977203369141  8.1273031234741211 41.2228622436523438
  3.5502053955569863 17.3037902712821996 40.9685401916503906
 12.4522924423217773  8.5308151245117188 41.1351127624511790
 12.7287840107455850 17.2022137641906738 41.1938629150390696
  8.3750467300415039  5.3702564239501944 41.0438919067382812
  8.0957422256469727 14.4696435928344727 40.9237937927246094
 17.3720269203186035  5.1473107337951660 41.2928237915039062
 17.1217794418334996 14.0672750473022443 41.2196960449218750
  5.3975977897644043  0.6472336649894714 41.1596984863281250
  5.3039078712463379  9.9885187149047852 41.0724792480468750
 14.3429193496704084  0.8390653133392333 41.1889801025390625
 14.6473312377929688  9.3061809539794922 40.9719276428222656
  0.8273094892501831  3.6869695186614990 47.0359649658203125
  0.8248501420021057 12.7183685302734375 47.0359649658203125
  9.8577098846435547  3.6869695186614990 47.0359649658203125
  9.8552503585815412 12.7183685302734375 47.0359649658203125
  3.6843190193176270  8.2023353576660156 47.0346527099609375
  3.6818594932556152 17.2337341308593750 47.0346527099609375
 12.7147188186645508  8.2023353576660156 47.0346527099609375
 12.7122592926025391 17.2337341308593750 47.0346527099609375
  8.2006769180297852  5.3445744514465332 47.0360260009765696
  8.1982173919677734 14.3759746551513672 47.0360260009765696
 17.2310771942138672  5.3445744514465332 47.0360260009765696
 17.2286186218261719 14.3759746551513672 47.0360260009765696
  5.3436489105224600  0.8290914893150328 47.0346527099609375
  5.3411893844604483  9.8604917526245117 47.0346527099609375
 14.3740482330322266  0.8290914893150328 47.0346527099609375
 14.3715896606445312  9.8604917526245117 47.0346527099609375
 14.0453557968139648  9.3420667648315430 34.1805763244628906
  9.2268995502963662 17.7167265415191650 34.5511360168457031
  8.5452919006347656  9.2098655700683594 34.5671539306640696
  0.1426729261875153  0.2317467331886292 34.4387702941894531
  0.5699521303176880  8.8397140502929688 34.6438713073730540
  4.6550154685974121  4.3415389060974121 34.6497955322265625
  4.1504740715026855 13.8432836532592756 34.4215393066406250
 13.2702302932739258  4.1402907371520996 34.6588783264160156
 13.1914768218994141 14.3694725036621094 34.6299552917480469
 17.9867438608780503 17.7710866928100586 40.8778953552246094
  0.1587382555007935  9.1146097183227521 40.9366569519042969
  8.9837484359741211  0.0269986186176538 40.8947868347167969
  8.9181022644042969  9.0636720657348633 40.8688850402832031
  4.7494263648986816  4.3530654907226562 40.9472274780273509
  4.4364643096923828 13.6418123245239258 40.8433876037597656
 13.4377899169921875  4.7594933509826651 40.9522933959960938
 13.5256233215332031 13.2662773132324219 40.9265594482421875
  2.4506835937500000  2.1277968883514404 38.0518417358398438
  2.6571838855743408 10.9913988113403320 37.8819732666015696
 11.5390710830688477  2.0289607048034668 38.0420761108398438
 11.1685791015624982 11.3896856307983398 37.9602966308593750
  6.6364569664001465  6.9477801322937012 37.9990196228027344
  6.5754656791687012 15.9975290298461914 37.8413619995117259
 16.0241718292236328  6.6037774085998535 38.2203292846679759
 15.5705528259277344 16.0909614562988281 37.8673706054687500
  2.2838990688323975  6.6693277359008780 38.1932678222656321
  2.0824818611145020 15.7630748748779297 37.8520240783691406
 11.1050014495849592  6.6272339820861816 37.6007347106933594
 11.1134948730468732 15.5915784835815430 38.2517890930175781
  7.1517667770385742  2.5214564800262451 37.7242126464843750
  6.8433952331542969 11.4403419494628906 37.9563369750976562
 15.9320802688598633  2.4209032058715816 38.2562484741210938
 16.2900524139404297 11.6959867477416992 38.1271133422851562
  0.0000000000000000  0.0000000000000000 47.1735610961914062
 -0.0024593239650130  9.0313997268676740 47.1735610961914062
  9.0304002761840803  0.0000000000000000 47.1735610961914062
  9.0279407501220685  9.0313997268676740 47.1735610961914062
  4.5139794349670410  4.5156998634338379 47.1742515563964844
  4.5115203857421875 13.5470991134643537 47.1742515563964844
 13.5443792343139648  4.5156998634338379 47.1742515563964844
 13.5419197082519531 13.5470991134643537 47.1742515563964844
  2.4519233703613277  2.0629522800445557 44.0401268005371165
  2.4494640827178955 11.0943517684936523 44.0401268005371165
 11.4823226928710920  2.0629522800445557 44.0401268005371165
 11.4798641204833984 11.0943517684936523 44.0401268005371165
  6.5760178565979004  6.9684472084045410 44.0401268005371165
  6.5735583305358887 15.9998464584350586 44.0401268005371165
 15.6064186096191406  6.9684472084045410 44.0401268005371165
 15.6039590835571289 15.9998464584350586 44.0401268005371165
  2.0610768795013428  6.5788145065307617 44.0400009155273509
  2.0586175918579102 15.6102142333984375 44.0400009155273509
 11.0914773941040039  6.5788145065307617 44.0400009155273509
 11.0890178680419922 15.6102142333984375 44.0400009155273509
  6.9668641090393066  2.4525938034057613 44.0400657653808665
  6.9644045829772949 11.4839935302734375 44.0400657653808665
 15.9972639083862305  2.4525938034057613 44.0400657653808665
 15.9948053359985352 11.4839935302734375 44.0400657653808665
  2.4316265583038330  2.0832188129425049 50.0684852600097656
  2.4291670322418213 11.1146183013915998 50.0684852600097656
 11.4620265960693359  2.0832188129425049 50.0684852600097656
 11.4595670700073224 11.1146183013915998 50.0684852600097656
  6.5963144302368164  6.9481806755065918 50.0684852600097656
  6.5938549041748047 15.9795799255371076 50.0684852600097656
 15.6267137527465803  6.9481806755065918 50.0684852600097656
 15.6242542266845703 15.9795799255371076 50.0684852600097656
  2.0811281204223633  6.5990090370178223 50.0690460205078125
  2.0786688327789307 15.6304082870483398 50.0690460205078125
 11.1115283966064453  6.5990090370178223 50.0690460205078125
 11.1090688705444336 15.6304082870483398 50.0690460205078125
  6.9468131065368652  2.4323906898498531 50.0690460205078125
  6.9443535804748535 11.4637899398803711 50.0690460205078125
 15.9772129058837891  2.4323906898498531 50.0690460205078125
 15.9747543334960938 11.4637899398803711 50.0690460205078125
 18.0140098147094285  0.1183863356709480 37.7538375854492188
  0.1766327321529388  9.0524101257324219 37.7325630187988352
  9.0556358555331808 17.9525466710329091 37.6985969543457102
  9.0236005783081055  9.0337667465209961 37.6512222290039062
  4.6116881370544434  4.4883933067321777 37.8526649475097656
  4.4088473320007324 13.6639375686645508 37.6841773986816477
 13.5056695938110352  4.5366654396057129 37.8520812988281250
 13.5547580718994141 13.6833372116088849 37.7961578369140696
  0.0000090280000222  0.0000090310004452 44.0429992675781250
 -0.0024502959568053  9.0314083099365234 44.0429992675781250
  9.0304088592529297  0.0000090310004452 44.0429992675781250
  9.0279493331909180  9.0314083099365234 44.0429992675781250
  4.5139703750610352  4.5156903266906738 44.0427513122558594
  4.5115113258361816 13.5470905303955078 44.0427513122558594
 13.5443706512451172  4.5156903266906738 44.0427513122558594
 13.5419111251831037 13.5470905303955078 44.0427513122558594
  0.0000000000000000  0.0000000000000000 50.4472808837890696
 -0.0024593239650130  9.0313997268676740 50.4472808837890696
  9.0304002761840803  0.0000000000000000 50.4472808837890696
  9.0279407501220685  9.0313997268676740 50.4472808837890696
  4.5139703750610352  4.5156998634338379 50.4472808837890696
  4.5115113258361816 13.5470991134643537 50.4472808837890696
 13.5443706512451172  4.5156998634338379 50.4472808837890696
 13.5419111251831055 13.5470991134643537 50.4472808837890696
