 H  C  N  I Pb 
 1.0000000000000000
    18.0608005523681641    0.0000000000000000    0.0000000000000000
    -0.0049186488613486   18.0627994537353516    0.0000000000000000
     0.0000000000000000    0.0000000000000000   62.4874992370605469
 H   C   N   I   Pb 
 143  39  47  72  24
Cartesian
  8.3119907379150391  5.8862481117248535 35.9478492736816406
  8.1280517578125000 15.2291479110717773 35.9013748168945312
 16.6381511688232422  4.4043779373168945 36.3041076660156250
 17.0552482604980469 14.5768127441406250 36.2434120178222656
  5.4755406379699707  1.1478046178817747 35.9518089294433594
  5.7834386825561515 10.2941522598266602 36.0434951782226562
 14.3624763488769531  1.4081614017486572 36.1547622680664062
  1.9296073913574223  4.3469634056091309 34.9119529724121165
  1.7175617218017591 12.2615575790405256 35.4240036010742188
 10.2318620681762695  3.0604319572448730 34.7654762268066406
  8.9411363601684570 11.7476282119750977 35.3352279663085938
  6.5407409667968750  0.1544824838638306 34.9785690307617188
  4.9527759552001953 11.2882690429687500 34.8701515197753906
 15.6965389251708967  0.5083281397819519 35.4215049743652344
  1.0735797882080105  4.1902642250061035 36.4228897094726562
  0.4226932525634775 12.5127849578857422 36.5830650329589844
 10.3384389877319336  4.4935870170593262 35.7673225402832031
  8.4147443771362305 12.8113336563110352 36.5959815979003906
  5.0496416091918945  7.9146041870117188 36.1798095703125000
  3.0390324592590328  0.6999249458312988 35.7452583312988281
 12.1483669281005859  0.3787842988967896 36.0092239379882812
  6.8709540367126465  5.2845978736877441 35.0953178405761719
  8.8132600784301758 15.6871442794799805 34.3602294921875071
 15.8809862136840803  4.3942413330078125 34.7361030578613281
 17.6450061798095703 15.6694602966308594 35.0305175781250071
  3.6818006038665767  7.4515266418457031 35.1685485839843821
  2.5454403618350625 17.5350047945976257 34.6032218933105469
 12.0670408466830850 16.8574701547622681 35.1835861206054688
  7.9861049652099600  3.4324522018432617 34.2174797058105469
  9.3787469863891602 13.4435987472534180 33.8202781677246165
 17.9884700775146484  4.4775910377502441 33.6708374023437571
  1.2410373687744158 14.2637863159179688 34.3019485473632812
  3.5067121982574463  9.5694952011108398 34.1930313110351562
  4.7703108051791787 17.0311622619628942 33.9957923889160156
 14.2536634663119912 16.8248523473739624 34.6786918640136790
  8.3696718215942383  5.6175088882446289 42.1542167663574219
  7.8317298889160147 14.6256837844848633 42.0813941955566406
 17.2734345197677612  5.0361843109130850 42.3932075500488281
 16.7064282894134521 14.0037069320678711 42.1309852600097727
  5.5149483680725098  1.0021820068359375 42.0982627868652344
  5.3136978149414062  9.7530765533447266 42.3556365966796946
 14.2731084823608381  0.9658141136169434 42.2018470764160156
 15.3240203857421875  8.9632272720336914 41.6917114257812571
  1.6010072231292725  3.1573553085327148 40.3322525024414134
  1.7328013181686399 12.4907217025756836 40.8108825683593750
 10.4171638488769531  3.0262577533721924 40.5657844543457102
 10.3579292297363281 12.2304410934448242 40.9128265380859375
  3.1750624179840088  7.4752550125122070 40.3977813720703125
  3.1614836910739541 16.6812080144882202 40.5896949768066406
 11.7159318923950195  8.6576080322265625 41.1703948974609375
 12.1452564457431418 16.5243418216705322 40.5599250793457031
  1.1414663791656494  3.3142137527465820 42.0123596191406321
  0.6494861245155334 12.3554735183715820 42.1760902404785156
 10.2783136367797852  3.8447959423065186 42.0838775634765625
  9.6501007080078125 12.7724132537841797 42.3948402404785156
  3.5811388492584229  7.8210539817810059 42.0669288635253906
  3.6426624516025186 17.2712892889976501 42.1566429138183665
 13.0348844528198242  7.9240794181823730 42.0893974304199219
 12.5408548573032022 17.1041047573089635 42.1552658081054759
  7.4707822799682617  5.7701902389526367 40.6667366027832031
  7.5662860870361328 15.0679769515991193 40.4036026000976634
 16.7048459053039586  5.7850832939147949 40.9581298828125071
 16.6988648176193237 15.0546712875366211 40.7335319519042969
  6.0490245819091797  1.4066195487976074 40.4801177978515625
  5.8222312927246085 10.4925174713134766 40.8468475341796946
 14.8896780014038086  1.4041457176208496 40.6214141845703125
 15.4213495254516584 10.1137695312500000 40.3903198242187500
  0.0544251576066017  4.7257251739501953 39.5635452270507812
  0.5530291795730591 14.1880102157592773 39.8111190795898438
  8.6698923110961914  4.1569280624389648 39.5495147705078125
  9.1416463851928693 13.6033191680908203 39.5628662109375000
  4.5919155338779092 17.9975773543119431 39.4272346496582031
  4.5276665687561035  9.1298427581787109 39.5306510925292969
 13.5772556522861123 17.9331260472536087 39.4805946350097656
 13.0989465713500977 10.0338563919067365 39.9598007202148438
  8.1032123565673828  5.4420318603515616 48.0459518432617259
  8.1007528305053711 14.4734306335449219 48.0459518432617259
 17.1336116790771484  5.4420318603515616 48.0459518432617259
 17.1311531066894531 14.4734306335449219 48.0459518432617259
  5.4410333633422852  0.9265221953392029 48.0449485778808594
  5.4385743141174316  9.9579219818115234 48.0449485778808594
 14.4714326858520490  0.9265221953392029 48.0449485778808594
 14.4689741134643555  9.9579219818115234 48.0449485778808594
  1.4218254089355467  3.0919990539550781 46.4558296203613281
  1.4193661212921143 12.1233978271484375 46.4558296203613281
 10.4522256851196289  3.0919990539550781 46.4558296203613281
 10.4497661590576172 12.1233978271484375 46.4558296203613281
  3.0899283885955806  7.6075901985168457 46.4545211791992188
  3.0874691009521484 16.6389904022216797 46.4545211791992188
 12.1203289031982422  7.6075901985168457 46.4545211791992188
 12.1178693771362305 16.6389904022216797 46.4545211791992188
  0.9247469902038573  3.5893490314483643 48.0459518432617259
  0.9222877025604248 12.6207475662231445 48.0459518432617259
  9.9551477432250977  3.5893490314483643 48.0459518432617259
  9.9526882171630859 12.6207475662231445 48.0459518432617259
  3.5868983268737793  8.1048498153686523 48.0448913574218821
  3.5844390392303462 17.1362495422363281 48.0448913574218821
 12.6172990798950195  8.1048498153686523 48.0448913574218821
 12.6148395538330078 17.1362495422363281 48.0448913574218821
  7.6061611175537109  5.9393639564514160 46.4558296203613281
  7.6037015914916992 14.9707632064819336 46.4558296203613281
 16.6365604400634766  5.9393639564514160 46.4558296203613281
 16.6341018676757812 14.9707632064819336 46.4558296203613281
  5.9380125999450684  1.4238001108169553 46.4545211791992188
  5.9355530738830566 10.4551992416381836 46.4545211791992188
 14.9684123992919904  1.4238001108169553 46.4545211791992188
 14.9659538269042951 10.4551992416381836 46.4545211791992188
 -0.0011664569610730  4.5157265663146973 45.3548011779785156
 -0.0036257810425013 13.5471258163452148 45.3548011779785156
  9.0292339324951172  4.5157265663146973 45.3548011779785156
  9.0267744064331037 13.5471258163452148 45.3548011779785156
  4.5152091979980469  0.0000000000000000 45.3536758422851562
  4.5127501487731934  9.0313997268676740 45.3536758422851562
 13.5456094741821289  0.0000000000000000 45.3536758422851562
 13.5431499481201172  9.0313997268676740 45.3536758422851562
 12.9588394165039062  7.9164948463439941 33.8719902038574219
 13.2898111343383789  8.9680948257446289 32.4948883056640625
 11.8064451217651367  9.9707269668579102 35.0640144348144531
 12.7154788970947266 11.4884243011474609 34.9301834106445312
 15.2474451065063459  9.0991897583007812 35.7561340332031250
 14.1064062118530273 10.3085508346557599 36.3693008422851562
 15.6267662048339844 10.0890522003173828 33.2878532409667969
 14.3175325393676758 11.2881193161010742 32.9548454284667969
 15.6693086624145508  8.4115953445434570 32.4299850463867188
 15.5959234237670898  7.7130560874938965 34.0357093811035156
 15.7668094635009766  5.9626693725585938 32.4630012512207031
 14.1690025329589844  5.8336863517761230 33.1718406677246094
 11.5215978622436506  9.9174146652221662 32.5573158264160156
 12.4616718292236310 11.4390125274658203 32.4290428161621094
 10.9256477355957031 11.4252443313598633 33.2765007019042969
 13.5988388061523438  8.1378612518310547 37.4101562500000000
 13.4573802947998047  7.3087301254272452 35.8454017639160156
 12.2640113830566406  8.5281457901000977 36.3461952209472656
 14.8909063339233398 12.4036397933959961 35.1622047424316406
 16.1646728515625000 12.3694067001342773 33.9597587585449219
 16.2783184051513672 11.2309989929199219 35.3397903442382812
 14.7714700698852521  7.0124588012695312 30.4116916656494141
 14.1767988204956055  5.3937168121337882 30.7514076232910192
 11.9757537841796875  5.7793598175048819 32.6646118164062571
 13.2066383361816406  8.3332681655883789 29.4105339050292969
  9.7078380584716797  6.8054342269897461 32.5959930419921875
 10.9451675415039062  9.3528547286987305 29.3366031646728516
  9.1809234619140625  8.5782928466796875 30.9258289337158203
 17.9450168609619141  4.4085431098937988 34.7435111999511719
  0.6151771545410150 13.9529285430908185 35.1356353759765625
  8.5319595336914062  4.1442718505859375 34.8408775329589844
  8.9528741836547852 13.6934804916381836 34.8076705932617188
  4.2832827568054199  9.3740196228027326 34.9448204040527344
  4.5630387524142861 17.8236805200576782 34.7225990295410156
 13.8799261311069131 17.6919868588447571 35.2312164306640625
  0.1224039494991302  4.4721956253051758 40.6215438842773509
  0.1951505690813065 13.7775802612304670 40.7494621276855540
  8.9502344131469727  4.3976531028747559 40.5817298889160156
  8.9655904769897461 13.6521739959716797 40.6320419311523438
  4.5033836364746094  8.9903440475463867 40.6034164428710938
  4.6101846694946289  0.0133367516100407 40.5113296508789062
 13.5539016723632812  9.3956890106201172 40.7074546813964915
 13.5160583714023232 17.9928058013319969 40.5647239685058665
  9.0289716720581055  4.5156092643737793 46.4455223083496165
  9.0265130996704102 13.5470085144042969 46.4455223083496165
 18.0593719482421875  4.5156092643737793 46.4455223083496165
 18.0569133758544922 13.5470085144042969 46.4455223083496165
  4.5152091979980469  0.0000180629995157 46.4442062377929759
  4.5127501487731934  9.0314178466796857 46.4442062377929759
 13.5456094741821289  0.0000180629995157 46.4442062377929759
 13.5431499481201172  9.0314178466796857 46.4442062377929759
 12.7541980743408203  6.9949021339416504 31.0475616455078125
 11.7302083969116211  6.5502581596374503 31.9186496734619176
 12.4344472885131836  7.9840817451477042 30.1168003082275426
 10.4663944244384766  7.1293177604675293 31.8816852569580078
 11.1575155258178693  8.5622129440307617 30.0589370727539098
 10.1788473129272443  8.1321153640747070 30.9416866302490234
 13.7065830230712891  8.5711069107055664 33.4172782897949219
 12.4923076629638672 10.5401906967163086 34.4134864807128977
 14.1952476501464844  9.3911638259887695 35.7730026245117188
 14.8609085083007812 10.7342739105224609 33.7289237976074290
 15.0181055068969709  7.8292660713195801 33.1089363098144531
 14.7854156494140625  6.4510245323181152 32.5029258728027344
 11.8331346511840820 10.8275079727172834 33.0825843811035156
 13.3339176177978516  8.2836942672729492 36.3522834777832031
 15.5791931152343750 11.7226533889770508 34.6397933959960938
 14.1530637741088867  6.4338183403015137 31.1115932464599609
  1.0202083587646495  4.2734117507934570 35.3987503051757812
  0.9301300048828131 12.8363819122314453 35.7563514709472656
  9.7888460159301758  3.9015564918518062 35.1250228881836009
  8.8331766128540039 12.7099876403808594 35.6691970825195384
  7.8808164596557617  5.2286877632141113 35.2710762023925852
  8.6133975982666016 14.9390993118286133 35.0229949951171875
 16.7497653961181641  4.4669866561889648 35.2879753112792969
 17.6619529724121094 14.7307958602905273 35.4468536376953125
  4.3282055854797363  8.1520576477050781 35.4633483886718821
  3.3114189365878697 18.0359421223402023 35.0539970397949219
 12.5730299213901162 17.6981710791587830 35.4294242858886719
  5.5965871810913086  0.4208796024322510 35.2277412414550852
  5.0861592292785645 10.3589906692504865 35.2846412658691477
 14.6927700042724592  0.5768465399742126 35.6413040161132812
  1.0043909549713135  3.5979390144348145 41.0392761230468821
  0.8938958048820496 12.8123760223388672 41.2877616882324219
  9.9382019042968750  3.7285928726196289 41.1216049194335938
  9.6923055648803711 12.8503017425537109 41.3593406677246094
  3.7223193645477295  8.0415420532226562 41.0623130798339844
  3.7463354328647256 17.2933182716369629 41.1347732543945312
 12.7312946319580078  8.5744829177856445 41.3441963195800781
 12.6798414448276162 17.1538831591606140 41.1348800659179688
  8.2283029556274414  5.3203082084655762 41.1798019409179688
  8.0729703903198242 14.4980278015136719 41.0820960998535156
 17.3307684659957921  5.1289520263671875 41.3927383422851562
 17.1673524975776672 14.3187227249145508 41.2571372985839844
  5.4356145858764648  0.8557733297348021 41.0811080932617259
  5.2496194839477539  9.7685556411743164 41.3290939331054759
 14.2666463851928711  0.8188904523849486 41.1830749511718750
 14.8454866409301758  9.4857397079467773 40.9463043212890625
  0.8273094892501831  3.6869695186614990 47.0359649658203125
  0.8248501420021057 12.7183685302734375 47.0359649658203125
  9.8577098846435547  3.6869695186614990 47.0359649658203125
  9.8552503585815412 12.7183685302734375 47.0359649658203125
  3.6843190193176270  8.2023353576660156 47.0346527099609375
  3.6818594932556152 17.2337341308593750 47.0346527099609375
 12.7147188186645508  8.2023353576660156 47.0346527099609375
 12.7122592926025391 17.2337341308593750 47.0346527099609375
  8.2006769180297852  5.3445744514465332 47.0360260009765696
  8.1982173919677734 14.3759746551513672 47.0360260009765696
 17.2310771942138672  5.3445744514465332 47.0360260009765696
 17.2286186218261719 14.3759746551513672 47.0360260009765696
  5.3436489105224600  0.8290914893150328 47.0346527099609375
  5.3411893844604483  9.8604917526245117 47.0346527099609375
 14.3740482330322266  0.8290914893150328 47.0346527099609375
 14.3715896606445312  9.8604917526245117 47.0346527099609375
 13.8326330184936506  9.7739200592041016 34.3404541015625000
  9.0762243270874023  0.3082176744937897 34.5539131164550781
  8.7129487991333008  9.2846822738647461 34.7184410095214844
 17.9648809954524040  0.0891109704971313 34.5058364868164062
  0.6251647472381591  9.1313085556030273 34.5994071960449219
  4.4323496818542480  4.4803652763366699 34.5792503356933594
  4.4611034393310547 13.7993841171264631 34.5207748413085938
 13.3991088867187500  3.8401908874511719 34.7952232360839844
 12.7404537200927734 14.3115329742431641 34.3639755249023438
  0.1012990558519959 18.0082527883350885 40.9158935546875000
  0.2284762561321259  8.8672933578491211 40.9718437194824219
  9.0621175765991211  0.0311172157526016 40.9182891845703125
  9.1028671264648438  8.9177360534667969 40.9532623291015625
  4.6254405975341797  4.4236903190612793 40.8979530334472727
  4.5117793083190918 13.6062431335449219 40.9102821350097656
 13.4750385284423828  4.6676707267761230 40.9680328369140625
 13.5220727920532227 13.4836282730102539 40.8520584106445312
  2.5268030166625977  2.0429294109344482 37.9409751892089844
  2.6180679798126216 11.0531148910522461 38.1724128723144531
 11.6531600952148438  1.9905182123184204 38.1055641174316406
 11.2342996597290039 11.3264846801757812 38.3730125427246094
  6.4867367744445801  7.1010856628417969 38.1204452514648509
  6.7342534065246582 15.9524726867675781 37.9034919738769531
 15.9827632904052734  6.6899442672729492 38.3010864257812500
 15.6553726196289045 15.9354095458984375 38.1245651245117188
  2.0876886844635010  6.5109128952026367 38.0560607910156250
  2.1690344810485840 15.8165903091430646 38.0330734252929688
 10.6405334472656250  6.2009849548339844 37.8009986877441477
 11.0520343780517578 15.5957307815551758 38.1187095642089844
  6.9194245338439941  2.4079914093017578 37.9447250366210938
  6.8651571273803702 11.4615545272827148 38.3502235412597656
 16.0588569641113281  2.5764236450195312 38.3544540405273438
 16.4689178466796875 11.7485294342041016 38.5623931884765696
  0.0000000000000000  0.0000000000000000 47.1735610961914062
 -0.0024593239650130  9.0313997268676740 47.1735610961914062
  9.0304002761840803  0.0000000000000000 47.1735610961914062
  9.0279407501220685  9.0313997268676740 47.1735610961914062
  4.5139794349670410  4.5156998634338379 47.1742515563964844
  4.5115203857421875 13.5470991134643537 47.1742515563964844
 13.5443792343139648  4.5156998634338379 47.1742515563964844
 13.5419197082519531 13.5470991134643537 47.1742515563964844
  2.4519233703613277  2.0629522800445557 44.0401268005371165
  2.4494640827178955 11.0943517684936523 44.0401268005371165
 11.4823226928710920  2.0629522800445557 44.0401268005371165
 11.4798641204833984 11.0943517684936523 44.0401268005371165
  6.5760178565979004  6.9684472084045410 44.0401268005371165
  6.5735583305358887 15.9998464584350586 44.0401268005371165
 15.6064186096191406  6.9684472084045410 44.0401268005371165
 15.6039590835571289 15.9998464584350586 44.0401268005371165
  2.0610768795013428  6.5788145065307617 44.0400009155273509
  2.0586175918579102 15.6102142333984375 44.0400009155273509
 11.0914773941040039  6.5788145065307617 44.0400009155273509
 11.0890178680419922 15.6102142333984375 44.0400009155273509
  6.9668641090393066  2.4525938034057613 44.0400657653808665
  6.9644045829772949 11.4839935302734375 44.0400657653808665
 15.9972639083862305  2.4525938034057613 44.0400657653808665
 15.9948053359985352 11.4839935302734375 44.0400657653808665
  2.4316265583038330  2.0832188129425049 50.0684852600097656
  2.4291670322418213 11.1146183013915998 50.0684852600097656
 11.4620265960693359  2.0832188129425049 50.0684852600097656
 11.4595670700073224 11.1146183013915998 50.0684852600097656
  6.5963144302368164  6.9481806755065918 50.0684852600097656
  6.5938549041748047 15.9795799255371076 50.0684852600097656
 15.6267137527465803  6.9481806755065918 50.0684852600097656
 15.6242542266845703 15.9795799255371076 50.0684852600097656
  2.0811281204223633  6.5990090370178223 50.0690460205078125
  2.0786688327789307 15.6304082870483398 50.0690460205078125
 11.1115283966064453  6.5990090370178223 50.0690460205078125
 11.1090688705444336 15.6304082870483398 50.0690460205078125
  6.9468131065368652  2.4323906898498531 50.0690460205078125
  6.9443535804748535 11.4637899398803711 50.0690460205078125
 15.9772129058837891  2.4323906898498531 50.0690460205078125
 15.9747543334960938 11.4637899398803711 50.0690460205078125
 17.9721749201416969  0.0800582617521286 37.8334732055664062
  0.0941376537084579  9.1608266830444336 37.7535781860351562
  9.0991439819335938  0.1194169223308563 37.8065223693847727
  8.9965810775756836  9.0937643051147461 37.7709503173828125
  4.4954495429992676  4.5527439117431641 37.7818984985351634
  4.4522204399108887 13.6596622467041016 37.7236022949218750
 13.4926424026489258  4.6823921203613281 37.8629455566406250
 13.3343896865844727 13.6646766662597656 37.6075782775878906
  0.0000090280000222  0.0000090310004452 44.0429992675781250
 -0.0024502959568053  9.0314083099365234 44.0429992675781250
  9.0304088592529297  0.0000090310004452 44.0429992675781250
  9.0279493331909180  9.0314083099365234 44.0429992675781250
  4.5139703750610352  4.5156903266906738 44.0427513122558594
  4.5115113258361816 13.5470905303955078 44.0427513122558594
 13.5443706512451172  4.5156903266906738 44.0427513122558594
 13.5419111251831037 13.5470905303955078 44.0427513122558594
  0.0000000000000000  0.0000000000000000 50.4472808837890696
 -0.0024593239650130  9.0313997268676740 50.4472808837890696
  9.0304002761840803  0.0000000000000000 50.4472808837890696
  9.0279407501220685  9.0313997268676740 50.4472808837890696
  4.5139703750610352  4.5156998634338379 50.4472808837890696
  4.5115113258361816 13.5470991134643537 50.4472808837890696
 13.5443706512451172  4.5156998634338379 50.4472808837890696
 13.5419111251831055 13.5470991134643537 50.4472808837890696
