 H  C  N  I Pb 
 1.0000000000000000
    18.0608005523681641    0.0000000000000000    0.0000000000000000
    -0.0049186488613486   18.0627994537353516    0.0000000000000000
     0.0000000000000000    0.0000000000000000   62.4874992370605469
 H   C   N   I   Pb 
 143  39  47  72  24
Cartesian
  8.1955366134643555  5.4217033386230469 36.2518997192382884
  8.0465602874755859 14.5744476318359375 36.3194885253906250
 17.2354679107666016  5.1844162940979004 36.5615043640136719
 17.3774280548095703 14.5347719192504883 36.5451545715332031
  5.4900927543640137  0.8798626065254210 36.2770080566406250
  5.4657063484191895  9.8919105529785138 36.3625984191894531
 14.3644132614135742  0.9657099246978760 36.2880249023437500
  1.5787200927734357  3.0935127735137939 34.7038307189941406
  1.3930835723876942 12.1160564422607404 34.7505073547363281
 10.5730457305908203  3.2391731739044189 34.7354431152343750
 10.2758989334106445 12.0782289505004883 35.0778770446777344
  6.0326151847839355  1.3613481521606445 34.7057571411132884
  5.9903979301452637 10.4318485260009766 34.8031539916992188
 14.9588766098022443  1.4420731067657471 34.7326736450195312
  1.0412502288818366  3.5610160827636719 36.3028030395507812
  0.9714126586914067 12.6433267593383789 36.3181152343750000
 10.0619211196899414  3.7755849361419678 36.2341346740722656
  9.6964778900146484 12.7892122268676758 36.5344161987304759
  3.6124455928802486  8.1193399429321289 36.3581809997558594
  3.5757490852847691 17.2284746766090393 36.3136024475097656
 12.6564439991489053 17.1141909956932068 36.2870826721191477
  7.5231218338012686  5.8053092956542960 34.7693290710449219
  7.6326560974121094 15.0955162048339844 34.7484283447265625
 16.5780086517333984  5.8029751777648926 35.0686378479003906
 16.8075199127197266 15.1799144744873029 35.0599250793457102
  3.0529503822326660  7.6230335235595703 34.7965774536132812
  3.0031036594882607 16.7099745273590088 34.7635383605957031
 12.2513374546542764 16.4687680006027222 34.7310714721679688
  9.0130929946899414  4.5451726913452148 33.5978126525878906
  9.0443382263183594 13.5197620391845703 33.7030868530273438
 18.0188312530517578  4.5373058319091797 33.6980705261230469
 18.0455188751220703 13.6855792999267578 33.6911544799804688
  4.4579896926879883  9.0513992309570312 33.7181053161621094
  4.5143975475803018 18.0625258972868323 33.6528739929199290
 13.6611665943637490 17.8982676714658737 33.6543006896972656
  8.0837812423706055  5.4610571861267090 42.2061347961425852
  8.1443824768066406 14.4096937179565430 42.2141532897949219
 17.1263017058372533  5.5689830780029297 42.0208015441894531
 17.1042529940605164 14.5079326629638672 42.1179161071777344
  5.4423799514770508  0.9437233209609985 42.1749153137207031
  5.3899965286254883  9.9550514221191388 42.1898345947265625
 14.4980554580688477  1.0458462238311768 42.1239776611328125
 14.5116930007934553  9.8484373092651367 42.1775779724121094
  1.2889055013656616  3.0525004863739014 40.6584434509277344
  1.3316988945007324 12.0777072906494141 40.6169700622558665
 10.4711751937866211  3.1762416362762451 40.5842437744140625
 10.4120368957519531 12.1108255386352539 40.3918037414550781
  3.0255248546600342  7.6202497482299796 40.6060218811035156
  3.0942565659061074 16.6228687763214111 40.6328086853027344
 11.9926538467407227  7.7605953216552734 40.5563621520996094
 12.0990747669711709 16.6922128200531006 40.7169532775878977
  0.7518096566200256  3.6588790416717529 42.1807899475097656
  0.8770100474357605 12.6144723892211914 42.1673889160156321
 10.0100021362304688  3.6256008148193359 42.1780738830566406
  9.9664840698242188 12.5356025695800763 42.0869178771972656
  3.5012238025665283  8.1115484237670898 42.1890258789062571
  3.5869840839877725 17.1243088841438293 42.2072525024414062
 12.5708332061767578  8.1632518768310547 42.1985740661621094
 12.6138109425082803 17.2602605819702148 42.2614822387695384
  7.6157164573669425  5.9876203536987305 40.6323051452636719
  7.6090326309204093 14.9912061691284180 40.6816902160644602
 16.6924473047256470  6.0622038841247550 40.3154106140136719
 16.5851293802261388 14.9353218078613281 40.5193672180175781
  5.9086151123046866  1.4174335002899170 40.5837974548339915
  5.8935680389404297 10.4192991256713867 40.6072692871093821
 14.9122495651245099  1.4516063928604126 40.5082511901855469
 15.0160503387451172 10.4639043807983398 40.5769348144531250
  0.0099317394196987  4.4966230392456055 39.3873634338378906
 17.9033341258764267 13.4294748306274414 39.4622116088867188
  9.1129112243652344  4.6255040168762198 39.4995422363281250
  8.9694318771362305 13.6139802932739258 39.4369010925293040
  4.4863843917846680  0.0313242450356483 39.4977149963378906
  4.4764046669006348  8.9574832916259766 39.4969863891601562
 13.5031032562255859  0.0235265381634235 39.5013580322265625
 13.4322605133056623  9.2280855178833008 39.5472526550292969
  8.1032123565673828  5.4420318603515616 48.0459518432617259
  8.1007528305053711 14.4734306335449219 48.0459518432617259
 17.1336116790771484  5.4420318603515616 48.0459518432617259
 17.1311531066894531 14.4734306335449219 48.0459518432617259
  5.4410333633422852  0.9265221953392029 48.0449485778808594
  5.4385743141174316  9.9579219818115234 48.0449485778808594
 14.4714326858520490  0.9265221953392029 48.0449485778808594
 14.4689741134643555  9.9579219818115234 48.0449485778808594
  1.4218254089355467  3.0919990539550781 46.4558296203613281
  1.4193661212921143 12.1233978271484375 46.4558296203613281
 10.4522256851196289  3.0919990539550781 46.4558296203613281
 10.4497661590576172 12.1233978271484375 46.4558296203613281
  3.0899283885955806  7.6075901985168457 46.4545211791992188
  3.0874691009521484 16.6389904022216797 46.4545211791992188
 12.1203289031982422  7.6075901985168457 46.4545211791992188
 12.1178693771362305 16.6389904022216797 46.4545211791992188
  0.9247469902038573  3.5893490314483643 48.0459518432617259
  0.9222877025604248 12.6207475662231445 48.0459518432617259
  9.9551477432250977  3.5893490314483643 48.0459518432617259
  9.9526882171630859 12.6207475662231445 48.0459518432617259
  3.5868983268737793  8.1048498153686523 48.0448913574218821
  3.5844390392303462 17.1362495422363281 48.0448913574218821
 12.6172990798950195  8.1048498153686523 48.0448913574218821
 12.6148395538330078 17.1362495422363281 48.0448913574218821
  7.6061611175537109  5.9393639564514160 46.4558296203613281
  7.6037015914916992 14.9707632064819336 46.4558296203613281
 16.6365604400634766  5.9393639564514160 46.4558296203613281
 16.6341018676757812 14.9707632064819336 46.4558296203613281
  5.9380125999450684  1.4238001108169553 46.4545211791992188
  5.9355530738830566 10.4551992416381836 46.4545211791992188
 14.9684123992919904  1.4238001108169553 46.4545211791992188
 14.9659538269042951 10.4551992416381836 46.4545211791992188
 -0.0011664569610730  4.5157265663146973 45.3548011779785156
 -0.0036257810425013 13.5471258163452148 45.3548011779785156
  9.0292339324951172  4.5157265663146973 45.3548011779785156
  9.0267744064331037 13.5471258163452148 45.3548011779785156
  4.5152091979980469  0.0000000000000000 45.3536758422851562
  4.5127501487731934  9.0313997268676740 45.3536758422851562
 13.5456094741821289  0.0000000000000000 45.3536758422851562
 13.5431499481201172  9.0313997268676740 45.3536758422851562
 13.1153774261474609  8.4525995254516602 34.4370498657226562
 13.5441608428955060  9.3275003433227539 33.0450057983398509
 11.8941650390625000 10.1675996780395508 35.4256439208984375
 12.6416015625000000 11.7062883377075195 35.5324287414550781
 15.2313470840454084  9.5845985412597656 36.4263610839843750
 13.9159889221191388 10.6801786422729492 36.9279785156250071
 15.9437198638915998 10.4105491638183594 34.2900428771972656
 14.7559185028076154 11.5236635208129883 33.5335655212402415
 15.8842086791992188  8.9973964691162109 33.2983512878417969
 15.6469364166259766  8.2645225524902344 34.8891220092773438
 16.1734905242919922  6.4808683395385742 33.4152259826660227
 14.5010566711425781  6.4508104324340811 34.0408210754394531
 11.4797878265380842 10.3124485015869123 33.1204261779785227
 12.8773088455200195 11.3856534957885742 32.8325691223144531
 11.4726657867431641 12.0711698532104492 33.4897155761718750
 13.3799295425415039  8.6944847106933594 37.8169097900390625
 13.6387338638305664  7.7868561744689941 36.3640174865722727
 12.2738590240478516  8.8566522598266602 36.5092620849609375
 14.9783391952514648 12.3553676605224609 36.1273384094238352
 15.6810560226440430 13.0369234085082990 34.7709312438964915
 16.5962543487548828 11.9111709594726562 35.7431144714355469
 15.3726902008056641  7.4369173049926758 31.2969017028808594
 14.8012619018554670  5.7633433341979980 31.5905971527099645
 12.3438673019409180  6.1443405151367188 33.2142219543457031
 13.8477840423583984  8.7324037551879883 30.1752605438232422
 10.1531257629394531  7.0166397094726562 32.9430809020996094
 11.5328569412231445  9.6001491546630859 29.8389930725097656
  9.6854715347290039  8.7875070571899414 31.2519779205322266
  0.0027542114257816  4.4927301406860352 34.8032150268554688
  0.0482635498046887 13.6866273880004883 34.7979965209961009
  9.0377883911132812  4.5278377532958984 34.6890220642089844
  8.9851560592651367 13.5867547988891602 34.8059425354003977
  4.5136651992797843  9.0205821990966797 34.7636337280273438
  4.5278730392456055  0.0110484566539526 34.6981697082519531
 13.5974783161655051 17.9776515364646912 34.6960945129394531
 18.0225370973348618  4.5556645393371582 40.4590911865234375
 17.9802813455462491 13.5120334625244141 40.5315895080566406
  9.0361499786376953  4.5905137062072754 40.5722770690918040
  8.9944286346435547 13.5682010650634766 40.5102310180664134
  4.4520754814147949  9.0118694305419922 40.5706062316894531
  4.5063175419345498 18.0589898978359997 40.5720596313476562
 13.5144815444946289  9.1186599731445312 40.5885086059570312
 13.5377502441406250  0.0381963923573494 40.5759544372558594
  9.0289716720581055  4.5156092643737793 46.4455223083496165
  9.0265130996704102 13.5470085144042969 46.4455223083496165
 18.0593719482421875  4.5156092643737793 46.4455223083496165
 18.0569133758544922 13.5470085144042969 46.4455223083496165
  4.5152091979980469  0.0000180629995157 46.4442062377929759
  4.5127501487731934  9.0314178466796857 46.4442062377929759
 13.5456094741821289  0.0000180629995157 46.4442062377929759
 13.5431499481201172  9.0314178466796857 46.4442062377929759
 13.2600212097167969  7.3484511375427246 31.7290191650390625
 12.1907739639282227  6.8457250595092773 32.4651031494140625
 13.0030145645141602  8.3534097671508789 30.7717456817626989
 10.9353504180908185  7.3324790000915518 32.2559318542480469
 11.7142667770385742  8.7846870422363281 30.5711898803710938
 10.6859855651855469  8.3337669372558594 31.3545475006103551
 13.9163808822631836  9.0500030517578125 33.9805641174316406
 12.5518751144409180 10.8606986999511701 34.8835067749023438
 14.1651773452758789  9.8270854949951172 36.3168601989746094
 15.1110782623291016 11.0766038894653320 34.4850006103515625
 15.1948175430297852  8.3757114410400391 33.9038848876953125
 15.1601686477661115  6.9832983016967773 33.3278350830078125
 12.0326852798461914 11.1543455123901367 33.5160102844238281
 13.2915372848510742  8.7294101715087891 36.7440299987792969
 15.6476325988769513 12.1360311508178711 35.3304748535156250
 14.6954774856567365  6.8192291259765625 31.9405136108398438
  0.9190559387207012  3.6754193305969238 35.2976112365722656
  0.8265571594238271 12.7419843673706055 35.2950668334960938
  9.9314165115356445  3.7752456665039062 35.2679748535156321
  9.7221221923828125 12.7622547149658203 35.5194854736328125
  8.2003145217895508  5.3006319999694824 35.2846260070800852
  8.1941375732421875 14.4714136123657227 35.2987365722656250
 17.2496986389160156  5.2138423919677734 35.5386924743652344
 17.4012184143066406 14.5145072937011701 35.4905662536621094
  3.6918296813964844  8.2202711105346680 35.3603630065917969
  3.6633419254794717 17.3045527338981628 35.3129920959472656
 12.7986530521884561 17.1545538306236267 35.2925109863281250
  5.3861513137817383  0.7832541465759277 35.2808341979980469
  5.3597903251647940  9.8153247833251935 35.3637580871582031
 14.3397169113159180  0.8148683905601500 35.2926368713378906
  0.7157844901084900  3.7006924152374268 41.1621513366699219
  0.7710025310516357 12.6976919174194336 41.1668777465820384
  9.8785896301269531  3.7355833053588867 41.1704063415527415
  9.8481721878051758 12.7435789108276349 41.0384254455566406
  3.6686470508575435  8.1982393264770508 41.1625137329101562
  3.6748306015506387 17.2138304710388184 41.1784667968750000
 12.6586008071899414  8.2920389175415039 41.1696319580078196
 12.6937364796176553 17.2990062236785889 41.2289276123046875
  8.2098150253295898  5.3797001838684082 41.1777000427246094
  8.2167530059814453 14.3559818267822266 41.1786804199218750
 17.2314990758895874  5.4509301185607901 40.9710998535156250
 17.2366496920585632 14.3863086700439453 41.1543846130371094
  5.3222837448120117  0.8209046721458435 41.1497459411621094
  5.2408099174499512  9.8507833480834961 41.1621665954589844
 14.3667354583740234  0.8762631416320801 41.1068458557128977
 14.4031763076782209  9.8550014495849609 41.1536521911621094
  0.8273094892501831  3.6869695186614990 47.0359649658203125
  0.8248501420021057 12.7183685302734375 47.0359649658203125
  9.8577098846435547  3.6869695186614990 47.0359649658203125
  9.8552503585815412 12.7183685302734375 47.0359649658203125
  3.6843190193176270  8.2023353576660156 47.0346527099609375
  3.6818594932556152 17.2337341308593750 47.0346527099609375
 12.7147188186645508  8.2023353576660156 47.0346527099609375
 12.7122592926025391 17.2337341308593750 47.0346527099609375
  8.2006769180297852  5.3445744514465332 47.0360260009765696
  8.1982173919677734 14.3759746551513672 47.0360260009765696
 17.2310771942138672  5.3445744514465332 47.0360260009765696
 17.2286186218261719 14.3759746551513672 47.0360260009765696
  5.3436489105224600  0.8290914893150328 47.0346527099609375
  5.3411893844604483  9.8604917526245117 47.0346527099609375
 14.3740482330322266  0.8290914893150328 47.0346527099609375
 14.3715896606445312  9.8604917526245117 47.0346527099609375
 13.9753293991088867 10.2738590240478516 34.9783515930175852
  8.9099287251010537 18.0403775200247765 34.5580978393554688
  8.9178247451782227  9.1391439437866193 34.5918006896972656
 18.0401706947013736 18.0356908421963453 34.5209541320800852
  0.1156120300292969  9.1402883529663086 34.6064910888671875
  4.4964723587036133  4.6215739250183105 34.6076431274414134
  4.4823002815246582 13.4326934814453125 34.4718894958496165
 13.4389944076538086  4.3998646736145020 34.6066665649414062
 13.4219408035278320 13.6652326583862305 34.3692779541015625
 17.9480263078585267 18.0438873153179884 40.9107131958007884
  0.0387792587280273  8.9130859375000000 40.8845825195312571
  9.0410312870517373 17.9657030627131498 40.9003219604492188
  8.9216394424438477  9.0473594665527344 40.8937606811523509
  4.4983935356140137  4.4974861145019531 40.8830261230468750
  4.5322475433349609 13.5639181137084961 40.8856239318847727
 13.6563167572021484  4.5326786041259766 40.8877983093261719
 13.5233364105224609 13.5648107528686523 40.8232612609863281
  2.5680527687072754  1.9131947755813599 37.9306640625000000
  2.5213901996612544 10.9801254272460920 37.9219207763671946
 11.5954074859619141  1.9103666543960571 37.9158058166503906
 11.4932947158813477 11.0778007507324219 38.0750503540039134
  6.4588284492492676  7.1167855262756348 37.9275436401367188
  6.4574151039123526 16.0179157257080078 37.9284744262695384
 15.5899105072021484  6.9852404594421387 38.0735282897949219
 15.4331731796264648 16.0898475646972656 37.9234352111816406
  2.0474369525909424  6.4632248878479004 37.9310951232910156
  1.9091271162033081 15.4378719329833984 37.9140968322753906
 10.8427791595458984  6.3542475700378418 37.8687629699707031
 10.9923210144042969 15.4385538101196289 37.9041748046875000
  7.1156854629516602  2.5665609836578369 37.9299736022949219
  7.0787491798400879 11.6357536315917969 37.9279212951660227
 16.1499576568603516  2.5628874301910400 37.9298667907714915
 16.2446002960205078 11.6857070922851562 38.0776252746582031
  0.0000000000000000  0.0000000000000000 47.1735610961914062
 -0.0024593239650130  9.0313997268676740 47.1735610961914062
  9.0304002761840803  0.0000000000000000 47.1735610961914062
  9.0279407501220685  9.0313997268676740 47.1735610961914062
  4.5139794349670410  4.5156998634338379 47.1742515563964844
  4.5115203857421875 13.5470991134643537 47.1742515563964844
 13.5443792343139648  4.5156998634338379 47.1742515563964844
 13.5419197082519531 13.5470991134643537 47.1742515563964844
  2.4519233703613277  2.0629522800445557 44.0401268005371165
  2.4494640827178955 11.0943517684936523 44.0401268005371165
 11.4823226928710920  2.0629522800445557 44.0401268005371165
 11.4798641204833984 11.0943517684936523 44.0401268005371165
  6.5760178565979004  6.9684472084045410 44.0401268005371165
  6.5735583305358887 15.9998464584350586 44.0401268005371165
 15.6064186096191406  6.9684472084045410 44.0401268005371165
 15.6039590835571289 15.9998464584350586 44.0401268005371165
  2.0610768795013428  6.5788145065307617 44.0400009155273509
  2.0586175918579102 15.6102142333984375 44.0400009155273509
 11.0914773941040039  6.5788145065307617 44.0400009155273509
 11.0890178680419922 15.6102142333984375 44.0400009155273509
  6.9668641090393066  2.4525938034057613 44.0400657653808665
  6.9644045829772949 11.4839935302734375 44.0400657653808665
 15.9972639083862305  2.4525938034057613 44.0400657653808665
 15.9948053359985352 11.4839935302734375 44.0400657653808665
  2.4316265583038330  2.0832188129425049 50.0684852600097656
  2.4291670322418213 11.1146183013915998 50.0684852600097656
 11.4620265960693359  2.0832188129425049 50.0684852600097656
 11.4595670700073224 11.1146183013915998 50.0684852600097656
  6.5963144302368164  6.9481806755065918 50.0684852600097656
  6.5938549041748047 15.9795799255371076 50.0684852600097656
 15.6267137527465803  6.9481806755065918 50.0684852600097656
 15.6242542266845703 15.9795799255371076 50.0684852600097656
  2.0811281204223633  6.5990090370178223 50.0690460205078125
  2.0786688327789307 15.6304082870483398 50.0690460205078125
 11.1115283966064453  6.5990090370178223 50.0690460205078125
 11.1090688705444336 15.6304082870483398 50.0690460205078125
  6.9468131065368652  2.4323906898498531 50.0690460205078125
  6.9443535804748535 11.4637899398803711 50.0690460205078125
 15.9772129058837891  2.4323906898498531 50.0690460205078125
 15.9747543334960938 11.4637899398803711 50.0690460205078125
  0.0174725446850061  0.0195765066891909 37.6605682373046875
  0.0375955253839493  9.0131359100341797 37.7466278076171875
  9.0142669677734375  0.0233855452388525 37.6506500244140625
  9.0119905471801758  9.0075855255126953 37.6148262023925781
  4.4973416328430176  4.5355081558227539 37.7301712036132884
  4.5284137725830078 13.5296745300292969 37.6587104797363281
 13.5066356658935547  4.5345554351806641 37.7208938598632812
 13.4289073944091797 13.6626262664794922 37.7431907653808594
  0.0000090280000222  0.0000090310004452 44.0429992675781250
 -0.0024502959568053  9.0314083099365234 44.0429992675781250
  9.0304088592529297  0.0000090310004452 44.0429992675781250
  9.0279493331909180  9.0314083099365234 44.0429992675781250
  4.5139703750610352  4.5156903266906738 44.0427513122558594
  4.5115113258361816 13.5470905303955078 44.0427513122558594
 13.5443706512451172  4.5156903266906738 44.0427513122558594
 13.5419111251831037 13.5470905303955078 44.0427513122558594
  0.0000000000000000  0.0000000000000000 50.4472808837890696
 -0.0024593239650130  9.0313997268676740 50.4472808837890696
  9.0304002761840803  0.0000000000000000 50.4472808837890696
  9.0279407501220685  9.0313997268676740 50.4472808837890696
  4.5139703750610352  4.5156998634338379 50.4472808837890696
  4.5115113258361816 13.5470991134643537 50.4472808837890696
 13.5443706512451172  4.5156998634338379 50.4472808837890696
 13.5419111251831055 13.5470991134643537 50.4472808837890696
