 H  C  N  I Pb 
 1.0000000000000000
    18.0608005523681641    0.0000000000000000    0.0000000000000000
    -0.0049186488613486   18.0627994537353516    0.0000000000000000
     0.0000000000000000    0.0000000000000000   62.4874992370605469
 H   C   N   I   Pb 
 143  39  47  72  24
Cartesian
  8.1233119964599609  5.4152722358703604 36.3595390319824290
  8.1208524703979492 14.4466724395751953 36.3595390319824290
 17.1537113189697266  5.4152722358703604 36.3595390319824290
 17.1512527465820312 14.4466724395751953 36.3595390319824290
  5.4400768280029288  0.9257184267044066 36.3595390319824290
  5.4376173019409180  9.9571170806884748 36.3595390319824290
 14.4704771041870117  0.9257184267044066 36.3595390319824290
  1.4375019073486357  3.0921704769134521 34.8026008605957031
  1.4350433349609395 12.1235704421997070 34.8026008605957031
 10.4679031372070312  3.0921704769134521 34.8026008605957031
 10.4654436111450195 12.1235704421997070 34.8026008605957031
  5.9392223358154297  1.4251729249954224 34.8026008605957031
  5.9367628097534180 10.4565725326538086 34.8026008605957031
 14.9696226119995117  1.4251729249954224 34.8026008605957031
  0.9046840667724603  3.6161360740661621 36.3594131469726634
  0.9022235870361328 12.6475353240966797 36.3594131469726634
  9.9350833892822266  3.6161360740661621 36.3594131469726634
  9.9326238632202148 12.6475353240966797 36.3594131469726634
  3.5878465175628658  8.1056442260742188 36.3594131469726634
  3.5853871563449502 17.1370458602905273 36.3594131469726634
 12.6157879093661904 17.1370458602905273 36.3594131469726634
  7.5902581214904785  5.9393463134765616 34.8025360107421875
  7.5877990722656250 14.9707460403442383 34.8025360107421875
 16.6206588745117188  5.9393463134765616 34.8025360107421875
 16.6182003021240234 14.9707460403442383 34.8025360107421875
  3.0887188911437988  7.6062264442443848 34.8025360107421875
  3.0862595299258828 16.6376277208328247 34.8025360107421875
 12.1166595676913857 16.6376277208328247 34.8025360107421875
  9.0291252136230469  4.5157542228698730 33.6493301391601562
  9.0266656875610352 13.5471525192260742 33.6493301391601562
 18.0595264434814453  4.5157542228698730 33.6493301391601562
 18.0570659637451172 13.5471525192260742 33.6493301391601562
  4.5127406120300293  9.0313997268676740 33.6493301391601562
  4.5152001380920410  0.0000000000000000 33.6493301391601562
 13.5455999374389648  0.0000000000000000 33.6493301391601562
  8.1040792465209961  5.4413008689880371 42.1281318664550781
  8.1016197204589844 14.4727010726928711 42.1281318664550781
 17.1344793438911438  5.4413008689880371 42.1281318664550781
 17.1320189237594604 14.4727010726928711 42.1281318664550781
  5.4400768280029288  0.9257184267044066 42.1270103454589915
  5.4376173019409180  9.9571170806884748 42.1270103454589915
 14.4704771041870117  0.9257184267044066 42.1270103454589915
 14.4680185317993164  9.9571170806884748 42.1270103454589915
  1.4228100776672363  3.0904817581176758 40.5453262329101562
  1.4203507900238037 12.1218814849853498 40.5453262329101562
 10.4532098770141602  3.0904817581176758 40.5453262329101562
 10.4507503509521484 12.1218814849853498 40.5453262329101562
  3.0887188911437988  7.6062264442443848 40.5440750122070312
  3.0862595299258828 16.6376277208328247 40.5440750122070312
 12.1191186904907227  7.6062264442443848 40.5440750122070312
 12.1166595676913857 16.6376277208328247 40.5440750122070312
  0.9238527417182922  3.5900986194610596 42.1281967163085938
  0.9213934540748596 12.6214981079101562 42.1281967163085938
  9.9542522430419904  3.5900986194610596 42.1281967163085938
  9.9517927169799805 12.6214981079101562 42.1281967163085938
  3.5878465175628658  8.1056442260742188 42.1269493103027415
  3.5853871563449502 17.1370458602905273 42.1269493103027415
 12.6182470321655273  8.1056442260742188 42.1269493103027415
 12.6157879093661904 17.1370458602905273 42.1269493103027415
  7.6051669120788574  5.9408907890319824 40.5453262329101562
  7.6027073860168457 14.9722900390625000 40.5453262329101562
 16.6355671882629430  5.9408907890319824 40.5453262329101562
 16.6331077814102173 14.9722900390625000 40.5453262329101562
  5.9392223358154297  1.4251729249954224 40.5441398620605469
  5.9367628097534180 10.4565725326538086 40.5441398620605469
 14.9696226119995117  1.4251729249954224 40.5441398620605469
 14.9671630859375000 10.4565725326538086 40.5441398620605469
 -0.0012296669883654  4.5157179832458496 39.4350471496582102
 -0.0036889920011163 13.5471172332763672 39.4350471496582102
  9.0291709899902344  4.5157179832458496 39.4350471496582102
  9.0267114639282209 13.5471172332763672 39.4350471496582102
  4.5152001380920410  0.0000270939999609 39.4339256286621165
  4.5127406120300293  9.0314264297485352 39.4339256286621165
 13.5455999374389631  0.0000270939999609 39.4339256286621165
 13.5431413650512695  9.0314264297485352 39.4339256286621165
  8.1032123565673828  5.4420318603515616 48.0459518432617259
  8.1007528305053711 14.4734306335449219 48.0459518432617259
 17.1336116790771484  5.4420318603515616 48.0459518432617259
 17.1311531066894531 14.4734306335449219 48.0459518432617259
  5.4410333633422852  0.9265221953392029 48.0449485778808594
  5.4385743141174316  9.9579219818115234 48.0449485778808594
 14.4714326858520490  0.9265221953392029 48.0449485778808594
 14.4689741134643555  9.9579219818115234 48.0449485778808594
  1.4218254089355467  3.0919990539550781 46.4558296203613281
  1.4193661212921143 12.1233978271484375 46.4558296203613281
 10.4522256851196289  3.0919990539550781 46.4558296203613281
 10.4497661590576172 12.1233978271484375 46.4558296203613281
  3.0899283885955806  7.6075901985168457 46.4545211791992188
  3.0874691009521484 16.6389904022216797 46.4545211791992188
 12.1203289031982422  7.6075901985168457 46.4545211791992188
 12.1178693771362305 16.6389904022216797 46.4545211791992188
  0.9247469902038573  3.5893490314483643 48.0459518432617259
  0.9222877025604248 12.6207475662231445 48.0459518432617259
  9.9551477432250977  3.5893490314483643 48.0459518432617259
  9.9526882171630859 12.6207475662231445 48.0459518432617259
  3.5868983268737793  8.1048498153686523 48.0448913574218821
  3.5844390392303462 17.1362495422363281 48.0448913574218821
 12.6172990798950195  8.1048498153686523 48.0448913574218821
 12.6148395538330078 17.1362495422363281 48.0448913574218821
  7.6061611175537109  5.9393639564514160 46.4558296203613281
  7.6037015914916992 14.9707632064819336 46.4558296203613281
 16.6365604400634766  5.9393639564514160 46.4558296203613281
 16.6341018676757812 14.9707632064819336 46.4558296203613281
  5.9380125999450684  1.4238001108169553 46.4545211791992188
  5.9355530738830566 10.4551992416381836 46.4545211791992188
 14.9684123992919904  1.4238001108169553 46.4545211791992188
 14.9659538269042951 10.4551992416381836 46.4545211791992188
 -0.0011664569610730  4.5157265663146973 45.3548011779785156
 -0.0036257810425013 13.5471258163452148 45.3548011779785156
  9.0292339324951172  4.5157265663146973 45.3548011779785156
  9.0267744064331037 13.5471258163452148 45.3548011779785156
  4.5152091979980469  0.0000000000000000 45.3536758422851562
  4.5127501487731934  9.0313997268676740 45.3536758422851562
 13.5456094741821289  0.0000000000000000 45.3536758422851562
 13.5431499481201172  9.0313997268676740 45.3536758422851562
 13.1955213546752912  8.4872760772705078 34.6034545898437500
 13.6013612747192365  9.4854402542114258 33.1871490478515625
 12.0797033309936523 10.3653707504272461 35.5677261352539062
 12.8928575515747070 11.8956842422485352 35.7459068298339844
 15.5084543228149414  9.7493305206298828 36.5104675292968750
 14.1985816955566406 10.8572597503662109 37.0573310852050781
 16.0271015167236328 10.6109838485717773 34.1776199340820312
 14.7931976318359375 11.6472673416137695 33.4949455261230540
 15.9041404724121076  8.9421062469482422 33.2278289794921946
 15.8309822082519531  8.3730382919311523 34.9067230224609375
 16.1140422821044922  6.5089645385742188 33.5063476562500000
 14.4923477172851562  6.4812140464782715 34.1751403808593750
 11.7367343902587891 10.4533214569091779 33.2941627502441477
 12.9727678298950178 11.6673259735107422 32.9748382568359375
 11.4777832031250000 12.1279134750366211 33.7532653808593821
 13.7457056045532209  8.6589002609252930 37.9972724914550781
 13.8773593902587873  7.8856678009033203 36.4114456176757812
 12.5276880264282227  8.9534711837768555 36.7825202941894531
 14.9958152770996094 12.5837507247924805 36.1223602294921875
 15.9132270812988281 13.1942386627197266 34.7412223815917969
 16.6517696380615234 12.0009489059448242 35.7703704833984375
 15.2907543182373047  7.4321565628051749 31.3746814727783239
 14.6835412979125977  5.8165130615234375 31.7246417999267614
 12.4745140075683576  6.3154687881469727 33.6087799072265625
 13.6498718261718750  8.4862480163574219 30.0779418945312500
 10.2340354919433594  7.3691654205322266 33.4802703857421875
 11.3697462081909180  9.4332723617553711 29.9083366394043004
  9.6751594543457013  8.8907127380371094 31.6597747802734375
 -0.0010032653808588  4.5152659416198730 34.7401161193847727
 -0.0034637451171863 13.5466651916503906 34.7401161193847727
  9.0293970108032227  4.5152659416198730 34.7401161193847727
  9.0269374847412109 13.5466651916503906 34.7401161193847727
  4.5127406120300293  9.0313997268676740 34.7401161193847727
  4.5152001380920410  0.0000000000000000 34.7401161193847727
 13.5455999374389648  0.0000000000000000 34.7401161193847727
 -0.0010670709889382  4.5155372619628906 40.5248336791992188
 -0.0035263949539512 13.5469369888305664 40.5248336791992188
  9.0293331146240234  4.5155372619628906 40.5248336791992188
  9.0268735885620117 13.5469369888305664 40.5248336791992188
  4.5127315521240234  9.0313901901245117 40.5235824584960938
  4.5102724293246865 18.0627908407350333 40.5235824584960938
 13.5431327819824219  9.0313901901245117 40.5235824584960938
 13.5406727055087686 18.0627908407350333 40.5235824584960938
  9.0289716720581055  4.5156092643737793 46.4455223083496165
  9.0265130996704102 13.5470085144042969 46.4455223083496165
 18.0593719482421875  4.5156092643737793 46.4455223083496165
 18.0569133758544922 13.5470085144042969 46.4455223083496165
  4.5152091979980469  0.0000180629995157 46.4442062377929759
  4.5127501487731934  9.0314178466796857 46.4442062377929759
 13.5456094741821289  0.0000180629995157 46.4442062377929759
 13.5431499481201172  9.0314178466796857 46.4442062377929759
 13.2174663543701172  7.3232960700988761 31.8484611511230433
 12.2273130416870099  6.9548530578613281 32.7662239074707102
 12.8895702362060547  8.1794919967651367 30.7879600524902379
 10.9549503326416016  7.5157942771911612 32.6824188232421946
 11.6030015945434570  8.7154693603515625 30.6880226135253906
 10.6428756713867188  8.3976488113403320 31.6502208709716832
 13.9565429687500000  9.1244325637817383 34.1522178649902344
 12.7895879745483381 11.0358819961547852 35.0869522094726562
 14.4414329528808594  9.9797267913818359 36.4573364257812571
 15.1690368652343750 11.2309045791625977 34.4267654418945384
 15.2897796630859375  8.4109373092651367 33.9582977294921875
 15.1345357894897461  6.9901709556579590 33.4666709899902344
 12.2291984558105469 11.3398313522338867 33.7000808715820312
 13.5976629257202148  8.8065490722656250 36.9284057617187571
 15.6958236694335938 12.3079786300659180 35.3400688171386790
 14.6281108856201172  6.8637843132019043 32.0341644287109375
  0.8258266448974616  3.6958200931549072 35.3433685302734375
  0.8233661651611335 12.7272195816040039 35.3433685302734375
  9.8562259674072266  3.6958200931549072 35.3433685302734375
  9.8537664413452148 12.7272195816040039 35.3433685302734375
  8.2019519805908203  5.3358411788940430 35.3436813354492188
  8.1994924545288086 14.3672409057617170 35.3436813354492188
 17.2323532104492188  5.3358411788940430 35.3436813354492188
 17.2298927307128906 14.3672409057617170 35.3436813354492188
  3.6847162246704102  8.2030391693115234 35.3433685302734375
  3.6822568634524941 17.2344406843185425 35.3433685302734375
 12.7126573780551535 17.2344406843185425 35.3433685302734375
  5.3432250022888184  0.8283689618110657 35.3436813354492188
  5.3407654762268066  9.8597688674926758 35.3436813354492188
 14.3736248016357422  0.8283689618110657 35.3436813354492188
  0.8264696002006531  3.6871590614318848 41.1164627075195312
  0.8240102529525757 12.7185583114624023 41.1164627075195312
  9.8568696975708008  3.6871590614318848 41.1164627075195312
  9.8544101715087891 12.7185583114624023 41.1164627075195312
  3.6847162246704102  8.2030391693115234 41.1153373718261719
  3.6822568634524941 17.2344406843185425 41.1153373718261719
 12.7151165008544922  8.2030391693115234 41.1153373718261719
 12.7126573780551535 17.2344406843185425 41.1153373718261719
  8.2012367248535156  5.3444933891296387 41.1165885925292969
  8.1987771987915039 14.3758926391601562 41.1165885925292969
 17.2316357493400574  5.3444933891296387 41.1165885925292969
 17.2291774749755859 14.3758926391601562 41.1165885925292969
  5.3432250022888184  0.8283689618110657 41.1153373718261719
  5.3407654762268066  9.8597688674926758 41.1153373718261719
 14.3736248016357422  0.8283689618110657 41.1153373718261719
 14.3711652755737287  9.8597688674926758 41.1153373718261719
  0.8273094892501831  3.6869695186614990 47.0359649658203125
  0.8248501420021057 12.7183685302734375 47.0359649658203125
  9.8577098846435547  3.6869695186614990 47.0359649658203125
  9.8552503585815412 12.7183685302734375 47.0359649658203125
  3.6843190193176270  8.2023353576660156 47.0346527099609375
  3.6818594932556152 17.2337341308593750 47.0346527099609375
 12.7147188186645508  8.2023353576660156 47.0346527099609375
 12.7122592926025391 17.2337341308593750 47.0346527099609375
  8.2006769180297852  5.3445744514465332 47.0360260009765696
  8.1982173919677734 14.3759746551513672 47.0360260009765696
 17.2310771942138672  5.3445744514465332 47.0360260009765696
 17.2286186218261719 14.3759746551513672 47.0360260009765696
  5.3436489105224600  0.8290914893150328 47.0346527099609375
  5.3411893844604483  9.8604917526245117 47.0346527099609375
 14.3740482330322266  0.8290914893150328 47.0346527099609375
 14.3715896606445312  9.8604917526245117 47.0346527099609375
 14.1104145050048828 10.3243083953857422 35.0204925537109375
  9.0304002761840803  0.0000000000000000 34.4871025085449290
  9.0279407501220685  9.0313997268676740 34.4871025085449290
  0.0000000000000000  0.0000000000000000 34.4871025085449290
 -0.0024593239650130  9.0313997268676740 34.4871025085449290
  4.5139889717102051  4.5156998634338379 34.4882278442382812
  4.5115294456481934 13.5470991134643537 34.4882278442382812
 13.5443887710571289  4.5156998634338379 34.4882278442382812
 13.5419301986694336 13.5470991134643537 34.4882278442382812
  0.0000000000000000  0.0000000000000000 40.8603248596191406
 -0.0024593239650130  9.0313997268676740 40.8603248596191406
  9.0304002761840803  0.0000000000000000 40.8603248596191406
  9.0279407501220685  9.0313997268676740 40.8603248596191406
  4.5139703750610352  4.5156998634338379 40.8611412048339915
  4.5115113258361816 13.5470991134643537 40.8611412048339915
 13.5443706512451172  4.5156998634338379 40.8611412048339915
 13.5419111251831055 13.5470991134643537 40.8611412048339915
  2.5850405693054199  1.9301816225051880 37.9560317993164062
  2.5825812816619873 10.9615812301635742 37.9560317993164062
 11.6154413223266602  1.9301816225051880 37.9560317993164062
 11.6129817962646484 10.9615812301635742 37.9560317993164062
  6.4428911209106445  7.1012358665466309 37.9560317993164062
  6.4404320716857910 16.1326351165771484 37.9560317993164062
 15.4732913970947266  7.1012358665466309 37.9560317993164062
 15.4708318710327148 16.1326351165771484 37.9560317993164062
  1.9288537502288816  6.4466128349304190 37.9582176208496094
  1.9263944625854492 15.4780120849609375 37.9582176208496094
 10.9592533111572266  6.4466128349304190 37.9582176208496094
 10.9567937850952131 15.4780120849609375 37.9582176208496094
  7.0990872383117676  2.5848047733306885 37.9582176208496094
  7.0966277122497559 11.6162033081054688 37.9582176208496094
 16.1294879913330078  2.5848047733306885 37.9582176208496094
 16.1270294189453125 11.6162033081054688 37.9582176208496094
  0.0000000000000000  0.0000000000000000 47.1735610961914062
 -0.0024593239650130  9.0313997268676740 47.1735610961914062
  9.0304002761840803  0.0000000000000000 47.1735610961914062
  9.0279407501220685  9.0313997268676740 47.1735610961914062
  4.5139794349670410  4.5156998634338379 47.1742515563964844
  4.5115203857421875 13.5470991134643537 47.1742515563964844
 13.5443792343139648  4.5156998634338379 47.1742515563964844
 13.5419197082519531 13.5470991134643537 47.1742515563964844
  2.4519233703613277  2.0629522800445557 44.0401268005371165
  2.4494640827178955 11.0943517684936523 44.0401268005371165
 11.4823226928710920  2.0629522800445557 44.0401268005371165
 11.4798641204833984 11.0943517684936523 44.0401268005371165
  6.5760178565979004  6.9684472084045410 44.0401268005371165
  6.5735583305358887 15.9998464584350586 44.0401268005371165
 15.6064186096191406  6.9684472084045410 44.0401268005371165
 15.6039590835571289 15.9998464584350586 44.0401268005371165
  2.0610768795013428  6.5788145065307617 44.0400009155273509
  2.0586175918579102 15.6102142333984375 44.0400009155273509
 11.0914773941040039  6.5788145065307617 44.0400009155273509
 11.0890178680419922 15.6102142333984375 44.0400009155273509
  6.9668641090393066  2.4525938034057613 44.0400657653808665
  6.9644045829772949 11.4839935302734375 44.0400657653808665
 15.9972639083862305  2.4525938034057613 44.0400657653808665
 15.9948053359985352 11.4839935302734375 44.0400657653808665
  2.4316265583038330  2.0832188129425049 50.0684852600097656
  2.4291670322418213 11.1146183013915998 50.0684852600097656
 11.4620265960693359  2.0832188129425049 50.0684852600097656
 11.4595670700073224 11.1146183013915998 50.0684852600097656
  6.5963144302368164  6.9481806755065918 50.0684852600097656
  6.5938549041748047 15.9795799255371076 50.0684852600097656
 15.6267137527465803  6.9481806755065918 50.0684852600097656
 15.6242542266845703 15.9795799255371076 50.0684852600097656
  2.0811281204223633  6.5990090370178223 50.0690460205078125
  2.0786688327789307 15.6304082870483398 50.0690460205078125
 11.1115283966064453  6.5990090370178223 50.0690460205078125
 11.1090688705444336 15.6304082870483398 50.0690460205078125
  6.9468131065368652  2.4323906898498531 50.0690460205078125
  6.9443535804748535 11.4637899398803711 50.0690460205078125
 15.9772129058837891  2.4323906898498531 50.0690460205078125
 15.9747543334960938 11.4637899398803711 50.0690460205078125
  0.0000090249995992  0.0000180629995157 37.6304092407226562
 -0.0024502989836037  9.0314178466796857 37.6304092407226562
  9.0304088592529297  0.0000180629995157 37.6304092407226562
  9.0279493331909180  9.0314178466796857 37.6304092407226562
  4.5139703750610352  4.5156903266906738 37.6309089660644531
  4.5115113258361816 13.5470905303955078 37.6309089660644531
 13.5443706512451172  4.5156903266906738 37.6309089660644531
 13.5419111251831037 13.5470905303955078 37.6309089660644531
  0.0000090280000222  0.0000090310004452 44.0429992675781250
 -0.0024502959568053  9.0314083099365234 44.0429992675781250
  9.0304088592529297  0.0000090310004452 44.0429992675781250
  9.0279493331909180  9.0314083099365234 44.0429992675781250
  4.5139703750610352  4.5156903266906738 44.0427513122558594
  4.5115113258361816 13.5470905303955078 44.0427513122558594
 13.5443706512451172  4.5156903266906738 44.0427513122558594
 13.5419111251831037 13.5470905303955078 44.0427513122558594
  0.0000000000000000  0.0000000000000000 50.4472808837890696
 -0.0024593239650130  9.0313997268676740 50.4472808837890696
  9.0304002761840803  0.0000000000000000 50.4472808837890696
  9.0279407501220685  9.0313997268676740 50.4472808837890696
  4.5139703750610352  4.5156998634338379 50.4472808837890696
  4.5115113258361816 13.5470991134643537 50.4472808837890696
 13.5443706512451172  4.5156998634338379 50.4472808837890696
 13.5419111251831055 13.5470991134643537 50.4472808837890696
