 H  C  N  I Pb 
 1.0000000000000000
    18.0608005523681641    0.0000000000000000    0.0000000000000000
    -0.0049186488613486   18.0627994537353516    0.0000000000000000
     0.0000000000000000    0.0000000000000000   62.4874992370605469
 H   C   N   I   Pb 
 143  39  47  72  24
Cartesian
  8.1591491699218750  5.5167527198791504 36.3268051147460938
  8.0363035202026367 14.6394405364990234 36.2676353454589844
 17.3230133056640625  5.6283669471740723 36.0439033508300781
 17.4805412292480469 14.7080020904540998 36.3187026977539062
  5.6810054779052734  0.6585749983787536 36.3339500427246094
  5.4473009109497061  9.9761123657226562 36.3052062988281321
 14.1605672836303711  1.0666383504867554 36.4078750610351634
  1.3635425567626940  2.6684048175811768 35.0900115966796946
  1.2495517730712900 11.9277133941650391 34.7170372009277344
 10.6215009689331055  3.3359825611114502 34.8025360107421875
 10.2417840957641602 12.0451698303222656 34.9067382812500000
  6.0750780105590820  1.2480039596557617 34.7456359863281250
  5.7425017356872559 10.6052808761596680 34.7108116149902344
 14.8735122680664062  1.5159679651260374 34.8869285583496094
  0.6962375640869176  3.4761798381805420 36.5328445434570312
  0.9453163146972677 12.6519432067871094 36.2767219543457031
 10.2091560363769531  4.1263570785522461 36.3081474304199290
  9.4987764358520508 12.6288518905639648 36.3979682922363352
  3.7097280025482178  8.0199518203735352 36.3868598937988352
  3.5804783562198281 17.1491952538490295 36.4024696350097656
 12.5615114429965615 17.0596597194671631 36.2949714660644531
  7.2588629722595206  5.6360664367675781 34.8290901184082031
  7.8785834312438965 15.3973302841186523 34.6856307983398438
 17.1652317047119141  5.9526500701904297 34.3606948852539062
 16.8509330749511719 15.1624069213867188 34.8053054809570312
  3.0490853786468506  7.5756473541259766 34.8392524719238281
  2.8138291100040078 16.8953624963760376 34.8610305786132812
 12.4107317188754678 16.3544814586639404 34.7065811157226562
  8.7983350753784180  4.2241158485412598 33.6692543029785227
  9.2643957138061523 13.7954072952270508 33.6498298645019531
  0.3381500244140601  4.2486472129821777 33.5779991149902344
 17.9511280059814453 13.4904356002807617 33.5906753540039062
  4.2731313705444336  9.1663951873779297 33.6267929077148438
  4.2956995964050293  0.1621259450912476 33.6627998352050781
 13.8473686436191201 17.8860467374324799 33.6619186401367188
  8.1899404525756836  5.5189576148986808 42.2145538330078196
  8.1184234619140625 14.4052543640136719 42.1979713439941406
 17.0289373397827184  5.4588832855224609 42.0719833374023438
 17.0959219932556152 14.5305376052856428 42.2244567871093750
  5.3354239463806152  0.9127356410026550 42.2028427124023509
  5.3725070953369141  9.9721345901489258 42.1711387634277415
 14.5208206176757812  0.9138191342353821 42.1184349060058665
 14.4975280761718750 10.2186584472656250 42.2046585083007812
  1.4387507438659668  3.1082496643066406 40.6538352966308665
  1.4388648271560669 12.1535024642944336 40.6975135803222656
 10.3405923843383789  2.9824273586273193 40.6105155944824290
 10.3275890350341797 12.0738105773925781 40.4573249816894531
  3.1299769878387451  7.5708551406860352 40.4845733642578125
  3.0849780300632119 16.6007270812988317 40.4525032043457031
 12.2884674072265625  7.5777306556701651 40.8407897949218750
 11.9803003529086709 16.7425849437713623 40.5831375122070312
  0.8424397110939026  3.6648538112640381 42.2326126098632884
  0.7897625565528870 12.6457986831665039 42.2872238159179688
  9.9810342788696289  3.6610262393951416 42.1955947875976562
  9.9188995361328125 12.5096988677978516 42.0785598754882812
  3.6083948612213135  8.0818576812744141 42.0962944030761719
  3.5492357471957803 17.0795963406562805 42.0873985290527415
 12.6618824005126953  8.3044157028198242 42.3203315734863281
 12.5413555363193154 17.2821449637413025 42.1702346801757884
  7.5371046066284180  5.9394564628601074 40.6354026794433594
  7.5380487442016593 15.0059537887573242 40.6533737182617259
 16.5847232341766357  5.8898591995239249 40.4500999450683594
 16.6961963176727295 15.1339082717895508 40.6261100769042969
  5.8884596824645996  1.5131676197052000 40.6427688598632884
  5.9314708709716788 10.5351219177246094 40.5906333923339915
 15.0925321578979492  1.3364441394805908 40.5097732543945384
 15.0488853454589844 10.4645643234252930 40.5710601806640625
  0.0688976794481277  4.4228324890136719 39.4253463745117259
  0.1406816244125366 13.6739187240600586 39.5275421142578196
  8.8202962875366211  4.3239626884460449 39.5577812194824219
  8.8795480728149414 13.5890321731567383 39.4299392700195312
  4.5059094429016113  0.0554623529314995 39.4347457885742259
  4.5779843330383301  9.0939188003540039 39.4230003356933594
 13.5124477604404092 18.0091428235173225 39.4350204467773438
 13.7811784744262695  8.8674917221069336 39.5932922363281321
  8.1032123565673828  5.4420318603515616 48.0459518432617259
  8.1007528305053711 14.4734306335449219 48.0459518432617259
 17.1336116790771484  5.4420318603515616 48.0459518432617259
 17.1311531066894531 14.4734306335449219 48.0459518432617259
  5.4410333633422852  0.9265221953392029 48.0449485778808594
  5.4385743141174316  9.9579219818115234 48.0449485778808594
 14.4714326858520490  0.9265221953392029 48.0449485778808594
 14.4689741134643555  9.9579219818115234 48.0449485778808594
  1.4218254089355467  3.0919990539550781 46.4558296203613281
  1.4193661212921143 12.1233978271484375 46.4558296203613281
 10.4522256851196289  3.0919990539550781 46.4558296203613281
 10.4497661590576172 12.1233978271484375 46.4558296203613281
  3.0899283885955806  7.6075901985168457 46.4545211791992188
  3.0874691009521484 16.6389904022216797 46.4545211791992188
 12.1203289031982422  7.6075901985168457 46.4545211791992188
 12.1178693771362305 16.6389904022216797 46.4545211791992188
  0.9247469902038573  3.5893490314483643 48.0459518432617259
  0.9222877025604248 12.6207475662231445 48.0459518432617259
  9.9551477432250977  3.5893490314483643 48.0459518432617259
  9.9526882171630859 12.6207475662231445 48.0459518432617259
  3.5868983268737793  8.1048498153686523 48.0448913574218821
  3.5844390392303462 17.1362495422363281 48.0448913574218821
 12.6172990798950195  8.1048498153686523 48.0448913574218821
 12.6148395538330078 17.1362495422363281 48.0448913574218821
  7.6061611175537109  5.9393639564514160 46.4558296203613281
  7.6037015914916992 14.9707632064819336 46.4558296203613281
 16.6365604400634766  5.9393639564514160 46.4558296203613281
 16.6341018676757812 14.9707632064819336 46.4558296203613281
  5.9380125999450684  1.4238001108169553 46.4545211791992188
  5.9355530738830566 10.4551992416381836 46.4545211791992188
 14.9684123992919904  1.4238001108169553 46.4545211791992188
 14.9659538269042951 10.4551992416381836 46.4545211791992188
 -0.0011664569610730  4.5157265663146973 45.3548011779785156
 -0.0036257810425013 13.5471258163452148 45.3548011779785156
  9.0292339324951172  4.5157265663146973 45.3548011779785156
  9.0267744064331037 13.5471258163452148 45.3548011779785156
  4.5152091979980469  0.0000000000000000 45.3536758422851562
  4.5127501487731934  9.0313997268676740 45.3536758422851562
 13.5456094741821289  0.0000000000000000 45.3536758422851562
 13.5431499481201172  9.0313997268676740 45.3536758422851562
 14.2093667984008789 10.2571096420288086 33.0728683471679688
 13.2929000854492188  8.7271642684936523 33.1929512023925781
 15.8034658432006836  9.1326704025268555 34.4253578186035227
 15.3506860733032209  8.6325836181640625 36.0964241027832031
 13.3844919204711914 11.5601968765258789 35.5598030090332031
 14.5124454498291016 10.6649541854858398 36.6712265014648509
 11.7440385818481428  9.7157669067382795 35.8295173645019531
 12.2397584915161133  8.1494655609130859 35.1261177062988281
 11.2870616912841797  9.9194326400756836 33.9217987060546875
 12.1686201095581055 11.4551153182983398 34.0302314758300781
 11.3638572692871076 11.9352426528930664 32.0468978881835938
 12.6917753219604492 11.0014553070068359 31.4675140380859375
 14.8852519989013654  7.1359972953796387 33.5186424255371165
 13.6554679870605469  7.0078740119934073 34.8385047912597656
 15.2999668121337891  6.5972428321838379 35.1635780334472727
 15.6443109512329102 12.4571752548217773 35.1132850646972656
 15.3579759597778320 11.2957048416137695 33.8525657653808665
 16.4282455444335938 10.8718109130859375 35.2129936218261719
 13.9037218093872070  9.0408487319946271 37.4748992919921875
 13.3601951599121094  7.3720560073852539 37.1088600158691406
 12.2436466217041016  8.5098161697387695 37.9375419616699290
  9.9085330963134766  9.8936500549316406 32.0044937133789062
 10.5172739028930664 10.2338285446166992 30.3585281372070312
 12.9512109756469709  9.0759353637695312 29.9563541412353516
 10.0539131164550781  7.6661500930786133 32.8072967529296946
 14.0454540252685547  6.8528194427490234 29.9786014556884766
 11.1516027450561523  5.4727692604064941 32.8625907897949219
 13.1995153427124023  5.0522236824035645 31.4507198333740199
  0.2164192199707025  4.3304629325866699 34.6591033935546875
  0.0405807495117160 13.5398712158203125 34.6959190368652344
  8.9613647460937500  4.4665522575378418 34.7455635070800781
  9.0715475082397461 13.7117929458618164 34.7174377441406321
  4.3787503242492676  9.0761299133300781 34.7313995361328125
  4.4267463684082031  0.0330598726868629 34.7625160217285156
 13.6550363758578879 17.9806219488382339 34.7562713623046875
 18.0563227627426386  4.4849929809570312 40.5477676391601562
  0.0421811863780022 13.6435232162475586 40.6438713073730469
  8.9449758529663086  4.4471378326416016 40.6086959838867259
  8.9383640289306641 13.5364980697631836 40.5479354858398438
  4.5392818450927734  9.0518655776977539 40.5334167480468750
  4.4830265045166016  0.0193485170602798 40.5423583984375000
 13.6629695892333984  9.0103187561035156 40.6931533813476562
 13.5337409973144513  0.0055803302675486 40.5400848388671875
  9.0289716720581055  4.5156092643737793 46.4455223083496165
  9.0265130996704102 13.5470085144042969 46.4455223083496165
 18.0593719482421875  4.5156092643737793 46.4455223083496165
 18.0569133758544922 13.5470085144042969 46.4455223083496165
  4.5152091979980469  0.0000180629995157 46.4442062377929759
  4.5127501487731934  9.0314178466796857 46.4442062377929759
 13.5456094741821289  0.0000180629995157 46.4442062377929759
 13.5431499481201172  9.0314178466796857 46.4442062377929759
 11.3930044174194336  8.5504293441772461 31.3201255798339879
 12.5119113922119141  8.2886285781860352 30.5341320037841797
 10.9062452316284180  7.4971947669982910 32.1221008300781250
 13.1620750427246094  7.0139594078063965 30.5781955718994141
 11.5582437515258771  6.2296648025512686 32.1853981018066406
 12.6863918304443359  5.9993596076965332 31.4048786163330114
 13.3702039718627930  9.7464628219604492 33.5842399597167969
 15.0139579772949201  8.6735620498657227 35.0433006286621094
 14.2252092361450195 10.8364362716674805 35.6212882995605540
 12.5681581497192383  8.9668359756469727 35.7608909606933594
 12.0854082107543945 10.5309534072875977 33.4570007324218750
 11.7693691253662109 10.9464607238769531 32.0499916076660156
 14.7040061950683594  7.2958097457885733 34.5887107849121165
 15.4908161163330078 11.3829088211059570 34.9363899230957031
 13.0262098312377930  8.4473457336425781 37.1479110717773438
 10.8024139404296875  9.9371471405029297 31.3798370361328125
  0.8077182769775385  3.4440906047821045 35.4866867065429688
  0.7768173217773411 12.6520519256591797 35.2798652648925781
  9.9995412826538086  3.9449946880340576 35.3311843872070312
  9.6412887573242188 12.7299356460571289 35.3780555725097727
  8.0591659545898438  5.2611207962036133 35.3534584045410227
  8.2487325668334961 14.6496763229370117 35.2824211120605469
 17.5348320007324219  5.3454775810241699 35.0786323547363352
 17.4577217102050781 14.5060825347900391 35.3101081848144602
  3.6802070140838623  8.1759271621704102 35.3553123474121094
  3.5630521038547158 17.3367984890937805 35.3772583007812500
 12.8220562199130654 17.0840417742729187 35.2901878356933594
  5.4539442062377930  0.6840113997459411 35.3187522888183594
  5.2394766807556152  9.9361877441406250 35.2870140075683665
 14.2732486724853516  0.8751789927482605 35.3883628845214844
  0.8002128005027771  3.7133970260620117 41.1790122985839844
  0.8015331029891967 12.7813968658447266 41.2533187866210938
  9.7864055633544904  3.6601281166076660 41.1818923950195312
  9.7711343765258789 12.6635036468505842 41.0855216979980469
  3.7154338359832764  8.1555995941162109 41.1007690429687500
  3.6856564739719033 17.2356371283531224 41.1064414978027344
 12.8113794326782209  8.2420759201049805 41.3229217529296875
 12.6625751713290811 17.3524053096771240 41.1771163940429759
  8.1660499572753906  5.3722062110900879 41.2168350219726562
  8.1488122940063477 14.3743152618408203 41.1864776611328125
 17.1674724817276037  5.3292160034179688 41.0775833129882812
 17.2603692412376404 14.4873056411743164 41.1813659667968750
  5.2983031272888184  0.8811901211738586 41.1976509094238281
  5.2974195480346680  9.8723354339599609 41.1768760681152344
 14.4514293670654297  0.8129869699478148 41.1188926696777344
 14.4580440521240217  9.9628305435180664 41.1871643066406250
  0.8273094892501831  3.6869695186614990 47.0359649658203125
  0.8248501420021057 12.7183685302734375 47.0359649658203125
  9.8577098846435547  3.6869695186614990 47.0359649658203125
  9.8552503585815412 12.7183685302734375 47.0359649658203125
  3.6843190193176270  8.2023353576660156 47.0346527099609375
  3.6818594932556152 17.2337341308593750 47.0346527099609375
 12.7147188186645508  8.2023353576660156 47.0346527099609375
 12.7122592926025391 17.2337341308593750 47.0346527099609375
  8.2006769180297852  5.3445744514465332 47.0360260009765696
  8.1982173919677734 14.3759746551513672 47.0360260009765696
 17.2310771942138672  5.3445744514465332 47.0360260009765696
 17.2286186218261719 14.3759746551513672 47.0360260009765696
  5.3436489105224600  0.8290914893150328 47.0346527099609375
  5.3411893844604483  9.8604917526245117 47.0346527099609375
 14.3740482330322266  0.8290914893150328 47.0346527099609375
 14.3715896606445312  9.8604917526245117 47.0346527099609375
 13.7518358230590803  9.5341167449951172 34.9914550781250071
  9.0287351608276367  0.1751527041196823 34.5147476196289062
  8.7038240432739258  9.3313169479370099 34.7875518798828196
 18.0458658011630177  0.0238194204866886 34.4799957275390696
  0.3459864258766174  8.7069606781005859 34.3328590393066406
  4.5820298194885245  4.5045590400695801 34.4861679077148509
  4.5304999351501456 13.5732040405273438 34.5276412963867188
 13.6867723464965820  4.1723847389221191 34.6940994262695312
 13.2899017333984357 13.8682031631469727 34.2634086608886719
  0.0254309047013521  0.0765343606472015 40.8830986022949219
  0.0970445126295090  9.0738029479980469 40.8205337524414062
  9.0676473835483193 18.0232270620763302 40.9412345886230469
  8.9784574508666992  9.0328817367553711 40.9970245361328125
  4.5243945121765137  4.4980487823486328 40.9339103698730469
  4.4665956497192383 13.5915651321411133 40.8596343994140625
 13.5127763748168928  4.4756908416748047 40.9687767028808594
 13.5159997940063477 13.6217317581176758 40.8981475830078125
  2.6223783493041988  1.9231115579605103 38.1030006408691477
  2.6387357711791992 10.9172353744506836 38.0155677795410156
 11.6728830337524396  1.8935371637344360 38.0249252319336009
 11.3299446105957031 11.2527570724487305 38.2409515380859446
  6.3665232658386222  7.0829405784606934 38.0668220520019602
  6.4335317611694327 16.1651573181152344 38.0651206970214844
 15.8182945251464844  6.7758688926696777 38.2634696960449219
 15.4532575607299787 16.1974296569824219 38.0025520324707031
  1.9659869670867920  6.4200267791748047 37.9845352172851634
  1.9275543689727783 15.4922170639038086 38.0616798400878906
 10.6363697052001935  6.1390008926391602 37.9869117736816406
 10.9227504730224609 15.5473756790161133 38.0893096923828196
  7.1118173599243155  2.5588669776916499 37.9910926818847656
  7.0249614715576172 11.6221475601196289 38.0750694274902344
 16.1174659729003906  2.5634894371032710 37.9969749450683665
 16.4291400909423828 11.9211301803588867 38.2699775695800781
  0.0000000000000000  0.0000000000000000 47.1735610961914062
 -0.0024593239650130  9.0313997268676740 47.1735610961914062
  9.0304002761840803  0.0000000000000000 47.1735610961914062
  9.0279407501220685  9.0313997268676740 47.1735610961914062
  4.5139794349670410  4.5156998634338379 47.1742515563964844
  4.5115203857421875 13.5470991134643537 47.1742515563964844
 13.5443792343139648  4.5156998634338379 47.1742515563964844
 13.5419197082519531 13.5470991134643537 47.1742515563964844
  2.4519233703613277  2.0629522800445557 44.0401268005371165
  2.4494640827178955 11.0943517684936523 44.0401268005371165
 11.4823226928710920  2.0629522800445557 44.0401268005371165
 11.4798641204833984 11.0943517684936523 44.0401268005371165
  6.5760178565979004  6.9684472084045410 44.0401268005371165
  6.5735583305358887 15.9998464584350586 44.0401268005371165
 15.6064186096191406  6.9684472084045410 44.0401268005371165
 15.6039590835571289 15.9998464584350586 44.0401268005371165
  2.0610768795013428  6.5788145065307617 44.0400009155273509
  2.0586175918579102 15.6102142333984375 44.0400009155273509
 11.0914773941040039  6.5788145065307617 44.0400009155273509
 11.0890178680419922 15.6102142333984375 44.0400009155273509
  6.9668641090393066  2.4525938034057613 44.0400657653808665
  6.9644045829772949 11.4839935302734375 44.0400657653808665
 15.9972639083862305  2.4525938034057613 44.0400657653808665
 15.9948053359985352 11.4839935302734375 44.0400657653808665
  2.4316265583038330  2.0832188129425049 50.0684852600097656
  2.4291670322418213 11.1146183013915998 50.0684852600097656
 11.4620265960693359  2.0832188129425049 50.0684852600097656
 11.4595670700073224 11.1146183013915998 50.0684852600097656
  6.5963144302368164  6.9481806755065918 50.0684852600097656
  6.5938549041748047 15.9795799255371076 50.0684852600097656
 15.6267137527465803  6.9481806755065918 50.0684852600097656
 15.6242542266845703 15.9795799255371076 50.0684852600097656
  2.0811281204223633  6.5990090370178223 50.0690460205078125
  2.0786688327789307 15.6304082870483398 50.0690460205078125
 11.1115283966064453  6.5990090370178223 50.0690460205078125
 11.1090688705444336 15.6304082870483398 50.0690460205078125
  6.9468131065368652  2.4323906898498531 50.0690460205078125
  6.9443535804748535 11.4637899398803711 50.0690460205078125
 15.9772129058837891  2.4323906898498531 50.0690460205078125
 15.9747543334960938 11.4637899398803711 50.0690460205078125
 18.0479511087760365 18.0471455492079258 37.6896057128906321
  0.0153872407972813  9.1034555435180664 37.6846618652343750
  8.9617166519165039  0.0244671031832695 37.6317329406738281
  8.9664516448974609  9.0190916061401367 37.8131256103515696
  4.5122485160827637  4.5055179595947266 37.6464576721191406
  4.4792356491088867 13.5062103271484375 37.6135940551757812
 13.5319471359252930  4.4478173255920410 37.7957153320312571
 13.5159797668457031 13.7036352157592773 37.7734413146972656
  0.0000090280000222  0.0000090310004452 44.0429992675781250
 -0.0024502959568053  9.0314083099365234 44.0429992675781250
  9.0304088592529297  0.0000090310004452 44.0429992675781250
  9.0279493331909180  9.0314083099365234 44.0429992675781250
  4.5139703750610352  4.5156903266906738 44.0427513122558594
  4.5115113258361816 13.5470905303955078 44.0427513122558594
 13.5443706512451172  4.5156903266906738 44.0427513122558594
 13.5419111251831037 13.5470905303955078 44.0427513122558594
  0.0000000000000000  0.0000000000000000 50.4472808837890696
 -0.0024593239650130  9.0313997268676740 50.4472808837890696
  9.0304002761840803  0.0000000000000000 50.4472808837890696
  9.0279407501220685  9.0313997268676740 50.4472808837890696
  4.5139703750610352  4.5156998634338379 50.4472808837890696
  4.5115113258361816 13.5470991134643537 50.4472808837890696
 13.5443706512451172  4.5156998634338379 50.4472808837890696
 13.5419111251831055 13.5470991134643537 50.4472808837890696
