 H  C  N  I Pb 
 1.0000000000000000
    18.0608005523681641    0.0000000000000000    0.0000000000000000
    -0.0049186488613486   18.0627994537353516    0.0000000000000000
     0.0000000000000000    0.0000000000000000   62.4874992370605469
 H   C   N   I   Pb 
 143  39  47  72  24
Cartesian
  7.9310660362243652  5.4190740585327148 36.0199432373046875
  7.9410080909729004 14.9509897232055664 36.1508903503417969
 17.7345752716064453  5.5282731056213379 36.2993278503417969
 17.5073261260986328 14.4129095077514648 36.4340820312500000
  5.7215180397033691  0.0223826207220554 36.2729301452636719
  5.6293516159057617 10.0274705886840820 36.2756195068359375
 14.0886812210083008  1.1834678649902344 36.4365844726562500
  1.0415439605712913  2.4792661666870113 35.0663070678710938
  1.0304679870605487 11.6283426284790039 34.8109054565429688
 10.6856327056884766  3.5483489036560054 34.6612930297851562
  9.9308872222900373 12.1212415695190430 35.1098518371582031
  6.1854281425476074  0.9230315089225769 34.8687057495117188
  5.3651070594787598 10.9688997268676758 34.8592338562011790
 15.2306499481201172  1.1948938369750977 35.1509666442871094
  0.5839023590087878  3.2361941337585449 36.5190620422363281
  0.5145797729492174 12.1906089782714844 36.3748016357421875
 10.2267904281616211  4.6560449600219727 35.9286384582519531
  8.9316520690917969 12.6169271469116211 36.4113121032714915
  4.3407077789306641  7.8520345687866202 36.3969001770019531
  3.3876456478610630 17.1160094738006592 36.2736930847168040
 12.3381504276767373 17.4755028486251831 36.3490142822265696
  6.7988085746765128  4.8154673576354980 34.8119468688964844
  8.4344987869262695 15.8468160629272461 34.7591629028320312
 17.7801837921142578  6.2864794731140137 34.7446670532226562
 17.3591041564941406 15.3040933609008771 34.9239463806152344
  3.3111639022827148  7.5207276344299316 35.0471382141113281
  2.4164380291476846 17.5374189019203186 34.9032974243164134
 12.4195875385776144 16.3791065216064489 34.9790000915527415
  8.4560003280639648  3.5779037475585938 33.7670288085937500
  9.7470054626464844 14.0839710235595703 33.9216117858886719
  0.5560722351074220  4.2587690353393555 33.7685890197753906
  0.2636623382568332 13.5645380020141584 33.7111015319824290
  3.8887219429016113  9.4587488174438477 33.9212684631347656
  4.0915365219116211  0.6803452372550963 33.8659133911132812
 14.2669481495395303 17.4277344346046448 34.0830230712890625
  8.2564239501953125  5.5960283279418945 42.1768150329589844
  7.8331165313720694 14.6954345703125000 42.0375862121582102
 17.4511664509773254  5.1168861389160156 42.5307579040527344
 16.8449110984802246 14.3636465072631836 42.2041397094726634
  5.3843464851379395  0.9452459216117858 42.1916465759277344
  5.4339203834533691  9.9088497161865234 42.2580947875976634
 14.4081153869628906  0.9861195087432861 42.1557998657226562
 14.5098371505737305 10.4728631973266602 41.9428482055664062
  1.4850564002990723  3.0014286041259766 40.3726081848144531
  1.7251070737838745 12.4836950302124006 40.9676017761230469
 10.3282518386840820  2.9373209476470947 40.7226066589355469
 10.3563413619995117 12.2641525268554688 41.0198249816894602
  3.2421929836273193  7.4796710014343262 40.5539474487304759
  3.1671020248904820 16.5241869688034058 40.6529006958007884
 12.4511890411376953  7.5543308258056641 41.1883888244628977
 12.0871586063876748 16.6849719285964966 40.5963249206542969
  1.1818044185638428  3.2622969150543213 42.0553283691406321
  0.7712479233741760 12.6157341003417969 42.4020843505859375
 10.2481431961059570  3.8726356029510498 42.1789779663085938
  9.6505975723266584 12.9310998916625977 42.4459152221679688
  3.7830240726470947  7.9252619743347168 42.1507797241210938
  3.6067408779636025 17.1274823546409607 42.2235412597656321
 12.7824335098266584  8.6609163284301758 42.5013389587402344
 12.4987005451694131 17.3160325288772583 42.1626815795898438
  7.2663278579711914  5.5872001647949219 40.7562026977539062
  7.5029697418212891 15.0206527709960938 40.3634567260742188
 16.7929009199142456  5.8479199409484854 41.1072387695312571
 16.7674497365951574 15.1369466781616211 40.6638793945312500
  5.9465069770812979  1.4119946956634521 40.6190147399902415
  5.8265910148620597 10.6040630340576154 40.7100791931152344
 15.1038036346435547  1.3320741653442383 40.5971031188964844
 15.0830383300781250 10.4555149078369141 40.2912483215332031
 17.9814226478338242  4.6627440452575684 39.6598434448242259
  0.5337206125259399 14.1268415451049805 39.7860832214355540
  8.4987802505493164  3.9042580127716064 39.7152862548828196
  9.1081380844116211 13.4861717224121094 39.5998268127441477
  4.5919021824374795 17.9416048377752304 39.5188751220703125
  4.4624485969543457  9.1209459304809553 39.5193786621093750
 13.7323745945468545 17.9442953467369080 39.4908294677734375
 13.8421859741210938  8.5990047454833984 39.7194862365722656
  8.1032123565673828  5.4420318603515616 48.0459518432617259
  8.1007528305053711 14.4734306335449219 48.0459518432617259
 17.1336116790771484  5.4420318603515616 48.0459518432617259
 17.1311531066894531 14.4734306335449219 48.0459518432617259
  5.4410333633422852  0.9265221953392029 48.0449485778808594
  5.4385743141174316  9.9579219818115234 48.0449485778808594
 14.4714326858520490  0.9265221953392029 48.0449485778808594
 14.4689741134643555  9.9579219818115234 48.0449485778808594
  1.4218254089355467  3.0919990539550781 46.4558296203613281
  1.4193661212921143 12.1233978271484375 46.4558296203613281
 10.4522256851196289  3.0919990539550781 46.4558296203613281
 10.4497661590576172 12.1233978271484375 46.4558296203613281
  3.0899283885955806  7.6075901985168457 46.4545211791992188
  3.0874691009521484 16.6389904022216797 46.4545211791992188
 12.1203289031982422  7.6075901985168457 46.4545211791992188
 12.1178693771362305 16.6389904022216797 46.4545211791992188
  0.9247469902038573  3.5893490314483643 48.0459518432617259
  0.9222877025604248 12.6207475662231445 48.0459518432617259
  9.9551477432250977  3.5893490314483643 48.0459518432617259
  9.9526882171630859 12.6207475662231445 48.0459518432617259
  3.5868983268737793  8.1048498153686523 48.0448913574218821
  3.5844390392303462 17.1362495422363281 48.0448913574218821
 12.6172990798950195  8.1048498153686523 48.0448913574218821
 12.6148395538330078 17.1362495422363281 48.0448913574218821
  7.6061611175537109  5.9393639564514160 46.4558296203613281
  7.6037015914916992 14.9707632064819336 46.4558296203613281
 16.6365604400634766  5.9393639564514160 46.4558296203613281
 16.6341018676757812 14.9707632064819336 46.4558296203613281
  5.9380125999450684  1.4238001108169553 46.4545211791992188
  5.9355530738830566 10.4551992416381836 46.4545211791992188
 14.9684123992919904  1.4238001108169553 46.4545211791992188
 14.9659538269042951 10.4551992416381836 46.4545211791992188
 -0.0011664569610730  4.5157265663146973 45.3548011779785156
 -0.0036257810425013 13.5471258163452148 45.3548011779785156
  9.0292339324951172  4.5157265663146973 45.3548011779785156
  9.0267744064331037 13.5471258163452148 45.3548011779785156
  4.5152091979980469  0.0000000000000000 45.3536758422851562
  4.5127501487731934  9.0313997268676740 45.3536758422851562
 13.5456094741821289  0.0000000000000000 45.3536758422851562
 13.5431499481201172  9.0313997268676740 45.3536758422851562
 14.0362854003906250 10.0816287994384766 32.7649726867675852
 13.1087646484375000  8.6394796371459961 33.0004158020019531
 15.6768703460693342  9.1344690322875977 34.1370086669921875
 15.3632583618164062  8.7212533950805664 35.8047599792480540
 13.3355903625488281 11.5649490356445312 35.2507095336914062
 14.4057130813598633 10.6796150207519531 36.3726768493652415
 11.8701124191284180  9.7154903411865234 35.6955718994140625
 12.1559581756591779  8.1437091827392578 35.0844039916992188
 11.0832796096801758  9.8816404342651349 33.6656036376953125
 12.0881547927856428 11.3391418457031250 33.8307952880859375
 11.0874814987182617 11.7711400985717773 31.8006076812744176
 12.5250988006591797 10.9475851058959961 31.1950950622558629
 14.9979581832885742  7.0243840217590332 33.2898406982421946
 13.6684551239013672  6.8006949424743652 34.4403495788574219
 15.3117923736572266  6.4760851860046387 34.9798812866210938
 15.4689207077026349 12.4886741638183576 34.9440307617187500
 15.3411264419555664 11.4291810989379883 33.5153045654296875
 16.3500461578369141 10.9024696350097656 34.9309387207031250
 13.6917953491210920  9.2121543884277344 37.4713630676269602
 13.5693483352661133  7.5424418449401855 36.9786643981933594
 12.1630468368530273  8.4040012359619141 37.5853157043457031
  9.7725391387939435  9.6728801727294922 31.6961841583251989
 10.4424076080322266 10.0598659515380859 30.1268329620361328
 12.8135414123535156  8.9201135635375977 29.6642189025878906
  9.9054241180419922  7.5225410461425781 32.5301895141601634
 14.0142822265625000  6.7786021232604980 29.8194026947021520
 11.1668539047241211  5.3307256698608390 32.6944351196289062
 13.2169914245605469  4.9718461036682129 31.3501415252685547
  0.3537998199462904  4.3504009246826172 34.8362960815429688
  0.1435966491699237 13.4522466659545898 34.8163681030273438
  8.7505607604980469  4.1670026779174805 34.6476898193359375
  9.1999034881591797 13.9634780883789062 34.8621749877929688
  4.3234834671020508  9.2370586395263654 34.8886375427246094
  4.2886753082275391  0.2170497626066208 34.8264846801757812
 13.8450674274936318 17.8121624290943146 35.0029792785644602
  0.0884538739919662  4.4429011344909668 40.7336730957031250
  0.2265941500663757 13.8135766983032227 40.8009567260742188
  8.7985420227050781  4.2464146614074707 40.7156410217285227
  8.9431047439575195 13.6362867355346680 40.6863212585449219
  4.5552334785461426  9.0532960891723633 40.6189918518066406
  4.5462607601657510 17.9882584810256958 40.6147460937500000
 13.7614231109619141  9.0002384185791016 40.7331390380859375
 13.5789064625278115 18.0261360853910482 40.5781822204589844
  9.0289716720581055  4.5156092643737793 46.4455223083496165
  9.0265130996704102 13.5470085144042969 46.4455223083496165
 18.0593719482421875  4.5156092643737793 46.4455223083496165
 18.0569133758544922 13.5470085144042969 46.4455223083496165
  4.5152091979980469  0.0000180629995157 46.4442062377929759
  4.5127501487731934  9.0314178466796857 46.4442062377929759
 13.5456094741821289  0.0000180629995157 46.4442062377929759
 13.5431499481201172  9.0314178466796857 46.4442062377929759
 11.3012542724609357  8.3603878021240234 31.0880584716796875
 12.4350261688232422  8.1455173492431641 30.3053550720214844
 10.8159904479980451  7.3549504280090323 31.9304866790771484
 13.1315822601318359  6.9132237434387207 30.3893470764160192
 11.5089149475097656  6.1190900802612305 32.0184516906738281
 12.6697320938110352  5.8989109992980957 31.2658634185791016
 13.2521486282348633  9.6400594711303711 33.3735427856445312
 14.9531602859497070  8.6296854019165039 34.7885475158691477
 14.2023830413818359 10.8605775833129883 35.3109016418457031
 12.6307096481323242  8.9589929580688477 35.6262779235839844
 11.9385366439819318 10.4510660171508771 33.2448997497558594
 11.6203279495239258 10.7934789657592773 31.7862682342529332
 14.7169361114501953  7.1622967720031738 34.3470077514648438
 15.4301481246948242 11.4335327148437482 34.6220512390136719
 13.0526351928710920  8.4985723495483398 36.9867172241210938
 10.6955051422119141  9.7408161163330078 31.1382694244384766
  0.6841907501220740  3.2823505401611328 35.5427742004394531
  0.6005687713623052 12.3695650100708008 35.3826293945312571
  9.9573631286621094  4.0961079597473145 35.1260795593261719
  9.3867235183715820 12.8573598861694336 35.5320663452148438
  7.7669501304626465  4.8944096565246582 35.1841163635253906
  8.4434614181518555 14.9599933624267578 35.2758255004882884
 17.8678760528564453  5.4339199066162109 35.3104324340820312
 17.6182785034179688 14.4516296386718732 35.4259376525878906
  3.9827737808227539  8.1251869201660156 35.4585037231445384
  3.3180927494540811 17.5994715392589569 35.3504981994628977
 12.7627071598544717 17.1950657367706299 35.4471130371093750
  5.4855122566223136  0.4276496469974518 35.3464279174804688
  5.1512722969055176 10.1514129638671875 35.3618469238281321
 14.4786243438720703  0.7207308411598206 35.5862541198730469
  0.9405218958854675  3.5436320304870605 41.0833740234375071
  0.9195169806480408 12.9401922225952148 41.4246330261230469
  9.8359346389770508  3.6770861148834229 41.2441101074218750
  9.7137222290039062 12.8836269378662092 41.4467201232910227
  3.8123214244842529  8.0948028564453125 41.1609535217285156
  3.7275332668796177 17.1716828942298889 41.2156600952148438
 12.9417438507080078  8.3727226257324219 41.5384140014648438
 12.6716036060824990 17.3044686317443848 41.1669654846191406
  8.0704364776611328  5.2188353538513184 41.2747383117675781
  8.0408525466918945 14.5066452026367188 41.0782318115234375
 17.4042345881462097  5.1922254562377921 41.5432472229003906
 17.2368945479393005 14.4520931243896484 41.2499542236328196
  5.3481912612915039  0.8189310431480407 41.2030105590820384
  5.3074254989624023  9.9034261703491211 41.2537765502929688
 14.4204406738281250  0.8208924531936646 41.1704101562500000
 14.4969396591186523 10.0574474334716797 40.9944076538086009
  0.8273094892501831  3.6869695186614990 47.0359649658203125
  0.8248501420021057 12.7183685302734375 47.0359649658203125
  9.8577098846435547  3.6869695186614990 47.0359649658203125
  9.8552503585815412 12.7183685302734375 47.0359649658203125
  3.6843190193176270  8.2023353576660156 47.0346527099609375
  3.6818594932556152 17.2337341308593750 47.0346527099609375
 12.7147188186645508  8.2023353576660156 47.0346527099609375
 12.7122592926025391 17.2337341308593750 47.0346527099609375
  8.2006769180297852  5.3445744514465332 47.0360260009765696
  8.1982173919677734 14.3759746551513672 47.0360260009765696
 17.2310771942138672  5.3445744514465332 47.0360260009765696
 17.2286186218261719 14.3759746551513672 47.0360260009765696
  5.3436489105224600  0.8290914893150328 47.0346527099609375
  5.3411893844604483  9.8604917526245117 47.0346527099609375
 14.3740482330322266  0.8290914893150328 47.0346527099609375
 14.3715896606445312  9.8604917526245117 47.0346527099609375
 13.7512874603271467  9.5035686492919922 34.7718582153320312
  8.8777236938476562  0.3041803538799286 34.4695777893066406
  8.5017490386962891  9.3074445724487305 34.8825263977050781
 18.0244168015196955 17.9598295912146568 34.4394416809082031
  0.6157610416412354  8.8560533523559570 34.4856491088867188
  4.2803254127502441  4.3746395111083984 34.4961242675781321
  4.5989837646484375 13.5721778869628906 34.5485725402832102
 13.5364513397216779  3.8725159168243408 34.7330436706543040
 13.0376539230346680 14.1513261795043945 34.1850128173828125
  0.0164878508076072 18.0077801235020161 40.8828086853027415
  0.2149097025394440  9.0634794235229492 40.9093437194824219
  8.9273056248202920 18.0389616657048464 40.8335838317871165
  9.1646795272827131  8.7903022766113281 41.0213775634765696
  4.5641765594482422  4.4521918296813965 40.8523521423339844
  4.5165824890136719 13.5880756378173828 40.9196662902832031
 13.3751602172851562  4.6082854270935059 40.9508972167968821
 13.6181488037109375 13.6832838058471680 40.8497123718261790
  2.6048731803894043  1.9091691970825195 38.1287918090820312
  2.6362998485565181 10.9870882034301758 37.9368362426757812
 11.7194118499755859  1.8689135313034058 38.0233612060546875
 11.1651153564453125 11.4563856124877930 38.3948059082031250
  6.3311996459960938  7.0741362571716309 37.9392547607421875
  6.4608058929443359 16.1110935211181641 37.9264297485351562
 16.0743751525878906  6.5697345733642578 38.3921890258789062
 15.5571699142456037 16.1288375854492188 37.9109535217285227
  2.0366706848144531  6.4409465789794922 38.1271018981933594
  1.9631099700927732 15.5256710052490234 37.8961601257324219
 10.4360094070434570  5.9433364868164062 38.0490493774414062
 11.0370340347290039 15.5892505645751953 38.0895652770996165
  6.9195847511291495  2.3961086273193355 38.0266990661621165
  6.9590845108032227 11.5068149566650391 38.2513504028320384
 16.0688915252685547  2.5504477024078369 38.2491950988769531
 16.5279407501220703 11.8098096847534180 38.4341430664062571
  0.0000000000000000  0.0000000000000000 47.1735610961914062
 -0.0024593239650130  9.0313997268676740 47.1735610961914062
  9.0304002761840803  0.0000000000000000 47.1735610961914062
  9.0279407501220685  9.0313997268676740 47.1735610961914062
  4.5139794349670410  4.5156998634338379 47.1742515563964844
  4.5115203857421875 13.5470991134643537 47.1742515563964844
 13.5443792343139648  4.5156998634338379 47.1742515563964844
 13.5419197082519531 13.5470991134643537 47.1742515563964844
  2.4519233703613277  2.0629522800445557 44.0401268005371165
  2.4494640827178955 11.0943517684936523 44.0401268005371165
 11.4823226928710920  2.0629522800445557 44.0401268005371165
 11.4798641204833984 11.0943517684936523 44.0401268005371165
  6.5760178565979004  6.9684472084045410 44.0401268005371165
  6.5735583305358887 15.9998464584350586 44.0401268005371165
 15.6064186096191406  6.9684472084045410 44.0401268005371165
 15.6039590835571289 15.9998464584350586 44.0401268005371165
  2.0610768795013428  6.5788145065307617 44.0400009155273509
  2.0586175918579102 15.6102142333984375 44.0400009155273509
 11.0914773941040039  6.5788145065307617 44.0400009155273509
 11.0890178680419922 15.6102142333984375 44.0400009155273509
  6.9668641090393066  2.4525938034057613 44.0400657653808665
  6.9644045829772949 11.4839935302734375 44.0400657653808665
 15.9972639083862305  2.4525938034057613 44.0400657653808665
 15.9948053359985352 11.4839935302734375 44.0400657653808665
  2.4316265583038330  2.0832188129425049 50.0684852600097656
  2.4291670322418213 11.1146183013915998 50.0684852600097656
 11.4620265960693359  2.0832188129425049 50.0684852600097656
 11.4595670700073224 11.1146183013915998 50.0684852600097656
  6.5963144302368164  6.9481806755065918 50.0684852600097656
  6.5938549041748047 15.9795799255371076 50.0684852600097656
 15.6267137527465803  6.9481806755065918 50.0684852600097656
 15.6242542266845703 15.9795799255371076 50.0684852600097656
  2.0811281204223633  6.5990090370178223 50.0690460205078125
  2.0786688327789307 15.6304082870483398 50.0690460205078125
 11.1115283966064453  6.5990090370178223 50.0690460205078125
 11.1090688705444336 15.6304082870483398 50.0690460205078125
  6.9468131065368652  2.4323906898498531 50.0690460205078125
  6.9443535804748535 11.4637899398803711 50.0690460205078125
 15.9772129058837891  2.4323906898498531 50.0690460205078125
 15.9747543334960938 11.4637899398803711 50.0690460205078125
 18.0084312334656715  0.0180827993899584 37.7742271423339844
  0.1224721968173981  9.0419607162475586 37.8037490844726562
  9.0461626052856445  0.0981163829565048 37.6599235534667969
  8.9537935256958008  8.9661474227905273 37.8578224182128977
  4.4142618179321289  4.4758410453796387 37.6624107360839844
  4.4811992645263672 13.5104475021362305 37.6152648925781321
 13.4893703460693359  4.5098085403442383 37.7463836669921875
 13.4835224151611310 13.6574163436889631 37.7091064453125071
  0.0000090280000222  0.0000090310004452 44.0429992675781250
 -0.0024502959568053  9.0314083099365234 44.0429992675781250
  9.0304088592529297  0.0000090310004452 44.0429992675781250
  9.0279493331909180  9.0314083099365234 44.0429992675781250
  4.5139703750610352  4.5156903266906738 44.0427513122558594
  4.5115113258361816 13.5470905303955078 44.0427513122558594
 13.5443706512451172  4.5156903266906738 44.0427513122558594
 13.5419111251831037 13.5470905303955078 44.0427513122558594
  0.0000000000000000  0.0000000000000000 50.4472808837890696
 -0.0024593239650130  9.0313997268676740 50.4472808837890696
  9.0304002761840803  0.0000000000000000 50.4472808837890696
  9.0279407501220685  9.0313997268676740 50.4472808837890696
  4.5139703750610352  4.5156998634338379 50.4472808837890696
  4.5115113258361816 13.5470991134643537 50.4472808837890696
 13.5443706512451172  4.5156998634338379 50.4472808837890696
 13.5419111251831055 13.5470991134643537 50.4472808837890696
