 H  C  N  I Pb 
 1.0000000000000000
    18.0608005523681641    0.0000000000000000    0.0000000000000000
    -0.0049186488613486   18.0627994537353516    0.0000000000000000
     0.0000000000000000    0.0000000000000000   62.4874992370605469
 H   C   N   I   Pb 
 143  39  47  72  24
Cartesian
  8.1826972961425781  6.0735449790954590 35.2124900817871094
  7.9941759109497070 14.9751310348510742 35.7615051269531321
 17.3813056945800781  5.9168081283569336 35.9465370178222656
 16.9836864471435547 14.7773647308349609 35.7784309387207031
  6.0711507061496377 17.1860974431037903 35.7477836608886719
  6.3489265441894531  9.9126338958740217 34.8485336303711009
 14.5796098709106445  1.6003739833831787 35.0696983337402344
  0.2415924072265633  2.5752234458923335 34.9182739257812500
  1.3405475616455067 12.0743265151977539 35.6566009521484446
  9.9617557525634766  2.8861114978790283 34.9725341796875000
  8.9496841430664062 11.5822992324829102 34.8927154541015625
  6.6785874366760254  0.4749774932861328 34.8440704345703196
  5.3492140769958496 11.3343448638916016 34.5286216735839844
 15.8826131820678693  0.4969619512557983 34.6349945068359375
 17.2788276672363281  3.4358158111572266 36.0351676940917969
 17.8809814453125000 12.5221147537231445 36.3776359558105469
 10.2232990264892578  4.5559711456298828 35.4582748413085938
  7.9721231460571289 12.4857854843139648 35.9934768676757812
  5.0366935729980469  7.9009881019592276 35.7315597534179759
  3.6416024425998330 16.7866172790527344 35.7787933349609375
 12.3988876342773438  0.5155035257339478 35.6838188171386719
  6.7200479507446289  5.2331523895263672 34.7143402099609375
  9.1148014068603516 15.6558322906494141 34.6299324035644531
  0.3928451538085926  6.6432762145996094 34.7709426879882812
 17.9028339385986328 15.6903390884399414 34.6144943237304759
  3.3073544502258296  8.0502977371215820 35.5747947692871094
  2.6446942547336221 17.9516985043883324 34.9744262695312571
 12.3208097675815207 16.8466987609863281 35.3866348266601562
  7.7615342140197754  3.2239489555358882 34.4320716857910156
  9.8450355529785156 13.5396347045898438 33.9005203247070312
  1.1591892242431667  4.5281119346618652 34.0263442993164062
  1.4880561828613270 14.0425071716308594 34.4035530090332031
  3.3677539825439453 10.1961498260498047 34.8061447143554688
  4.4752793312072754  1.1882730722427368 34.2849349975585938
 14.4889101246371865 16.6724517345428467 34.7534408569335938
  8.7854080200195312  6.1256260871887207 41.1283607482910156
  8.0781059265136719 14.5941371917724592 42.1174354553222727
 17.3939763307571447  5.1935286521911621 42.2167510986328196
 16.7626621723175049 13.0927877426147461 42.0234756469726562
  5.5092830657958975  1.0306620597839355 41.8632698059082031
  5.3731064796447754  9.9235429763793945 42.1698074340820384
 14.4840173721313459  1.0508892536163330 42.1108398437500000
 13.9409351348876935 10.7716560363769531 40.9657783508300781
  1.5473980903625486  2.9496409893035889 40.3116035461425781
  2.1190245151519775 13.0516738891601562 40.7688674926757884
 10.1729574203491211  2.7384788990020752 40.9551315307617188
 10.2536306381225586 12.0729646682739258 40.5827865600586009
  3.1733956336975093  7.5097136497497550 40.4706115722656250
  3.0797647694125772 16.6129642724990845 40.6477928161621094
 12.4996414184570295  7.4052519798278809 41.0202140808105469
 12.1771282413974404 16.6439230442047119 40.6807861328125071
  1.1416996717453003  3.3179924488067627 41.9710044860839844
  1.0556505918502808 12.2219419479370117 41.8614845275878906
 10.7022590637207031  4.3896088600158691 41.1602897644042969
  9.7394685745239258 12.5867948532104492 42.1587982177734375
  3.5880866050720215  8.0255928039550781 42.0904312133789062
  3.6807121494784951 17.2448999881744385 42.1512184143066406
 12.0061101913452148  9.0785627365112305 41.0313949584961009
 12.6165050724521262 17.3197160363197327 42.2273902893066477
  7.1858253479003906  5.4238429069519043 40.9826583862304688
  7.7322549819946289 15.1959829330444336 40.5194969177246094
 16.8784663677215612  5.8761906623840332 40.6972808837890696
 16.3523036241531372 14.3944196701049805 40.9400291442871094
  5.8882317543029785  1.3911854028701782 40.1948699951171946
  5.9160161018371582 10.4445247650146484 40.5991477966308594
 15.0676097869873047  1.3773279190063474 40.4986648559570312
 15.5360479354858398 10.0491895675659180 40.8787536621093750
  0.1289227306842804  4.5390267372131348 39.4056053161621094
  0.4306059777736664 14.5090637207031250 40.0224723815917969
  7.9465503692626953  3.2673280239105225 40.8295669555664134
  9.0622310638427734 13.6527004241943359 39.4426002502441406
  4.4022382954135537 17.9336497336626053 39.3243408203125000
  4.6055831909179688  8.9596261978149414 39.4333496093750000
 13.6838878849521279 17.9050792157649994 39.4861602783203125
 14.7479400634765625  7.8797302246093750 40.9146423339843750
  8.1032123565673828  5.4420318603515616 48.0459518432617259
  8.1007528305053711 14.4734306335449219 48.0459518432617259
 17.1336116790771484  5.4420318603515616 48.0459518432617259
 17.1311531066894531 14.4734306335449219 48.0459518432617259
  5.4410333633422852  0.9265221953392029 48.0449485778808594
  5.4385743141174316  9.9579219818115234 48.0449485778808594
 14.4714326858520490  0.9265221953392029 48.0449485778808594
 14.4689741134643555  9.9579219818115234 48.0449485778808594
  1.4218254089355467  3.0919990539550781 46.4558296203613281
  1.4193661212921143 12.1233978271484375 46.4558296203613281
 10.4522256851196289  3.0919990539550781 46.4558296203613281
 10.4497661590576172 12.1233978271484375 46.4558296203613281
  3.0899283885955806  7.6075901985168457 46.4545211791992188
  3.0874691009521484 16.6389904022216797 46.4545211791992188
 12.1203289031982422  7.6075901985168457 46.4545211791992188
 12.1178693771362305 16.6389904022216797 46.4545211791992188
  0.9247469902038573  3.5893490314483643 48.0459518432617259
  0.9222877025604248 12.6207475662231445 48.0459518432617259
  9.9551477432250977  3.5893490314483643 48.0459518432617259
  9.9526882171630859 12.6207475662231445 48.0459518432617259
  3.5868983268737793  8.1048498153686523 48.0448913574218821
  3.5844390392303462 17.1362495422363281 48.0448913574218821
 12.6172990798950195  8.1048498153686523 48.0448913574218821
 12.6148395538330078 17.1362495422363281 48.0448913574218821
  7.6061611175537109  5.9393639564514160 46.4558296203613281
  7.6037015914916992 14.9707632064819336 46.4558296203613281
 16.6365604400634766  5.9393639564514160 46.4558296203613281
 16.6341018676757812 14.9707632064819336 46.4558296203613281
  5.9380125999450684  1.4238001108169553 46.4545211791992188
  5.9355530738830566 10.4551992416381836 46.4545211791992188
 14.9684123992919904  1.4238001108169553 46.4545211791992188
 14.9659538269042951 10.4551992416381836 46.4545211791992188
 -0.0011664569610730  4.5157265663146973 45.3548011779785156
 -0.0036257810425013 13.5471258163452148 45.3548011779785156
  9.0292339324951172  4.5157265663146973 45.3548011779785156
  9.0267744064331037 13.5471258163452148 45.3548011779785156
  4.5152091979980469  0.0000000000000000 45.3536758422851562
  4.5127501487731934  9.0313997268676740 45.3536758422851562
 13.5456094741821289  0.0000000000000000 45.3536758422851562
 13.5431499481201172  9.0313997268676740 45.3536758422851562
 13.9935684204101562 10.0490703582763672 32.3723564147949219
 12.9799604415893555  8.6500930786132812 32.7479591369628977
 15.6833591461181641  9.0626707077026367 33.5860862731933594
 15.5438194274902344  8.7628326416015625 35.3153190612792969
 13.4260683059692383 11.5920763015747070 34.9285926818847656
 14.6851434707641602 10.8136911392211914 35.9029273986816406
 12.0354490280151367  9.8800640106201154 35.4876251220703125
 12.3106555938720685  8.2209959030151367 34.9591178894042969
 11.1348571777343750 10.1381845474243164 33.5115165710449219
 12.1732139587402344 11.5622014999389631 33.3443870544433594
 10.9299001693725586 11.6551961898803693 31.3802623748779297
 12.4061937332153320 10.8656826019287109 30.8352127075195348
 14.2591838836669904  7.0463118553161621 33.0722045898437500
 14.0298414230346680  6.7483215332031250 34.8096733093261719
 15.6331443786621094  6.6348214149475098 34.1033706665039062
 15.5527725219726562 12.5917654037475586 34.4549942016601562
 15.0908422470092773 11.7539052963256836 32.9894065856933665
 16.3433685302734375 11.0530290603637695 34.0738487243652415
 13.9184169769287109  9.5972852706909180 37.2386779785156250
 14.0063629150390607  7.8903288841247559 36.7628974914550781
 12.5289888381958008  8.5428276062011719 37.4554557800292969
  9.7398452758789062  9.5131778717041016 31.5359573364257812
 10.3430662155151367  9.8211879730224609 29.9053230285644567
 12.7193880081176758  8.6622591018676758 29.3648605346679688
 10.0448236465454084  7.4130997657775879 32.5016784667968750
 13.8644714355468750  6.4679770469665527 29.4592647552490234
 11.2192420959472656  5.2139706611633292 32.6134414672851634
 13.1400918960571289  4.7443971633911133 31.1172180175781250
  0.3748416900634769  4.5985913276672363 34.7841873168945312
  0.6112155914306651 13.8618583679199219 35.0354423522949219
  8.3623256683349609  4.0735292434692383 34.7676162719726562
  9.0648784637451172 13.6128129959106445 34.6603775024414134
  4.3100132942199707  9.6778583526611328 34.9774169921875071
  4.6420006752014160  0.2636573910713196 34.8447265625000000
 14.1032966831699014 17.6625848114490509 35.0053291320800781
  0.1780359297990799  4.4128575325012207 40.4912528991699219
  0.2125170975923538 13.7626485824584961 40.7890052795410156
  8.6697854995727539  4.0692000389099121 40.9699020385742188
  8.9938373565673828 13.6271715164184570 40.5392303466796875
  4.5512394905090332  8.9678936004638672 40.5240707397460938
  4.4820560673251748 18.0283778868615627 40.4111747741699219
 14.0342111587524396  8.7062864303588867 40.9459190368652344
 13.6261238316073996 18.0327138230204582 40.5718650817871165
  9.0289716720581055  4.5156092643737793 46.4455223083496165
  9.0265130996704102 13.5470085144042969 46.4455223083496165
 18.0593719482421875  4.5156092643737793 46.4455223083496165
 18.0569133758544922 13.5470085144042969 46.4455223083496165
  4.5152091979980469  0.0000180629995157 46.4442062377929759
  4.5127501487731934  9.0314178466796857 46.4442062377929759
 13.5456094741821289  0.0000180629995157 46.4442062377929759
 13.5431499481201172  9.0314178466796857 46.4442062377929759
 11.3128347396850586  8.2026958465576172 30.9371643066406286
 12.3852434158325195  7.9141287803649902 30.0755882263183594
 10.8877096176147443  7.2040386199951172 31.8352279663085973
 13.0321540832519531  6.6717605590820312 30.1332473754882812
 11.5386142730712891  5.9710936546325684 31.8952827453613281
 12.6206521987915039  5.7042603492736816 31.0513038635253942
 13.2020473480224609  9.6802158355712891 33.0437736511230540
 15.0216798782348633  8.6515283584594727 34.3556594848632812
 14.3129959106445295 10.9505720138549805 34.8829994201660156
 12.7947168350219727  9.0919313430786133 35.4206008911132812
 11.9682178497314435 10.5681362152099609 32.9381675720214844
 11.5163135528564453 10.7248601913452148 31.4747982025146484
 14.6937828063964844  7.2020745277404785 34.0675086975097656
 15.3873691558837891 11.5931167602539062 34.0336418151855469
 13.3619575500488281  8.7662096023559570 36.7814941406250000
 10.6527357101440430  9.5663337707519531 30.9306240081787109
 17.9604091644287109  3.4764528274536128 35.2728042602539062
  0.5782146453857451 12.7457580566406250 35.7152366638183594
  9.6281185150146467  3.8515691757202148 35.0194511413574219
  8.6082239151000977 12.5013313293457013 35.1873588562011719
  7.7415099143981934  5.2311477661132812 34.8551902770996094
  8.6661500930786133 14.8136444091796875 35.0009384155273438
 18.0277576446533203  5.7899560928344727 35.1506195068359375
 17.7281703948974609 14.7834234237670898 35.0680923461914134
  4.2313427925109863  8.4294681549072266 35.3752441406250000
  3.5883659580722451 17.6282498836517334 35.2001342773437500
 12.8374609211459756 17.7228344976902008 35.3507804870605469
  5.8719801167026162 17.9898590445518494 35.1372222900390625
  5.4172821044921875 10.3382577896118164 34.7444190979003906
 14.9160623550415021  0.6308125853538513 34.9389724731445384
  0.9912146925926207  3.5084986686706543 40.9678077697753906
  1.1605741977691650 12.9282855987548810 41.1260452270507812
  9.9300384521484375  3.7285003662109371 41.0427169799804688
  9.6904563903808594 12.7010812759399396 41.1504554748535156
  3.7147970199584956  8.1268787384033203 41.0837097167968750
  3.7016197899356484 17.2533451318740880 41.1294822692871094
 12.7608289718627930  8.3945856094360352 40.9709396362304688
 12.7600063541904092 17.2856544852256775 41.2161674499511719
  8.2006053924560547  5.2953763008117676 41.0359573364257812
  8.2309617996215820 14.5288038253784180 41.1081008911132812
 17.4593861103057897  5.2033944129943848 41.1974105834961009
 17.0605522394180298 13.7567796707153320 41.2942237854003977
  5.3504028320312500  0.8428502082824707 40.8720664978027344
  5.3323163986206055  9.8214778900146467 41.1529197692871165
 14.4366893768310547  0.8563197255134583 41.1127738952636719
 14.5205793380737305  9.9230031967163086 40.9576606750488281
  0.8273094892501831  3.6869695186614990 47.0359649658203125
  0.8248501420021057 12.7183685302734375 47.0359649658203125
  9.8577098846435547  3.6869695186614990 47.0359649658203125
  9.8552503585815412 12.7183685302734375 47.0359649658203125
  3.6843190193176270  8.2023353576660156 47.0346527099609375
  3.6818594932556152 17.2337341308593750 47.0346527099609375
 12.7147188186645508  8.2023353576660156 47.0346527099609375
 12.7122592926025391 17.2337341308593750 47.0346527099609375
  8.2006769180297852  5.3445744514465332 47.0360260009765696
  8.1982173919677734 14.3759746551513672 47.0360260009765696
 17.2310771942138672  5.3445744514465332 47.0360260009765696
 17.2286186218261719 14.3759746551513672 47.0360260009765696
  5.3436489105224600  0.8290914893150328 47.0346527099609375
  5.3411893844604483  9.8604917526245117 47.0346527099609375
 14.3740482330322266  0.8290914893150328 47.0346527099609375
 14.3715896606445312  9.8604917526245117 47.0346527099609375
 13.8323650360107422  9.5924148559570312 34.4234924316406321
  9.3394956588745099  0.2644675672054291 34.5200729370117188
  8.7285604476928711  8.9445934295654297 34.6192588806152415
  0.2871465981006622  0.1116025224328041 34.2693901062011719
  0.6592757701873779  9.1976938247680664 34.5690498352050781
  4.2761392593383789  4.3496990203857422 34.5038642883300781
  4.5833182334899902 13.8433218002319336 34.5747375488281321
 13.3440990447998047  3.7395992279052730 34.6208419799804759
 12.6493530273437500 14.2889451980590820 34.6176452636718821
  0.0066985366865993 17.7899423837661743 40.8428688049316406
 18.0215015150606632  9.1419296264648438 40.9086303710937500
  8.9537143707275391  0.1842621564865112 40.9020462036132812
  9.1527566909790039  8.8279466629028320 40.9125404357910156
  4.6704173088073730  4.4645156860351562 40.8812713623046946
  4.6776084899902344 13.6159076690673828 40.8968048095703125
 13.4420175552368164  4.8077545166015625 40.8735008239746165
 13.4428853988647461 13.4037199020385742 40.8745765686035227
  2.4196801185607906  2.0214939117431641 37.9522438049316406
  2.6384060382843018 10.9942207336425763 38.0166625976562571
 11.6949958801269531  1.9090051651000974 38.1190223693847656
 11.1289281845092773 11.3434638977050781 38.0098152160644531
  6.4533133506774902  7.0037693977355957 37.8087997436523438
  6.7661094665527344 15.8919563293457031 37.8967285156250000
 16.0706806182861328  6.5832509994506836 38.0260848999023438
 15.6533813476562500 15.8824319839477521 37.7916069030761719
  2.1615808010101318  6.6366529464721680 38.0564727783203125
  2.2328596115112305 15.6798677444458008 37.9721794128417969
 10.7295646667480469  6.1287212371826172 37.5771560668945384
 11.1282138824462891 15.7297306060791016 38.3045692443847656
  6.9711246490478516  2.4343106746673584 37.8419456481933665
  6.9412708282470703 11.3622846603393555 38.1074295043945312
 16.0007820129394531  2.3968214988708496 38.1557579040527344
 16.1561927795410156 11.6716146469116211 38.0753097534179688
  0.0000000000000000  0.0000000000000000 47.1735610961914062
 -0.0024593239650130  9.0313997268676740 47.1735610961914062
  9.0304002761840803  0.0000000000000000 47.1735610961914062
  9.0279407501220685  9.0313997268676740 47.1735610961914062
  4.5139794349670410  4.5156998634338379 47.1742515563964844
  4.5115203857421875 13.5470991134643537 47.1742515563964844
 13.5443792343139648  4.5156998634338379 47.1742515563964844
 13.5419197082519531 13.5470991134643537 47.1742515563964844
  2.4519233703613277  2.0629522800445557 44.0401268005371165
  2.4494640827178955 11.0943517684936523 44.0401268005371165
 11.4823226928710920  2.0629522800445557 44.0401268005371165
 11.4798641204833984 11.0943517684936523 44.0401268005371165
  6.5760178565979004  6.9684472084045410 44.0401268005371165
  6.5735583305358887 15.9998464584350586 44.0401268005371165
 15.6064186096191406  6.9684472084045410 44.0401268005371165
 15.6039590835571289 15.9998464584350586 44.0401268005371165
  2.0610768795013428  6.5788145065307617 44.0400009155273509
  2.0586175918579102 15.6102142333984375 44.0400009155273509
 11.0914773941040039  6.5788145065307617 44.0400009155273509
 11.0890178680419922 15.6102142333984375 44.0400009155273509
  6.9668641090393066  2.4525938034057613 44.0400657653808665
  6.9644045829772949 11.4839935302734375 44.0400657653808665
 15.9972639083862305  2.4525938034057613 44.0400657653808665
 15.9948053359985352 11.4839935302734375 44.0400657653808665
  2.4316265583038330  2.0832188129425049 50.0684852600097656
  2.4291670322418213 11.1146183013915998 50.0684852600097656
 11.4620265960693359  2.0832188129425049 50.0684852600097656
 11.4595670700073224 11.1146183013915998 50.0684852600097656
  6.5963144302368164  6.9481806755065918 50.0684852600097656
  6.5938549041748047 15.9795799255371076 50.0684852600097656
 15.6267137527465803  6.9481806755065918 50.0684852600097656
 15.6242542266845703 15.9795799255371076 50.0684852600097656
  2.0811281204223633  6.5990090370178223 50.0690460205078125
  2.0786688327789307 15.6304082870483398 50.0690460205078125
 11.1115283966064453  6.5990090370178223 50.0690460205078125
 11.1090688705444336 15.6304082870483398 50.0690460205078125
  6.9468131065368652  2.4323906898498531 50.0690460205078125
  6.9443535804748535 11.4637899398803711 50.0690460205078125
 15.9772129058837891  2.4323906898498531 50.0690460205078125
 15.9747543334960938 11.4637899398803711 50.0690460205078125
 18.0486309137195349 18.0404285527765751 37.7865676879882884
  0.0723253116011620  9.1138954162597656 37.7497100830078125
  9.1330785751342773  0.1314425170421600 37.7329177856445312
  9.0143041610717773  8.8746023178100586 37.7510032653808665
  4.4738674163818359  4.4591603279113770 37.6490516662597656
  4.5560679435729980 13.4851922988891584 37.7077598571777415
 13.4702081680297852  4.4403347969055176 37.6415748596191406
 13.3282032012939453 13.6381196975708008 37.6506309509277344
  0.0000090280000222  0.0000090310004452 44.0429992675781250
 -0.0024502959568053  9.0314083099365234 44.0429992675781250
  9.0304088592529297  0.0000090310004452 44.0429992675781250
  9.0279493331909180  9.0314083099365234 44.0429992675781250
  4.5139703750610352  4.5156903266906738 44.0427513122558594
  4.5115113258361816 13.5470905303955078 44.0427513122558594
 13.5443706512451172  4.5156903266906738 44.0427513122558594
 13.5419111251831037 13.5470905303955078 44.0427513122558594
  0.0000000000000000  0.0000000000000000 50.4472808837890696
 -0.0024593239650130  9.0313997268676740 50.4472808837890696
  9.0304002761840803  0.0000000000000000 50.4472808837890696
  9.0279407501220685  9.0313997268676740 50.4472808837890696
  4.5139703750610352  4.5156998634338379 50.4472808837890696
  4.5115113258361816 13.5470991134643537 50.4472808837890696
 13.5443706512451172  4.5156998634338379 50.4472808837890696
 13.5419111251831055 13.5470991134643537 50.4472808837890696
