 H  C  N  I Pb 
 1.0000000000000000
    18.0608005523681641    0.0000000000000000    0.0000000000000000
    -0.0049186488613486   18.0627994537353516    0.0000000000000000
     0.0000000000000000    0.0000000000000000   62.4874992370605469
 H   C   N   I   Pb 
 143  39  47  72  24
Cartesian
  8.0908918380737305  5.3842344284057617 36.3515014648437571
  8.0204067230224609 14.7672853469848633 36.2244300842285156
 17.2770195007324219  4.9934282302856445 36.6829566955566477
 17.5119400024414062 14.5369224548339844 36.5692749023437500
  5.4179725646972647  0.8234697580337524 36.4348945617675852
  5.3940143585205078  9.9253530502319336 36.4203834533691406
 14.2375307083129865  1.1026026010513306 36.3187179565429688
  1.6475772857666036  3.2292795181274414 34.6394577026367188
  1.3759822845458984 12.1504631042480469 34.6733169555664062
 10.6364727020263672  3.2741138935089111 34.6892814636230469
 10.0803499221801758 11.9988260269165039 35.2684402465820312
  6.0663814544677734  1.2204328775405884 34.8877220153808665
  5.8482017517089844 10.5655698776245117 34.8832550048828125
 14.9269380569458008  1.4553486108779907 34.7800865173339844
  1.2244796752929705  3.5190784931182861 36.2516899108886719
  0.9289417266845738 12.6018791198730469 36.2862129211425852
 10.1562414169311523  3.8609411716461182 36.3008003234863281
  9.4906034469604474 12.8347787857055646 36.6933059692382884
  3.6068403720855713  7.9997057914733887 36.2985191345214844
  3.3659898499026890 17.2276617288589478 36.3299446105957102
 12.6353029469028098 17.0933736562728882 36.3123817443847656
  7.2866001129150391  5.6162428855895996 34.7798957824707031
  7.7310309410095215 15.2176914215087891 34.5795326232910227
 16.4582767486572266  5.6449213027954093 35.3204307556152344
 16.9770221710205078 15.3868303298950195 35.1334075927734375
  3.1179454326629639  7.6208844184875488 34.6924896240234375
  2.9306041458621621 16.7635591030120850 34.7289352416992188
 12.4687360981479287 16.3285785913467407 34.7649154663085938
  8.8489112854003906  4.3280916213989258 33.6042327880859375
  9.1066837310791016 13.3998012542724609 33.7869720458984375
 17.9195175170898438  4.5885066986083975 33.7879753112793040
  0.0660305023193386 13.9292268753051758 33.7542114257812500
  4.4648566246032715  9.1867942810058594 33.6339454650878906
  4.5562776783481240 17.9828257560729980 33.6534156799316406
 13.9145750263705850 17.8089221119880676 33.6419486999511719
  8.1406040191650391  5.5027656555175781 42.1501884460449219
  8.0849571228027344 14.3412542343139631 42.2551498413086009
 17.0330328941345250  5.5030894279479980 41.9938087463378977
 17.0762244462966919 14.5372295379638672 42.1681900024414062
  5.4037656784057617  0.8517451882362366 42.1775054931640625
  5.3502602577209473  9.9728679656982422 42.1682929992675781
 14.5287075042724609  1.0384869575500488 42.0883827209472656
 14.7813138961791992  9.7809371948242188 42.1888236999511719
  1.4274767637252808  3.0367684364318848 40.6764602661132812
  1.4779412746429443 12.1708097457885742 40.6657447814941406
 10.3845090866088867  3.0375456809997559 40.5720176696777344
 10.3819351196289062 12.1737470626831055 40.5154495239257812
  3.1651844978332520  7.5359797477722168 40.5669136047363281
  3.0525147179141641 16.6558728218078613 40.4231719970703125
 11.9700155258178693  8.0100107192993164 40.6899604797363281
 12.1123060444369912 16.6610414981842041 40.7015533447265696
  0.7971635460853577  3.6708965301513667 42.1922416687011719
  0.8696485757827759 12.6972379684448242 42.2635993957519531
  9.9191617965698242  3.6330823898315430 42.1804885864257812
  9.9333543777465803 12.5952281951904297 42.1091842651367188
  3.6861412525177002  8.0898437500000000 42.1547355651855469
  3.5406679371371861 17.1378071904182434 42.0532150268554688
 12.6448583602905273  8.1610727310180664 42.2112846374511719
 12.7100595692172647 17.2798036932945251 42.2440719604492259
  7.5795817375183105  6.0166492462158203 40.5570755004882812
  7.4786839485168457 14.9622726440429670 40.7189407348632812
 16.6476941108703649  5.9023122787475577 40.3809356689453125
 16.6074409484863281 14.9669303894042951 40.5398445129394602
  6.0253682136535636  1.4173753261566162 40.6251754760742188
  5.8526930809020996 10.5746135711669922 40.5997123718261719
 14.9712610244750977  1.5064901113510132 40.4438705444335938
 15.1390962600708008 10.3895053863525391 40.6390609741210938
  0.0769145935773849  4.4105820655822754 39.3985900878906250
  0.0159249939024448 13.5504293441772461 39.4692573547363281
  8.9519710540771484  4.4815607070922852 39.4543342590332031
  8.9031105041503906 13.6071348190307617 39.4785652160644531
  4.5748906135559082  0.0324850119650364 39.4139289855957031
  4.5212187767028800  9.0780963897705078 39.4544448852539062
 13.4965414265170676 18.0556719228625298 39.4680137634277344
 13.3805923461914062  9.3744001388549805 39.5680999755859375
  8.1032123565673828  5.4420318603515616 48.0459518432617259
  8.1007528305053711 14.4734306335449219 48.0459518432617259
 17.1336116790771484  5.4420318603515616 48.0459518432617259
 17.1311531066894531 14.4734306335449219 48.0459518432617259
  5.4410333633422852  0.9265221953392029 48.0449485778808594
  5.4385743141174316  9.9579219818115234 48.0449485778808594
 14.4714326858520490  0.9265221953392029 48.0449485778808594
 14.4689741134643555  9.9579219818115234 48.0449485778808594
  1.4218254089355467  3.0919990539550781 46.4558296203613281
  1.4193661212921143 12.1233978271484375 46.4558296203613281
 10.4522256851196289  3.0919990539550781 46.4558296203613281
 10.4497661590576172 12.1233978271484375 46.4558296203613281
  3.0899283885955806  7.6075901985168457 46.4545211791992188
  3.0874691009521484 16.6389904022216797 46.4545211791992188
 12.1203289031982422  7.6075901985168457 46.4545211791992188
 12.1178693771362305 16.6389904022216797 46.4545211791992188
  0.9247469902038573  3.5893490314483643 48.0459518432617259
  0.9222877025604248 12.6207475662231445 48.0459518432617259
  9.9551477432250977  3.5893490314483643 48.0459518432617259
  9.9526882171630859 12.6207475662231445 48.0459518432617259
  3.5868983268737793  8.1048498153686523 48.0448913574218821
  3.5844390392303462 17.1362495422363281 48.0448913574218821
 12.6172990798950195  8.1048498153686523 48.0448913574218821
 12.6148395538330078 17.1362495422363281 48.0448913574218821
  7.6061611175537109  5.9393639564514160 46.4558296203613281
  7.6037015914916992 14.9707632064819336 46.4558296203613281
 16.6365604400634766  5.9393639564514160 46.4558296203613281
 16.6341018676757812 14.9707632064819336 46.4558296203613281
  5.9380125999450684  1.4238001108169553 46.4545211791992188
  5.9355530738830566 10.4551992416381836 46.4545211791992188
 14.9684123992919904  1.4238001108169553 46.4545211791992188
 14.9659538269042951 10.4551992416381836 46.4545211791992188
 -0.0011664569610730  4.5157265663146973 45.3548011779785156
 -0.0036257810425013 13.5471258163452148 45.3548011779785156
  9.0292339324951172  4.5157265663146973 45.3548011779785156
  9.0267744064331037 13.5471258163452148 45.3548011779785156
  4.5152091979980469  0.0000000000000000 45.3536758422851562
  4.5127501487731934  9.0313997268676740 45.3536758422851562
 13.5456094741821289  0.0000000000000000 45.3536758422851562
 13.5431499481201172  9.0313997268676740 45.3536758422851562
 12.9840469360351562  8.3058204650878906 34.3073768615722656
 13.4083671569824219  9.3652505874633789 32.9502677917480469
 11.8783330917358381 10.0682468414306641 35.2423973083496165
 12.5130138397216797 11.6859855651855451 35.3051872253417969
 15.1446218490600568  9.4196681976318359 36.3226318359375071
 14.0141916275024414 10.6825733184814453 36.8367958068847656
 15.8450727462768537 10.1338853836059570 34.1465759277343821
 14.8185949325561523 11.2627859115600586 33.2681274414062500
 15.8531703948974609  8.8067903518676758 33.1711578369140625
 15.5742635726928711  8.2213039398193359 34.8250732421875000
 16.0039787292480469  6.3841972351074219 33.3547592163085938
 14.3576889038085938  6.2325935363769531 33.9505805969238281
 11.2653360366821289 10.2146549224853516 32.9191932678222656
 12.7575778961181641 11.1483058929443342 32.5290298461914062
 11.4713172912597656 11.9961919784545881 33.2989463806152344
 13.1315240859985352  8.6433219909667969 37.7340431213378906
 13.4313764572143555  7.6356015205383301 36.2592430114746165
 12.1083793640136719  8.8670673370361328 36.3057899475097727
 15.1741008758544904 12.2903213500976562 35.9407005310058665
 15.8200445175170881 12.9334869384765625 34.4928474426269602
 16.7487316131591797 11.6224498748779297 35.4206619262695384
 15.2176733016967773  7.1987676620483398 31.1736793518066442
 14.5120000839233398  5.6579418182373047 31.5927047729492223
 12.1994686126708984  5.8523640632629395 32.9719963073730540
 13.7247209548950195  8.7050380706787109 30.1434326171875000
  9.9386157989501953  6.7918319702148438 32.7229728698730469
 11.4551820755004865  9.6450634002685529 29.8890457153320348
  9.5912351608276367  8.7606325149536133 31.1868114471435547
  0.0464076995849642  4.4302835464477539 34.8250694274902344
  0.1558399200439448 13.7785663604736310 34.8020439147949219
  8.9847459793090820  4.4200382232666016 34.6798400878906250
  8.9668369293212891 13.5736522674560547 34.8191642761230469
  4.4985189437866211  9.1187686920166016 34.7392654418945312
  4.4748620251193643 18.0042404718697071 34.7600440979003977
 13.7169927814975381 17.9447953775525093 34.7254486083984375
  0.0002959668636322  4.4769620895385742 40.5277633666992188
  0.0090942047536373 13.5756988525390607 40.6076850891113281
  9.0012245178222656  4.5068879127502441 40.5830116271972656
  8.9745397567749023 13.5317296981811523 40.6048088073730469
  4.5229115486145020  9.0664539337158203 40.5746650695800852
  4.5190538624301553 18.0534917088225484 40.5358848571777344
 13.5090208053588867  9.1698799133300781 40.6402549743652415
 13.5467519760131836  0.0323787964880466 40.5899734497070312
  9.0289716720581055  4.5156092643737793 46.4455223083496165
  9.0265130996704102 13.5470085144042969 46.4455223083496165
 18.0593719482421875  4.5156092643737793 46.4455223083496165
 18.0569133758544922 13.5470085144042969 46.4455223083496165
  4.5152091979980469  0.0000180629995157 46.4442062377929759
  4.5127501487731934  9.0314178466796857 46.4442062377929759
 13.5456094741821289  0.0000180629995157 46.4442062377929759
 13.5431499481201172  9.0314178466796857 46.4442062377929759
 13.1420202255249023  7.2006630897521973 31.5318260192871094
 12.0624580383300781  6.6866431236267090 32.2340812683105469
 12.9137859344482422  8.2592306137084961 30.6784782409667969
 10.7464179992675781  7.2217230796813965 32.1244354248046875
 11.6464910507202148  8.8326015472412109 30.5221176147460938
 10.5256338119506836  8.2979021072387695 31.2856578826904297
 13.7599506378173828  8.9935846328735352 33.9430770874023438
 12.5123977661132812 10.7734355926513672 34.6960678100586009
 14.1140670776367188  9.7683601379394531 36.2274398803710938
 15.1028356552124023 10.9113502502441406 34.2235603332519602
 15.1579160690307617  8.2492170333862305 33.8089904785156250
 14.9935483932495099  6.7920470237731934 33.2890205383300781
 11.9631996154785156 10.9998645782470703 33.2744674682617188
 13.1456632614135742  8.6425733566284180 36.6367874145507884
 15.7542743682861328 11.9888896942138672 35.0563659667968750
 14.5077085494995117  6.7191371917724609 31.8063182830810547
  1.0141448974609388  3.6940946578979492 35.2699623107910156
  0.8493785858154309 12.7533473968505859 35.3109245300292969
  9.9612102508544922  3.7861776351928711 35.2728729248046875
  9.5540714263916016 12.7875804901123029 35.6599235534668040
  8.0557546615600586  5.2033653259277344 35.3348083496093750
  8.1748132705688477 14.6171131134033203 35.2632369995117188
 17.2337913513183594  5.0803337097167969 35.6561889648437571
 17.5660915374755859 14.6625452041625977 35.5710067749023509
  3.6833271980285640  8.1818218231201172 35.2615737915039062
  3.5367726543918252 17.2870517969131470 35.2850761413574219
 12.8749994495883584 17.0571630001068115 35.2898139953613281
  5.3877234458923331  0.7191261053085327 35.3856353759765696
  5.2933397293090820  9.9230709075927734 35.3650283813476634
 14.3409948348999023  0.8675755262374878 35.2905044555664062
  0.7616429924964905  3.7071647644042969 41.1871719360351562
  0.8111299872398376 12.8058004379272443 41.2077903747558665
  9.7850255966186523  3.7061944007873535 41.1777229309082031
  9.8476438522338867 12.7203283309936523 41.1258354187011790
  3.7552936077117920  8.1334104537963867 41.1774711608886719
  3.6882971981540322 17.2732805013656616 41.0887641906738281
 12.6734256744384766  8.4080324172973633 41.2464179992675781
 12.7797455051913857 17.3391382098197937 41.2646293640136790
  8.1684446334838867  5.4199776649475098 41.1695365905761790
  8.1015405654907227 14.3487138748168928 41.2734680175781250
 17.1827822327613831  5.3605675697326660 41.0266532897949219
 17.2080700993537938 14.4304218292236328 41.1211242675781250
  5.3928594589233398  0.8239709138870239 41.1954803466796875
  5.2596726417541504  9.9483213424682599 41.1951599121093821
 14.4335460662841797  0.9280129075050354 41.1160964965820312
 14.5694141387939453  9.8321037292480469 41.2261505126953196
  0.8273094892501831  3.6869695186614990 47.0359649658203125
  0.8248501420021057 12.7183685302734375 47.0359649658203125
  9.8577098846435547  3.6869695186614990 47.0359649658203125
  9.8552503585815412 12.7183685302734375 47.0359649658203125
  3.6843190193176270  8.2023353576660156 47.0346527099609375
  3.6818594932556152 17.2337341308593750 47.0346527099609375
 12.7147188186645508  8.2023353576660156 47.0346527099609375
 12.7122592926025391 17.2337341308593750 47.0346527099609375
  8.2006769180297852  5.3445744514465332 47.0360260009765696
  8.1982173919677734 14.3759746551513672 47.0360260009765696
 17.2310771942138672  5.3445744514465332 47.0360260009765696
 17.2286186218261719 14.3759746551513672 47.0360260009765696
  5.3436489105224600  0.8290914893150328 47.0346527099609375
  5.3411893844604483  9.8604917526245117 47.0346527099609375
 14.3740482330322266  0.8290914893150328 47.0346527099609375
 14.3715896606445312  9.8604917526245117 47.0346527099609375
 13.9155397415161133 10.1373605728149414 34.7647972106933594
  8.9822568893432617  0.1279656887054443 34.5078239440917969
  8.8108510971069336  9.2479667663574219 34.6655082702636790
  0.0176739003509283  0.0555620193481445 34.4823684692382884
  0.2745176851749420  9.2301130294799805 34.7477874755859375
  4.5729761123657227  4.5035004615783691 34.4873085021972656
  4.5611896514892578 13.5540781021118146 34.5436019897460938
 13.2962589263916016  4.2380161285400391 34.7669334411621094
 13.2626390457153320 13.8268032073974609 34.2273025512695312
  0.0133546683937311  0.0722323730587959 40.8319320678710938
  0.1348519921302795  9.0138988494873047 40.9832458496093750
  8.9946880340576172  0.0152508178725839 40.8808364868164062
  8.9998245239257812  8.9929084777832031 40.9230194091796875
  4.5484690666198722  4.4518661499023438 40.9171752929687500
  4.4084267616271973 13.5195035934448242 40.8815345764160156
 13.5304260253906250  4.5030660629272461 40.9486770629882812
 13.5848436355590820 13.5783596038818359 40.8935890197753906
  2.6153898239135742  1.9495694637298584 37.9846649169921875
  2.6523151397705078 10.9562416076660138 38.0419654846191406
 11.6457195281982422  1.9147377014160156 38.0536918640136719
 11.3400430679321289 11.2378683090209961 38.2323532104492188
  6.3880567550659180  7.0621829032897949 38.0210494995117259
  6.4659581184387207 16.1349964141845703 38.0624809265136719
 15.7215366363525391  6.8585944175720215 38.2057991027832102
 15.4654197692871094 16.1785793304443359 38.0436973571777415
  1.9699444770812986  6.4128355979919434 38.0317802429199290
  1.9924772977828979 15.5730628967285156 38.0470924377441406
 10.7545623779296875  6.2281298637390137 37.9280319213867259
 10.8836355209350586 15.5477371215820312 38.0336570739746094
  7.0982637405395508  2.5774798393249512 38.0270957946777415
  7.1216807365417480 11.5652160644531232 38.0727119445800781
 16.0702877044677734  2.5777847766876221 37.9862937927246094
 16.3862686157226562 11.6688718795776367 38.2395820617675781
  0.0000000000000000  0.0000000000000000 47.1735610961914062
 -0.0024593239650130  9.0313997268676740 47.1735610961914062
  9.0304002761840803  0.0000000000000000 47.1735610961914062
  9.0279407501220685  9.0313997268676740 47.1735610961914062
  4.5139794349670410  4.5156998634338379 47.1742515563964844
  4.5115203857421875 13.5470991134643537 47.1742515563964844
 13.5443792343139648  4.5156998634338379 47.1742515563964844
 13.5419197082519531 13.5470991134643537 47.1742515563964844
  2.4519233703613277  2.0629522800445557 44.0401268005371165
  2.4494640827178955 11.0943517684936523 44.0401268005371165
 11.4823226928710920  2.0629522800445557 44.0401268005371165
 11.4798641204833984 11.0943517684936523 44.0401268005371165
  6.5760178565979004  6.9684472084045410 44.0401268005371165
  6.5735583305358887 15.9998464584350586 44.0401268005371165
 15.6064186096191406  6.9684472084045410 44.0401268005371165
 15.6039590835571289 15.9998464584350586 44.0401268005371165
  2.0610768795013428  6.5788145065307617 44.0400009155273509
  2.0586175918579102 15.6102142333984375 44.0400009155273509
 11.0914773941040039  6.5788145065307617 44.0400009155273509
 11.0890178680419922 15.6102142333984375 44.0400009155273509
  6.9668641090393066  2.4525938034057613 44.0400657653808665
  6.9644045829772949 11.4839935302734375 44.0400657653808665
 15.9972639083862305  2.4525938034057613 44.0400657653808665
 15.9948053359985352 11.4839935302734375 44.0400657653808665
  2.4316265583038330  2.0832188129425049 50.0684852600097656
  2.4291670322418213 11.1146183013915998 50.0684852600097656
 11.4620265960693359  2.0832188129425049 50.0684852600097656
 11.4595670700073224 11.1146183013915998 50.0684852600097656
  6.5963144302368164  6.9481806755065918 50.0684852600097656
  6.5938549041748047 15.9795799255371076 50.0684852600097656
 15.6267137527465803  6.9481806755065918 50.0684852600097656
 15.6242542266845703 15.9795799255371076 50.0684852600097656
  2.0811281204223633  6.5990090370178223 50.0690460205078125
  2.0786688327789307 15.6304082870483398 50.0690460205078125
 11.1115283966064453  6.5990090370178223 50.0690460205078125
 11.1090688705444336 15.6304082870483398 50.0690460205078125
  6.9468131065368652  2.4323906898498531 50.0690460205078125
  6.9443535804748535 11.4637899398803711 50.0690460205078125
 15.9772129058837891  2.4323906898498531 50.0690460205078125
 15.9747543334960938 11.4637899398803711 50.0690460205078125
 18.0132079357281363 18.0329794026911259 37.6833610534667969
  0.0018079075962305  9.1102027893066406 37.8255233764648438
  9.0204420089721680  0.0279344581067562 37.6296730041503906
  9.0375223159790039  9.0365934371948224 37.7594909667968750
  4.5890784263610840  4.5020680427551270 37.6711997985839915
  4.4470891952514648 13.5348873138427717 37.6044807434082031
 13.4818449020385742  4.4950313568115234 37.7897872924804688
 13.4202537536621094 13.7509164810180664 37.8200492858886719
  0.0000090280000222  0.0000090310004452 44.0429992675781250
 -0.0024502959568053  9.0314083099365234 44.0429992675781250
  9.0304088592529297  0.0000090310004452 44.0429992675781250
  9.0279493331909180  9.0314083099365234 44.0429992675781250
  4.5139703750610352  4.5156903266906738 44.0427513122558594
  4.5115113258361816 13.5470905303955078 44.0427513122558594
 13.5443706512451172  4.5156903266906738 44.0427513122558594
 13.5419111251831037 13.5470905303955078 44.0427513122558594
  0.0000000000000000  0.0000000000000000 50.4472808837890696
 -0.0024593239650130  9.0313997268676740 50.4472808837890696
  9.0304002761840803  0.0000000000000000 50.4472808837890696
  9.0279407501220685  9.0313997268676740 50.4472808837890696
  4.5139703750610352  4.5156998634338379 50.4472808837890696
  4.5115113258361816 13.5470991134643537 50.4472808837890696
 13.5443706512451172  4.5156998634338379 50.4472808837890696
 13.5419111251831055 13.5470991134643537 50.4472808837890696
