 H  C  N  I Pb 
 1.0000000000000000
    18.0608005523681641    0.0000000000000000    0.0000000000000000
    -0.0049186488613486   18.0627994537353516    0.0000000000000000
     0.0000000000000000    0.0000000000000000   62.4874992370605469
 H   C   N   I   Pb 
 143  39  47  72  24
Cartesian
  7.7672185897827140  4.7865982055664062 36.4359588623046875
  7.6018924713134766 13.6621999740600586 36.2423019409179688
 16.9300098419189453  5.2916359901428223 36.4185142517089915
 17.1396541595458984 14.5599203109741211 36.3091239929199219
  5.5608277320861808  0.9651980400085449 36.3371658325195312
  5.4769668579101562 10.3241415023803711 36.0319519042968750
 14.0813283920288086  1.2571009397506714 36.3892555236816406
  1.7674617767333984  3.3812651634216309 35.1735839843750000
  1.5551433563232420 12.2533063888549805 35.0807151794433594
 10.7875032424926758  3.4315750598907471 35.1282119750976562
 11.0362854003906250 13.2810163497924805 35.1180000305175781
  6.6201539039611808  0.4946898221969604 35.0182495117187571
  5.1678862571716309 10.9344406127929688 34.4431800842285227
 15.2222108840942383  1.2336698770523071 35.0822906494140625
  1.2786712646484373  4.2151269912719727 36.5781021118164062
  0.3977203369140649 12.4853353500366211 36.3635292053222727
  9.7315988540649396  3.3136897087097168 36.4727554321289062
  9.9933052062988281 12.7301464080810547 36.3539390563964915
  4.5535755157470703  8.0209884643554688 36.5129432678222656
  3.2390978336334229  0.0804575085639954 36.2589874267578196
 12.3415083149448037 17.5437229871749878 36.3591079711914062
  7.5179648399353027  5.7714295387268066 35.0291976928710938
  7.2309784889221191 14.6752347946166974 34.8960075378417969
 16.1545467376708984  4.9264841079711905 34.9258956909179688
 17.4112358093261719 15.6301450729370117 34.9530868530273438
  3.6909513473510742  7.2575912475585938 35.2170219421386719
  2.8273352840915318 17.1616318225860596 34.8750953674316406
 12.4371141651645303 16.3792089223861730 35.0297927856445312
  9.4237785339355451  4.9720940589904785 34.0259017944335938
  9.3680686950683594 14.5034666061401367 34.0098800659179688
 17.8873634338378906  3.7373983860015865 34.0169601440429688
  0.9876956939697273 14.2601470947265625 34.0351257324218750
  4.0067191123962402  9.0373601913452148 33.7595176696777415
  4.9463552692905068 17.3397412896156311 33.9502487182617188
 14.2580322483554482 17.4282954335212743 34.0835685729980469
  7.9042515754699698  5.2352304458618155 42.1679840087890625
  7.8440737724304190 14.8218269348144531 41.9632453918457102
 17.3927151560783386  5.0768346786499023 42.5104980468750000
 16.9435037374496460 14.4210844039916992 42.2558898925781250
  5.4281764030456534  0.8861746191978455 42.2623291015625000
  5.3887987136840820 10.0063161849975586 42.2588844299316477
 14.5114059448242188  0.9729946255683899 42.2042274475097656
 14.6025781631469709 10.0083637237548828 42.1881408691406250
  1.5224866867065430  3.0841734409332275 40.3377151489257884
  1.6304687261581421 12.3919925689697248 40.8300514221191406
 10.4478254318237305  3.1370763778686523 40.5350761413574219
 10.1496124267578125 12.0878553390502930 41.1398735046386719
  3.2821273803710933  7.4699835777282715 40.6523094177246094
  3.0941573837772007 16.6906747817993164 40.5154914855957031
 12.0478515625000000  7.6230549812316895 40.9335975646972727
 12.0289129475131613 16.8102716207504308 40.6706390380859375
  1.2411909103393555  3.3283381462097168 42.0300064086914134
  0.7565143108367920 12.5339756011962891 42.3027877807617188
  9.7101535797119141  3.3364329338073730 42.0909996032714844
  9.5004444122314453 12.8970117568969727 42.5305061340332031
  3.7523601055145264  7.9932737350463867 42.2415084838867259
  3.4922320106998086 17.1874587535858154 42.1306381225586009
 12.7754898071289062  8.0994167327880859 42.4438476562500000
 12.5128216007724404 17.3810969591140783 42.2417068481445312
  7.6281695365905762  6.0410480499267578 40.6566581726074219
  7.6351623535156250 15.1266641616821271 40.2657241821289062
 16.6804980039596558  5.7676639556884766 41.0719337463378906
 16.8415874242782593 15.2513465881347638 40.7657203674316406
  6.0696611404418945  1.3445105552673340 40.7172622680664062
  5.8212547302246094 10.6122131347656250 40.6927909851074219
 15.1510620117187500  1.3277360200881956 40.6231880187988281
 14.7539701461791992 10.5885343551635742 40.5910148620605540
 17.9357386529445648  4.6275434494018555 39.6501159667968750
  0.5025295019149780 14.1237545013427734 39.7614555358886790
  9.2117986679077148  4.8471827507019043 39.5150451660156250
  9.0724515914916992 13.4465084075927734 39.6149826049804688
  4.6908148983493447 18.0382273569703102 39.5057601928710938
  4.5365381240844727  9.1056718826293945 39.5532951354980540
 13.6820654133334738 18.0151398479938507 39.5347290039062571
 13.2092323303222656  9.1471891403198242 39.6858215332031250
  8.1032123565673828  5.4420318603515616 48.0459518432617259
  8.1007528305053711 14.4734306335449219 48.0459518432617259
 17.1336116790771484  5.4420318603515616 48.0459518432617259
 17.1311531066894531 14.4734306335449219 48.0459518432617259
  5.4410333633422852  0.9265221953392029 48.0449485778808594
  5.4385743141174316  9.9579219818115234 48.0449485778808594
 14.4714326858520490  0.9265221953392029 48.0449485778808594
 14.4689741134643555  9.9579219818115234 48.0449485778808594
  1.4218254089355467  3.0919990539550781 46.4558296203613281
  1.4193661212921143 12.1233978271484375 46.4558296203613281
 10.4522256851196289  3.0919990539550781 46.4558296203613281
 10.4497661590576172 12.1233978271484375 46.4558296203613281
  3.0899283885955806  7.6075901985168457 46.4545211791992188
  3.0874691009521484 16.6389904022216797 46.4545211791992188
 12.1203289031982422  7.6075901985168457 46.4545211791992188
 12.1178693771362305 16.6389904022216797 46.4545211791992188
  0.9247469902038573  3.5893490314483643 48.0459518432617259
  0.9222877025604248 12.6207475662231445 48.0459518432617259
  9.9551477432250977  3.5893490314483643 48.0459518432617259
  9.9526882171630859 12.6207475662231445 48.0459518432617259
  3.5868983268737793  8.1048498153686523 48.0448913574218821
  3.5844390392303462 17.1362495422363281 48.0448913574218821
 12.6172990798950195  8.1048498153686523 48.0448913574218821
 12.6148395538330078 17.1362495422363281 48.0448913574218821
  7.6061611175537109  5.9393639564514160 46.4558296203613281
  7.6037015914916992 14.9707632064819336 46.4558296203613281
 16.6365604400634766  5.9393639564514160 46.4558296203613281
 16.6341018676757812 14.9707632064819336 46.4558296203613281
  5.9380125999450684  1.4238001108169553 46.4545211791992188
  5.9355530738830566 10.4551992416381836 46.4545211791992188
 14.9684123992919904  1.4238001108169553 46.4545211791992188
 14.9659538269042951 10.4551992416381836 46.4545211791992188
 -0.0011664569610730  4.5157265663146973 45.3548011779785156
 -0.0036257810425013 13.5471258163452148 45.3548011779785156
  9.0292339324951172  4.5157265663146973 45.3548011779785156
  9.0267744064331037 13.5471258163452148 45.3548011779785156
  4.5152091979980469  0.0000000000000000 45.3536758422851562
  4.5127501487731934  9.0313997268676740 45.3536758422851562
 13.5456094741821289  0.0000000000000000 45.3536758422851562
 13.5431499481201172  9.0313997268676740 45.3536758422851562
 14.0968894958496076  9.1984872817993164 32.5284919738769531
 15.6805629730224609  9.2147541046142578 33.3442459106445312
 13.7194986343383789 11.3789367675781250 33.7520790100097727
 13.8604526519775391 11.3869752883911133 35.4817199707031250
 12.2559661865234375  8.3044967651367188 34.9728546142578125
 12.1893348693847656  9.9930095672607422 35.3730430603027344
 14.5401258468627930  7.7763280868530273 35.7908325195312571
 15.7632436752319336  9.0421028137207031 35.8182754516601634
 15.5299739837646484  6.9863123893737793 33.9476203918457031
 13.7724399566650373  6.8728976249694824 33.7269859313964844
 13.9535779953002930  6.9873604774475098 31.3342590332031286
 15.5693454742431641  7.6360936164855948 31.4125213623046911
 16.0983963012695312 11.2261276245117188 33.3602790832519531
 16.4550018310546875 11.0493335723876953 35.0588989257812500
 15.7136926651000977 12.5506706237792969 34.4117431640625000
 10.7229385375976562  9.5189142227172834 33.5015182495117188
 11.9956693649291992  8.7202577590942383 32.5832138061523509
 12.0999031066894531 10.4870748519897461 32.8811798095703196
 13.1994390487670898  8.6689567565917969 37.4387283325195384
 13.5752048492431641 10.3186435699462891 37.0541267395019531
 14.7534179687500000  9.3813848495483381 37.8964920043945312
 15.0849618911743164  4.8585772514343262 32.4310073852539062
 15.2296504974365217  5.1042299270629874 30.7112083435058594
 16.9358654022216797  3.2466793060302730 31.4580345153808594
 17.6248607635498047  7.4945883750915527 32.1122436523437500
  1.2998981475830069  2.8639659881591797 31.4971065521240270
  1.9179611206054674  7.0893173217773438 32.2280769348144602
  2.8840904235839830  4.7881989479064933 31.9442577362060582
 17.9773845672607422  4.1120557785034180 35.0304946899414062
  0.4813213348388685 13.9554653167724609 34.9617309570312571
  9.1341619491577148  4.5812335014343262 35.0036125183105540
  9.1378717422485352 13.9505691528320312 34.9238471984863281
  4.4095625877380371  9.0952978134155273 34.7713012695312500
  4.7211732128635049 17.8411782979965245 34.8960762023925781
 13.8272032001987100 17.8418574929237366 34.9991340637207031
  0.0763402283191681  4.4287548065185547 40.7048797607421875
  0.2175422012805939 13.8176584243774414 40.7673721313476562
  9.0351400375366211  4.5909891128540039 40.5763359069824219
  8.9140100479125977 13.6034812927246094 40.6745796203613281
  4.5469865798950195  9.0334396362304670 40.6438827514648438
  4.5707892635837197 18.0485848737880588 40.5954055786132812
 13.4067649841308576  9.1123991012573242 40.7589225769042969
 13.5904207229614258  0.0268885418772697 40.6256713867187500
  9.0289716720581055  4.5156092643737793 46.4455223083496165
  9.0265130996704102 13.5470085144042969 46.4455223083496165
 18.0593719482421875  4.5156092643737793 46.4455223083496165
 18.0569133758544922 13.5470085144042969 46.4455223083496165
  4.5152091979980469  0.0000180629995157 46.4442062377929759
  4.5127501487731934  9.0314178466796857 46.4442062377929759
 13.5456094741821289  0.0000180629995157 46.4442062377929759
 13.5431499481201172  9.0314178466796857 46.4442062377929759
 17.0739612579345703  5.4015235900878897 31.7540340423584020
 17.6171321868896484  4.1084260940551758 31.5843296051025426
 17.9500694274902344  6.4662714004516602 31.9554042816162145
  0.9244823455810541  3.8719892501831055 31.6468429565429688
  1.2710819244384757  6.2418479919433585 32.0025711059570384
  1.7992801666259741  4.9398469924926758 31.8534603118896520
 14.6662368774414062  8.8491983413696289 33.3825759887695312
 14.3119554519653320 10.9760208129882812 34.5631294250488281
 12.5265760421752912  9.2847843170166016 34.6134796142578125
 14.6833944320678711  8.8499488830566406 35.8629379272460938
 14.6995162963867188  7.3126430511474609 33.3178596496582031
 14.9071903228759766  6.9051651954650879 31.8764171600341797
 15.7267704010009748 11.4541511535644531 34.3589057922363281
 11.8147020339965820  9.5252847671508789 33.3033370971679688
 14.0216197967529279  9.3428907394409180 37.1184120178222656
 15.5344924926757812  5.4998817443847656 31.6865615844726598
  1.0448570251464870  3.8832557201385498 35.6465187072753977
  0.8345794677734381 12.8038511276245099 35.5032844543457031
  9.9087352752685547  3.6819603443145752 35.5390205383300781
 10.0618743896484375 13.2231922149658185 35.4561462402343821
  8.0558147430419922  5.0805563926696777 35.5361404418945312
  7.9161758422851562 14.1047706604003906 35.3764076232910227
 16.9753417968750000  4.8232507705688468 35.5060844421386719
 17.5996913909912109 14.7551002502441406 35.4264984130859375
  4.1819295883178711  8.0734004974365234 35.5452919006347656
  3.5061916569247842 17.6833786070346832 35.3676948547363281
 12.7746538380160928 17.2298725247383118 35.4750366210937500
  5.6985363960266113  0.4699767529964447 35.4399337768554688
  5.0473384857177734 10.2028141021728516 35.0948638916015625
 14.4442434310913086  0.8166890740394592 35.5274085998535156
  0.9801710844039917  3.5727779865264893 41.0605354309082102
  0.8889222145080566 12.8675651550292969 41.3459854125976562
  9.7650251388549805  3.6462190151214600 41.1150665283203125
  9.5487613677978516 12.8165817260742170 41.4933128356933594
  3.8133790493011475  8.1050186157226562 41.2232589721679688
  3.6555315712466836 17.2561150789260900 41.1225738525390625
 12.6983356475830060  8.2293291091918945 41.4268150329589844
 12.6507543781772256 17.3779447078704870 41.2248649597167969
  8.1303720474243164  5.3289256095886230 41.1926803588867188
  8.0815563201904297 14.5728483200073242 41.0012893676757812
 17.3394193053245580  5.1472902297973633 41.5073966979980469
 17.3024421930313110 14.5222234725952131 41.3008575439453196
  5.4116048812866211  0.7927744984626770 41.2405433654785156
  5.2955865859985352  9.9381217956542969 41.2475700378417969
 14.4765958786010742  0.8183417320251465 41.1980361938476562
 14.2781810760498047  9.9306364059448242 41.2227706909179688
  0.8273094892501831  3.6869695186614990 47.0359649658203125
  0.8248501420021057 12.7183685302734375 47.0359649658203125
  9.8577098846435547  3.6869695186614990 47.0359649658203125
  9.8552503585815412 12.7183685302734375 47.0359649658203125
  3.6843190193176270  8.2023353576660156 47.0346527099609375
  3.6818594932556152 17.2337341308593750 47.0346527099609375
 12.7147188186645508  8.2023353576660156 47.0346527099609375
 12.7122592926025391 17.2337341308593750 47.0346527099609375
  8.2006769180297852  5.3445744514465332 47.0360260009765696
  8.1982173919677734 14.3759746551513672 47.0360260009765696
 17.2310771942138672  5.3445744514465332 47.0360260009765696
 17.2286186218261719 14.3759746551513672 47.0360260009765696
  5.3436489105224600  0.8290914893150328 47.0346527099609375
  5.3411893844604483  9.8604917526245117 47.0346527099609375
 14.3740482330322266  0.8290914893150328 47.0346527099609375
 14.3715896606445312  9.8604917526245117 47.0346527099609375
 14.0585842132568359  9.4545307159423828 34.6199951171875000
  9.0316871860995889 18.0585043691098690 34.5102500915527344
  8.3541173934936523  8.6423387527465820 34.7135505676269531
 17.8620264232158661  0.1756988465785980 34.4433021545410156
  0.5574299097061157  8.8797740936279297 34.9149894714355469
  4.5366024971008301  4.4487466812133789 34.6573867797851634
  4.4130992889404297 13.7791137695312482 34.4776229858398438
 13.3563880920410156  4.1075029373168945 34.6899795532226562
 12.9618692398071289 14.1548089981079102 34.0706787109375000
  0.0798039296641946 18.0226016752421856 40.8616828918457031
 18.0452495049685240  9.1322212219238281 41.0466194152832102
  8.9872574070468545 18.0554800624959171 40.9256706237793040
  8.9541835784912109  8.9766082763671875 40.9223861694335938
  4.5586500167846671  4.4213314056396484 40.9621810913086009
  4.5828652381896964 13.5388784408569336 40.8812751770019531
 13.4349765777587891  4.4399633407592773 40.9246597290039062
 13.6329994201660156 13.7071380615234375 40.8367919921875000
  2.6990118026733398  1.8532060384750364 38.0153884887695312
  2.7344059944152832 10.9645442962646484 38.0119094848632812
 11.5985393524169922  1.9263989925384521 38.0667343139648438
 11.0558700561523438 11.5366153717041016 38.4375648498535156
  6.5273127555847168  7.0197048187255859 38.2563400268554688
  6.5291414260864249 16.1316661834716797 38.0043296813964844
 16.0222148895263672  6.5951042175292969 38.4635391235351562
 15.5114450454711914 16.1585865020751953 37.9274063110351562
  2.0718016624450684  6.4374413490295401 38.1277389526367259
  1.9849776029586792 15.6376962661743164 37.9367866516113281
 11.1389427185058576  6.6306767463684073 37.9503250122070312
 11.0749483108520508 15.6413850784301758 38.1367416381835938
  7.1662960052490225  2.5785105228424072 38.0978927612304688
  6.9751296043395996 11.6310844421386719 37.8995590209961009
 16.0243797302246094  2.4473066329956055 38.2410469055175852
 16.5046195983886719 12.0064992904663068 38.3916091918945312
  0.0000000000000000  0.0000000000000000 47.1735610961914062
 -0.0024593239650130  9.0313997268676740 47.1735610961914062
  9.0304002761840803  0.0000000000000000 47.1735610961914062
  9.0279407501220685  9.0313997268676740 47.1735610961914062
  4.5139794349670410  4.5156998634338379 47.1742515563964844
  4.5115203857421875 13.5470991134643537 47.1742515563964844
 13.5443792343139648  4.5156998634338379 47.1742515563964844
 13.5419197082519531 13.5470991134643537 47.1742515563964844
  2.4519233703613277  2.0629522800445557 44.0401268005371165
  2.4494640827178955 11.0943517684936523 44.0401268005371165
 11.4823226928710920  2.0629522800445557 44.0401268005371165
 11.4798641204833984 11.0943517684936523 44.0401268005371165
  6.5760178565979004  6.9684472084045410 44.0401268005371165
  6.5735583305358887 15.9998464584350586 44.0401268005371165
 15.6064186096191406  6.9684472084045410 44.0401268005371165
 15.6039590835571289 15.9998464584350586 44.0401268005371165
  2.0610768795013428  6.5788145065307617 44.0400009155273509
  2.0586175918579102 15.6102142333984375 44.0400009155273509
 11.0914773941040039  6.5788145065307617 44.0400009155273509
 11.0890178680419922 15.6102142333984375 44.0400009155273509
  6.9668641090393066  2.4525938034057613 44.0400657653808665
  6.9644045829772949 11.4839935302734375 44.0400657653808665
 15.9972639083862305  2.4525938034057613 44.0400657653808665
 15.9948053359985352 11.4839935302734375 44.0400657653808665
  2.4316265583038330  2.0832188129425049 50.0684852600097656
  2.4291670322418213 11.1146183013915998 50.0684852600097656
 11.4620265960693359  2.0832188129425049 50.0684852600097656
 11.4595670700073224 11.1146183013915998 50.0684852600097656
  6.5963144302368164  6.9481806755065918 50.0684852600097656
  6.5938549041748047 15.9795799255371076 50.0684852600097656
 15.6267137527465803  6.9481806755065918 50.0684852600097656
 15.6242542266845703 15.9795799255371076 50.0684852600097656
  2.0811281204223633  6.5990090370178223 50.0690460205078125
  2.0786688327789307 15.6304082870483398 50.0690460205078125
 11.1115283966064453  6.5990090370178223 50.0690460205078125
 11.1090688705444336 15.6304082870483398 50.0690460205078125
  6.9468131065368652  2.4323906898498531 50.0690460205078125
  6.9443535804748535 11.4637899398803711 50.0690460205078125
 15.9772129058837891  2.4323906898498531 50.0690460205078125
 15.9747543334960938 11.4637899398803711 50.0690460205078125
 18.0283304452896118  0.0713325738906860 37.6588058471679759
  0.1667304337024689  9.1292963027954084 37.9692153930664134
  9.0458492496982199 18.0156299173831940 37.6530914306640625
  8.9640264511108398  9.0082855224609375 37.7360458374023509
  4.5723171234130859  4.4903464317321777 37.7729759216308594
  4.4595165252685547 13.6415472030639631 37.6614341735839915
 13.5494565963745117  4.5085997581481934 37.8079299926757812
 13.5406923294067383 13.6420192718505859 37.7765388488769531
  0.0000090280000222  0.0000090310004452 44.0429992675781250
 -0.0024502959568053  9.0314083099365234 44.0429992675781250
  9.0304088592529297  0.0000090310004452 44.0429992675781250
  9.0279493331909180  9.0314083099365234 44.0429992675781250
  4.5139703750610352  4.5156903266906738 44.0427513122558594
  4.5115113258361816 13.5470905303955078 44.0427513122558594
 13.5443706512451172  4.5156903266906738 44.0427513122558594
 13.5419111251831037 13.5470905303955078 44.0427513122558594
  0.0000000000000000  0.0000000000000000 50.4472808837890696
 -0.0024593239650130  9.0313997268676740 50.4472808837890696
  9.0304002761840803  0.0000000000000000 50.4472808837890696
  9.0279407501220685  9.0313997268676740 50.4472808837890696
  4.5139703750610352  4.5156998634338379 50.4472808837890696
  4.5115113258361816 13.5470991134643537 50.4472808837890696
 13.5443706512451172  4.5156998634338379 50.4472808837890696
 13.5419111251831055 13.5470991134643537 50.4472808837890696
