 H  C  N  I Pb 
 1.0000000000000000
    18.0608005523681641    0.0000000000000000    0.0000000000000000
    -0.0049186488613486   18.0627994537353516    0.0000000000000000
     0.0000000000000000    0.0000000000000000   62.4874992370605469
 H   C   N   I   Pb 
 143  39  47  72  24
Cartesian
  8.2447147369384766  5.8409142494201660 36.0360679626464844
  8.1207561492919922 15.2670774459838849 35.9051208496093821
 16.6789913177490234  4.4664621353149414 36.3081665039062571
 17.1180343627929688 14.5616083145141602 36.3289451599121165
  5.4126310348510742  1.1053078174591064 36.0586204528808594
  5.7022371292114258 10.2228403091430646 36.1327476501464844
 14.3590288162231428  1.3604458570480347 36.2298316955566406
  1.9528751373291005  4.2470607757568359 34.8922767639160156
  1.7097225189208987 12.2735519409179688 35.3206710815429688
 10.2827768325805646  3.1154839992523189 34.7545547485351562
  8.9943485260009766 11.7768821716308594 35.3811683654785156
  6.5203933715820304  0.2333046793937683 35.0250320434570312
  4.9998388290405273 11.2353734970092756 34.8885612487793040
 15.7033376693725568  0.5892423987388611 35.4058303833007884
  1.1148319244384792  4.1154961585998535 36.4166259765625000
  0.4966907501220714 12.4991264343261701 36.5578155517578125
 10.3228683471679670  4.5265784263610840 35.8218040466308665
  8.5142326354980469 12.8705377578735352 36.6323356628417969
  4.9033927917480469  7.8751907348632812 36.2457923889160156
  3.0088624954223633  0.5245816707611084 35.8372421264648438
 12.1824560165405273  0.2506735324859619 36.0961036682128906
  6.8378229141235352  5.2378501892089844 35.1351242065429688
  8.7061529159545898 15.6748228073120117 34.3298988342285156
 15.9076938629150373  4.5135674476623535 34.7613830566406250
 17.6022071838378906 15.6721353530883789 35.0797462463378906
  3.6277358531951904  7.4204092025756836 35.1292457580566406
  2.5593432644382119 17.4215441346168518 34.6119194030761719
 12.1387895802035928 16.7760556936264038 35.1945762634277344
  8.0149612426757812  3.4730553627014160 34.1678619384765696
  9.3050537109375000 13.4341535568237305 33.8068313598632812
 18.0065059661865234  4.4866938591003418 33.6697006225585938
  1.1611232757568359 14.2802553176879883 34.2351150512695384
  3.5815272331237793  9.5410881042480469 34.1227455139160156
  4.8134979465976349 17.0907925367355347 33.9751091003417969
 14.3173727253451926 16.8690292835235596 34.6253318786621094
  8.3517732620239258  5.6003618240356436 42.2199592590332031
  7.7816615104675284 14.6336011886596680 42.0432357788085938
 17.3214704990386998  5.0420732498168945 42.4385375976562500
 16.7791675329208410 14.0844993591308594 42.1335220336914062
  5.4971518516540527  1.0140476226806641 42.1221618652343750
  5.3340063095092773  9.7412433624267578 42.3571205139160156
 14.2693662643432617  0.9268022179603577 42.2730216979980540
 15.2892618179321289  9.0975904464721680 41.7460403442382812
  1.5931090116500854  3.1879909038543701 40.3135337829589844
  1.7260944843292236 12.4777965545654297 40.8350944519042969
 10.3791074752807617  3.0069835186004639 40.5926170349121094
 10.3903570175170898 12.2687730789184570 40.9669265747070312
  3.1377868652343750  7.5289516448974600 40.4029846191406321
  3.1728922585025430 16.6597501039505005 40.6149406433105469
 11.7171697616577131  8.6027688980102539 41.1342773437500000
 12.1350282886996865 16.5783601999282837 40.4889030456542969
  1.1940282583236694  3.3167607784271240 41.9972496032714844
  0.6818449497222900 12.4190397262573242 42.2111549377441406
 10.2202081680297852  3.7945840358734131 42.1308479309082031
  9.6394901275634766 12.8323268890380842 42.4215164184570312
  3.5611681938171387  7.8399095535278311 42.0589141845703125
  3.6273586014285684 17.2423921823501587 42.1757125854492259
 13.0094137191772461  8.0025787353515625 42.1417427062988281
 12.4793657520785928 17.0905011296272278 42.1082496643066406
  7.5009241104125977  5.7988104820251465 40.7191848754882884
  7.5549192428588867 15.0329284667968750 40.3585929870605469
 16.7023262977600098  5.7949914932250968 41.0186386108398509
 16.7393140792846680 15.0836582183837891 40.6904373168945312
  6.0101327896118155  1.4149544239044189 40.5136604309082031
  5.8457989692687988 10.4761829376220685 40.8588104248046875
 14.9269247055053711  1.3812762498855591 40.7318649291992188
 15.3836345672607422 10.1686191558837873 40.3555526733398509
  0.0294854342937469  4.7361664772033691 39.5934906005859375
  0.5776658654212951 14.1342926025390607 39.7844581604003906
  8.6791095733642578  4.2052016258239746 39.5819892883300852
  9.1814622879028320 13.5908031463623047 39.5754661560058594
  4.5702733257785439 17.9903083071112633 39.4553604125976562
  4.5267767906188965  9.1626844406127912 39.5393333435058665
 13.6181387165561318 17.9825491905212402 39.5033073425292969
 13.0881071090698242  9.9686155319213867 39.8865165710449219
  8.1032123565673828  5.4420318603515616 48.0459518432617259
  8.1007528305053711 14.4734306335449219 48.0459518432617259
 17.1336116790771484  5.4420318603515616 48.0459518432617259
 17.1311531066894531 14.4734306335449219 48.0459518432617259
  5.4410333633422852  0.9265221953392029 48.0449485778808594
  5.4385743141174316  9.9579219818115234 48.0449485778808594
 14.4714326858520490  0.9265221953392029 48.0449485778808594
 14.4689741134643555  9.9579219818115234 48.0449485778808594
  1.4218254089355467  3.0919990539550781 46.4558296203613281
  1.4193661212921143 12.1233978271484375 46.4558296203613281
 10.4522256851196289  3.0919990539550781 46.4558296203613281
 10.4497661590576172 12.1233978271484375 46.4558296203613281
  3.0899283885955806  7.6075901985168457 46.4545211791992188
  3.0874691009521484 16.6389904022216797 46.4545211791992188
 12.1203289031982422  7.6075901985168457 46.4545211791992188
 12.1178693771362305 16.6389904022216797 46.4545211791992188
  0.9247469902038573  3.5893490314483643 48.0459518432617259
  0.9222877025604248 12.6207475662231445 48.0459518432617259
  9.9551477432250977  3.5893490314483643 48.0459518432617259
  9.9526882171630859 12.6207475662231445 48.0459518432617259
  3.5868983268737793  8.1048498153686523 48.0448913574218821
  3.5844390392303462 17.1362495422363281 48.0448913574218821
 12.6172990798950195  8.1048498153686523 48.0448913574218821
 12.6148395538330078 17.1362495422363281 48.0448913574218821
  7.6061611175537109  5.9393639564514160 46.4558296203613281
  7.6037015914916992 14.9707632064819336 46.4558296203613281
 16.6365604400634766  5.9393639564514160 46.4558296203613281
 16.6341018676757812 14.9707632064819336 46.4558296203613281
  5.9380125999450684  1.4238001108169553 46.4545211791992188
  5.9355530738830566 10.4551992416381836 46.4545211791992188
 14.9684123992919904  1.4238001108169553 46.4545211791992188
 14.9659538269042951 10.4551992416381836 46.4545211791992188
 -0.0011664569610730  4.5157265663146973 45.3548011779785156
 -0.0036257810425013 13.5471258163452148 45.3548011779785156
  9.0292339324951172  4.5157265663146973 45.3548011779785156
  9.0267744064331037 13.5471258163452148 45.3548011779785156
  4.5152091979980469  0.0000000000000000 45.3536758422851562
  4.5127501487731934  9.0313997268676740 45.3536758422851562
 13.5456094741821289  0.0000000000000000 45.3536758422851562
 13.5431499481201172  9.0313997268676740 45.3536758422851562
 12.9521579742431623  7.9206585884094238 33.8689193725585938
 13.3002977371215820  8.9781122207641602 32.5263633728027344
 11.8031425476074219  9.9288501739501953 35.0953330993652344
 12.6618995666503906 11.4764394760131818 34.9856529235839844
 15.2162189483642578  9.1147460937500000 35.7889289855957031
 14.0499963760375959 10.2826251983642578 36.3996772766113352
 15.6230964660644531 10.0727834701538086 33.3678970336914062
 14.3122043609619141 11.2687358856201172 32.9830894470214915
 15.6523714065551758  8.4439268112182617 32.4626731872558594
 15.6019849777221680  7.7680115699768066 34.0707473754882884
 15.7966842651367188  6.0117278099060050 32.4674453735351562
 14.2005720138549805  5.8513808250427246 33.1949844360351562
 11.4906930923461914  9.8984069824218732 32.5783729553222656
 12.4772510528564453 11.4068670272827148 32.4450454711914062
 10.9352540969848633 11.4293451309204102 33.2945976257324219
 13.6027984619140625  8.0868911743164062 37.4213485717773509
 13.4134721755981445  7.3013172149658194 35.8399810791015625
 12.2535696029663086  8.5219087600708008 36.3931694030761719
 14.9248313903808594 12.3717393875122070 35.2541275024414134
 16.0987663269042969 12.4156932830810529 33.9578628540039062
 16.3601932525634766 11.2472381591796875 35.3001632690429688
 14.8089895248413086  7.0594639778137207 30.4430561065673864
 14.1835918426513654  5.4182910919189453 30.7451248168945312
 11.9674816131591779  5.7842202186584473 32.6659469604492188
 13.2490501403808594  8.3597049713134766 29.4621658325195348
  9.7179317474365234  6.8132977485656738 32.5747451782226634
 10.9977407455444336  9.3989524841308594 29.3725986480712926
  9.1923789978027344  8.6196250915527344 30.9163856506347656
 17.9620189666748047  4.4128656387329102 34.7574882507324219
  0.5888690948486340 13.9657964706420898 35.1172523498535227
  8.5323705673217773  4.1510610580444336 34.8516998291015696
  8.9239425659179688 13.7168703079223615 34.8095550537109375
  4.2861986160278320  9.3250875473022461 34.9414176940917969
  4.5630883434787393 17.8257986903190613 34.7543334960937500
 13.9069093922153115 17.6956309080123901 35.2298927307128977
  0.1120813190937042  4.4983439445495605 40.6378364562988281
  0.2084240019321442 13.7897539138793945 40.7387275695800781
  8.9353857040405273  4.4074535369873047 40.6135787963867188
  8.9704074859619141 13.6633358001708984 40.6324501037597727
  4.4937691688537598  9.0112972259521484 40.6059722900390696
  4.6043953895568848  0.0136430291458964 40.5327301025390625
 13.5453004837036133  9.3869428634643555 40.6851730346679759
 13.5413507679477334 18.0210589878261089 40.5799102783203125
  9.0289716720581055  4.5156092643737793 46.4455223083496165
  9.0265130996704102 13.5470085144042969 46.4455223083496165
 18.0593719482421875  4.5156092643737793 46.4455223083496165
 18.0569133758544922 13.5470085144042969 46.4455223083496165
  4.5152091979980469  0.0000180629995157 46.4442062377929759
  4.5127501487731934  9.0314178466796857 46.4442062377929759
 13.5456094741821289  0.0000180629995157 46.4442062377929759
 13.5431499481201172  9.0314178466796857 46.4442062377929759
 12.7698640823364258  7.0124373435974121 31.0772972106933594
 11.7347888946533203  6.5629982948303223 31.9317893981933629
 12.4596433639526367  8.0199937820434570 30.1577510833740234
 10.4787282943725586  7.1435790061950675 31.8766555786132812
 11.1837596893310547  8.5895977020263672 30.0951690673828125
 10.2084131240844727  8.1518478393554688 30.9506320953369176
 13.7110166549682617  8.5782222747802734 33.4367332458496165
 12.4639291763305664 10.5225353240966779 34.4546165466308594
 14.1539382934570312  9.3696212768554688 35.7973709106445312
 14.8549432754516584 10.7337255477905273 33.7843589782714844
 15.0127773284912109  7.8699536323547363 33.1459083557128977
 14.8040037155151367  6.4863429069519043 32.5323066711425781
 11.8222799301147461 10.8057537078857422 33.1022453308105469
 13.3024473190307617  8.2547607421875000 36.3776741027832031
 15.5905170440673810 11.7312870025634766 34.6644096374511719
 14.1785297393798828  6.4589219093322754 31.1453952789306676
  1.0317802429199245  4.2206010818481445 35.3961715698242188
  0.9498863220214843 12.8477668762207031 35.6992988586425781
  9.7912349700927734  3.9096343517303467 35.1652107238769531
  8.8798685073852539 12.7461633682250959 35.6905593872070312
  7.8494219779968253  5.1913533210754386 35.3178215026855469
  8.5720481872558594 14.9496049880981445 35.0123100280761719
 16.7832012176513672  4.5180821418762207 35.2959251403808665
 17.6567649841308594 14.7310552597045898 35.5002670288085938
  4.2708096504211426  8.1256504058837891 35.4762420654296875
  3.2982491711154580 17.9407480731606483 35.1053123474121094
 12.6266397694125772 17.6369200944900513 35.4744377136230469
  5.5449409484863272  0.4351052045822143 35.3014450073242188
  5.0741577148437500 10.3022060394287109 35.3385314941406321
 14.6967220306396484  0.5951231718063354 35.6661415100097656
  1.0249135494232178  3.6147527694702148 41.0281257629394531
  0.9156087636947632 12.8224105834960938 41.3117637634277344
  9.9162473678588867  3.6917855739593501 41.1624412536621094
  9.7080984115600568 12.8808317184448224 41.3948211669921946
  3.6982927322387695  8.0743818283081055 41.0566291809082031
  3.7457920769229531 17.2738240957260132 41.1517333984375000
 12.7300767898559553  8.5836963653564453 41.3409690856933594
 12.6637949207797647 17.1758795380592346 41.0919914245605469
  8.2352638244628906  5.3154044151306143 41.2231979370117188
  8.0622577667236328 14.4845075607299805 41.0465316772460938
 17.3494029045104980  5.1380653381347656 41.4348564147949219
 17.1999406814575195 14.3542461395263672 41.2461471557617188
  5.4055190086364746  0.8524898290634155 41.0957031250000071
  5.2628803253173828  9.7682819366455078 41.3282012939453125
 14.2759609222412109  0.7947885394096375 41.2418403625488281
 14.8072118759155273  9.5457000732421875 40.9436645507812571
  0.8273094892501831  3.6869695186614990 47.0359649658203125
  0.8248501420021057 12.7183685302734375 47.0359649658203125
  9.8577098846435547  3.6869695186614990 47.0359649658203125
  9.8552503585815412 12.7183685302734375 47.0359649658203125
  3.6843190193176270  8.2023353576660156 47.0346527099609375
  3.6818594932556152 17.2337341308593750 47.0346527099609375
 12.7147188186645508  8.2023353576660156 47.0346527099609375
 12.7122592926025391 17.2337341308593750 47.0346527099609375
  8.2006769180297852  5.3445744514465332 47.0360260009765696
  8.1982173919677734 14.3759746551513672 47.0360260009765696
 17.2310771942138672  5.3445744514465332 47.0360260009765696
 17.2286186218261719 14.3759746551513672 47.0360260009765696
  5.3436489105224600  0.8290914893150328 47.0346527099609375
  5.3411893844604483  9.8604917526245117 47.0346527099609375
 14.3740482330322266  0.8290914893150328 47.0346527099609375
 14.3715896606445312  9.8604917526245117 47.0346527099609375
 13.8118114471435547  9.7858572006225586 34.3848114013671875
  9.0498456954956055  0.3165149092674255 34.5258789062500071
  8.7104644775390625  9.3059415817260742 34.7204170227050781
 17.9533250778913533  0.0730713903903961 34.5235366821289134
  0.6258781552314758  9.1142930984497070 34.5847892761230469
  4.4389982223510742  4.4495983123779297 34.5247497558593750
  4.5380334854125977 13.7804775238037109 34.5051574707031250
 13.4407224655151367  3.8494293689727783 34.8206748962402344
 12.7715930938720685 14.2908077239990217 34.2956314086914062
  0.1243795910850167 18.0294318683445454 40.9280319213867188
  0.2255600243806839  8.8538579940795898 40.9549446105957031
  9.0445232391357422  0.0676159188151360 40.9045562744140696
  9.1465120315551758  8.9083957672119141 40.9649658203125071
  4.5840716361999512  4.4262824058532715 40.9099044799804759
  4.4776892662048340 13.6331310272216779 40.9071006774902344
 13.4410018920898438  4.6351714134216309 40.9870681762695312
 13.5090923309326172 13.5551042556762695 40.8213691711425781
  2.5478041172027588  2.0020339488983154 37.9366722106933665
  2.5872457027435303 11.0400295257568359 38.1901206970214844
 11.6641387939453107  1.9546084403991699 38.0981559753417969
 11.2164449691772461 11.3557920455932617 38.4114494323730469
  6.4647774696350098  7.1182718276977530 38.1617012023925781
  6.6872849464416504 15.9808731079101562 37.9700126647949219
 15.9738254547119141  6.6926422119140616 38.3263816833496094
 15.6191692352294922 15.9487028121948242 38.1275711059570312
  2.0679631233215332  6.4500579833984375 38.0727844238281250
  2.2020819187164307 15.8178167343139631 38.0538177490234375
 10.5980367660522461  6.1828699111938477 37.8333320617675781
 11.0500602722167969 15.5838117599487305 38.1525306701660156
  6.9471306800842276  2.4049873352050781 37.9768180847167969
  6.8750133514404288 11.4505510330200195 38.3367118835449219
 16.0585479736328125  2.5659804344177242 38.3337249755859375
 16.4898452758789062 11.7659273147583008 38.5710906982421875
  0.0000000000000000  0.0000000000000000 47.1735610961914062
 -0.0024593239650130  9.0313997268676740 47.1735610961914062
  9.0304002761840803  0.0000000000000000 47.1735610961914062
  9.0279407501220685  9.0313997268676740 47.1735610961914062
  4.5139794349670410  4.5156998634338379 47.1742515563964844
  4.5115203857421875 13.5470991134643537 47.1742515563964844
 13.5443792343139648  4.5156998634338379 47.1742515563964844
 13.5419197082519531 13.5470991134643537 47.1742515563964844
  2.4519233703613277  2.0629522800445557 44.0401268005371165
  2.4494640827178955 11.0943517684936523 44.0401268005371165
 11.4823226928710920  2.0629522800445557 44.0401268005371165
 11.4798641204833984 11.0943517684936523 44.0401268005371165
  6.5760178565979004  6.9684472084045410 44.0401268005371165
  6.5735583305358887 15.9998464584350586 44.0401268005371165
 15.6064186096191406  6.9684472084045410 44.0401268005371165
 15.6039590835571289 15.9998464584350586 44.0401268005371165
  2.0610768795013428  6.5788145065307617 44.0400009155273509
  2.0586175918579102 15.6102142333984375 44.0400009155273509
 11.0914773941040039  6.5788145065307617 44.0400009155273509
 11.0890178680419922 15.6102142333984375 44.0400009155273509
  6.9668641090393066  2.4525938034057613 44.0400657653808665
  6.9644045829772949 11.4839935302734375 44.0400657653808665
 15.9972639083862305  2.4525938034057613 44.0400657653808665
 15.9948053359985352 11.4839935302734375 44.0400657653808665
  2.4316265583038330  2.0832188129425049 50.0684852600097656
  2.4291670322418213 11.1146183013915998 50.0684852600097656
 11.4620265960693359  2.0832188129425049 50.0684852600097656
 11.4595670700073224 11.1146183013915998 50.0684852600097656
  6.5963144302368164  6.9481806755065918 50.0684852600097656
  6.5938549041748047 15.9795799255371076 50.0684852600097656
 15.6267137527465803  6.9481806755065918 50.0684852600097656
 15.6242542266845703 15.9795799255371076 50.0684852600097656
  2.0811281204223633  6.5990090370178223 50.0690460205078125
  2.0786688327789307 15.6304082870483398 50.0690460205078125
 11.1115283966064453  6.5990090370178223 50.0690460205078125
 11.1090688705444336 15.6304082870483398 50.0690460205078125
  6.9468131065368652  2.4323906898498531 50.0690460205078125
  6.9443535804748535 11.4637899398803711 50.0690460205078125
 15.9772129058837891  2.4323906898498531 50.0690460205078125
 15.9747543334960938 11.4637899398803711 50.0690460205078125
 17.9462176784873009  0.0928210169076920 37.8491783142089915
  0.1076855659484863  9.1518135070800781 37.7571411132812571
  9.0960073471069336  0.1371507942676544 37.7628097534179759
  9.0034761428833008  9.0846538543701172 37.7918090820312500
  4.4901895523071289  4.5722451210021973 37.7828292846679759
  4.4528207778930664 13.6667804718017578 37.7306785583496165
 13.4738798141479492  4.6891078948974609 37.8827133178710938
 13.3473215103149396 13.6669387817382812 37.6206893920898438
  0.0000090280000222  0.0000090310004452 44.0429992675781250
 -0.0024502959568053  9.0314083099365234 44.0429992675781250
  9.0304088592529297  0.0000090310004452 44.0429992675781250
  9.0279493331909180  9.0314083099365234 44.0429992675781250
  4.5139703750610352  4.5156903266906738 44.0427513122558594
  4.5115113258361816 13.5470905303955078 44.0427513122558594
 13.5443706512451172  4.5156903266906738 44.0427513122558594
 13.5419111251831037 13.5470905303955078 44.0427513122558594
  0.0000000000000000  0.0000000000000000 50.4472808837890696
 -0.0024593239650130  9.0313997268676740 50.4472808837890696
  9.0304002761840803  0.0000000000000000 50.4472808837890696
  9.0279407501220685  9.0313997268676740 50.4472808837890696
  4.5139703750610352  4.5156998634338379 50.4472808837890696
  4.5115113258361816 13.5470991134643537 50.4472808837890696
 13.5443706512451172  4.5156998634338379 50.4472808837890696
 13.5419111251831055 13.5470991134643537 50.4472808837890696
