 H  C  N  I Pb 
 1.0000000000000000
    18.0608005523681641    0.0000000000000000    0.0000000000000000
    -0.0049186488613486   18.0627994537353516    0.0000000000000000
     0.0000000000000000    0.0000000000000000   62.4874992370605469
 H   C   N   I   Pb 
 143  39  47  72  24
Cartesian
  8.1894216537475586  5.4835920333862305 36.2975769042968821
  8.0534296035766602 14.5102987289428711 36.3652153015136719
 17.2260456085205078  5.2926888465881348 36.4716949462890625
 17.2751731872558594 14.4957170486450195 36.4728240966796875
  5.5007467269897452  0.9319128990173339 36.2452545166015625
  5.4980254173278809  9.8335809707641602 36.3582878112792969
 14.4077606201171875  0.9255604147911072 36.2984886169433594
  1.5272293090820337  3.0871901512145996 34.7761764526367188
  1.4380016326904321 12.0926094055175781 34.7755088806152344
 10.5601301193237305  3.1867108345031738 34.8013076782226562
 10.3694295883178711 12.0709733963012695 34.9496574401855469
  6.0275998115539551  1.4288349151611326 34.6561737060546875
  6.0286870002746573 10.4238328933715820 34.8027534484863281
 14.9981918334960920  1.4560109376907349 34.7429504394531321
  0.9641628265380879  3.6093409061431885 36.3069343566894531
  0.9689502716064491 12.6439313888549805 36.3644104003906250
 10.0551195144653320  3.7404394149780273 36.2970504760742188
  9.8098678588867188 12.7184486389160156 36.4715766906738281
  3.6545381546020503  8.0974321365356445 36.3581352233886719
  3.6555625656619664 17.2584609389305115 36.3525276184082102
 12.6667856434360147 17.1447867155075073 36.2983894348144531
  7.5390548706054688  5.8832249641418457 34.8057937622070312
  7.5841522216796875 15.0617303848266602 34.7761116027832031
 16.6301689147949219  5.8456053733825684 34.9477920532226562
 16.7135238647460938 15.0833692550659180 34.9489250183105469
  3.0333817005157471  7.6033749580383301 34.8026580810546875
  3.0326105812564492 16.6710166931152344 34.8305931091308594
 12.1724886158481240 16.5238147974014282 34.7429161071777344
  9.0451602935791016  4.5302238464355460 33.6495513916015625
  9.0130290985107422 13.5588502883911133 33.6498413085937500
  0.0108947753906250  4.5016789436340332 33.6498413085937500
  0.0092124938964877 13.5954771041870117 33.6491699218750071
  4.4702086448669434  9.0782365798950178 33.7122497558593750
  4.5296640396118164  0.0158054865896702 33.6493263244628977
 13.5875267246738058 17.9586443454027211 33.6506767272949219
  8.0407657623291016  5.4344849586486816 42.1865997314453125
  8.1071157455444336 14.4633665084838867 42.1845703125000000
 17.1280404329299927  5.5043845176696768 42.0733528137207031
 17.1361976861953735 14.4752416610717773 42.1883964538574219
  5.4448184967041016  0.9909980297088623 42.1283988952636719
  5.4313826560974121  9.9649066925048828 42.1856842041015696
 14.5344839096069336  0.9911748170852661 42.1286239624023438
 14.4702005386352539  9.8914642333984375 42.1854782104492259
  1.3295782804489136  3.0981767177581787 40.6293182373046946
  1.3069343566894531 12.0699567794799805 40.6052360534667969
 10.5063896179199201  3.2051546573638916 40.6052017211914062
 10.3918743133544922 12.0332832336425781 40.3987007141113281
  3.0580127239227295  7.6377358436584464 40.6042022705078125
  3.1196991661563511 16.5857782363891602 40.6878280639648438
 12.0030574798583984  7.6639127731323242 40.5439949035644531
 12.0655464390292764 16.7295246124267578 40.6880531311035227
  0.8585797548294067  3.5994281768798828 42.1844177246093821
  0.8682194948196411 12.5684394836425781 42.1285247802734375
 10.0063848495483381  3.6422667503356934 42.1884613037109375
  9.8984584808349609 12.5584058761596662 42.0736351013183594
  3.4643027782440186  8.1124620437622070 42.1856460571289062
  3.5908741215243936 17.0868364572525060 42.2429313659668040
 12.5667686462402344  8.1571130752563477 42.1871871948242259
 12.5659202793613058 17.2014274597167969 42.2431564331054688
  7.6346840858459473  5.9093866348266602 40.6052360534667969
  7.6361627578735352 14.9645872116088849 40.6295318603515625
 16.6346665620803833  6.0294818878173828 40.3984832763671875
 16.6633523702621460 14.9415216445922852 40.6052017211914062
  5.8239855766296378  1.3943307399749756 40.5206031799316406
  5.9297156333923340 10.3419075012207031 40.6042327880859446
 14.9388990402221680  1.4309929609298706 40.5190315246582102
 14.9983625411987305 10.4843702316284180 40.5440902709960938
 18.0439080670475960  4.5305013656616202 39.4345893859863352
 17.9504085928201675 13.4444074630737305 39.4977378845214844
  9.1318387985229492  4.6224608421325684 39.4977378845214844
  8.9825992584228516 13.5323276519775391 39.4348106384277415
  4.4062113026157022 18.0162695869803429 39.4950332641601634
  4.5551829338073730  8.9246931076049805 39.4968338012695312
 13.4404401779174805  0.0174979642033577 39.4952583312988281
 13.4411373138427734  9.1374711990356445 39.4966011047363352
  8.1032123565673828  5.4420318603515616 48.0459518432617259
  8.1007528305053711 14.4734306335449219 48.0459518432617259
 17.1336116790771484  5.4420318603515616 48.0459518432617259
 17.1311531066894531 14.4734306335449219 48.0459518432617259
  5.4410333633422852  0.9265221953392029 48.0449485778808594
  5.4385743141174316  9.9579219818115234 48.0449485778808594
 14.4714326858520490  0.9265221953392029 48.0449485778808594
 14.4689741134643555  9.9579219818115234 48.0449485778808594
  1.4218254089355467  3.0919990539550781 46.4558296203613281
  1.4193661212921143 12.1233978271484375 46.4558296203613281
 10.4522256851196289  3.0919990539550781 46.4558296203613281
 10.4497661590576172 12.1233978271484375 46.4558296203613281
  3.0899283885955806  7.6075901985168457 46.4545211791992188
  3.0874691009521484 16.6389904022216797 46.4545211791992188
 12.1203289031982422  7.6075901985168457 46.4545211791992188
 12.1178693771362305 16.6389904022216797 46.4545211791992188
  0.9247469902038573  3.5893490314483643 48.0459518432617259
  0.9222877025604248 12.6207475662231445 48.0459518432617259
  9.9551477432250977  3.5893490314483643 48.0459518432617259
  9.9526882171630859 12.6207475662231445 48.0459518432617259
  3.5868983268737793  8.1048498153686523 48.0448913574218821
  3.5844390392303462 17.1362495422363281 48.0448913574218821
 12.6172990798950195  8.1048498153686523 48.0448913574218821
 12.6148395538330078 17.1362495422363281 48.0448913574218821
  7.6061611175537109  5.9393639564514160 46.4558296203613281
  7.6037015914916992 14.9707632064819336 46.4558296203613281
 16.6365604400634766  5.9393639564514160 46.4558296203613281
 16.6341018676757812 14.9707632064819336 46.4558296203613281
  5.9380125999450684  1.4238001108169553 46.4545211791992188
  5.9355530738830566 10.4551992416381836 46.4545211791992188
 14.9684123992919904  1.4238001108169553 46.4545211791992188
 14.9659538269042951 10.4551992416381836 46.4545211791992188
 -0.0011664569610730  4.5157265663146973 45.3548011779785156
 -0.0036257810425013 13.5471258163452148 45.3548011779785156
  9.0292339324951172  4.5157265663146973 45.3548011779785156
  9.0267744064331037 13.5471258163452148 45.3548011779785156
  4.5152091979980469  0.0000000000000000 45.3536758422851562
  4.5127501487731934  9.0313997268676740 45.3536758422851562
 13.5456094741821289  0.0000000000000000 45.3536758422851562
 13.5431499481201172  9.0313997268676740 45.3536758422851562
 13.1745758056640607  8.4545269012451172 34.5035858154296875
 13.5782718658447266  9.3943033218383789 33.0877342224121094
 11.9530553817749006 10.1935453414916992 35.4960289001464844
 12.7049522399902344 11.7244005203247070 35.6748657226562571
 15.3454132080078125  9.6527376174926758 36.5229568481445384
 13.9416007995605469 10.6799840927124023 36.9881553649902415
 15.9945726394653320 10.5571088790893555 34.2793807983398438
 14.6990594863891602 11.6354532241821289 33.6022911071777344
 15.8753995895385742  9.0142965316772461 33.2749557495117188
 15.7083969116210938  8.3478651046752930 34.8491172790527344
 16.2289905548095703  6.5524010658264151 33.3771095275878906
 14.6079063415527326  6.5424017906188965 34.0480880737304688
 11.5773057937622070 10.3400125503540039 33.2671127319336009
 12.8660116195678711 11.5147953033447266 32.9436950683593821
 11.4073801040649414 12.0834493637084961 33.6402359008789062
 13.5552444458007812  8.6237049102783203 37.8828430175781321
 13.7784595489501953  7.8366007804870605 36.3748550415039062
 12.3499116897583008  8.8114461898803711 36.6346855163574219
 14.8913345336914062 12.4413995742797852 36.2097244262695312
 15.6696023941040021 13.1280879974365234 34.8770561218261790
 16.5199069976806641 11.9882488250732422 35.8185348510742188
 15.4164600372314453  7.5556440353393555 31.2931270599365234
 14.9131650924682599  5.8284444808959961 31.5430030822753942
 12.4758014678955078  6.2384610176086417 33.3256378173828125
 13.7858953475952148  8.7948484420776367 30.0924034118652379
 10.2450160980224609  7.1006646156311035 33.1290550231933594
 11.4020776748657227  9.6043701171875000 29.8396167755126989
  9.6384668350219727  8.7992420196533203 31.4128246307373082
 18.0458087921142578  4.5258803367614746 34.8031654357910156
  0.0447731018066416 13.6193876266479492 34.8006973266601562
  9.0172090530395508  4.5616302490234366 34.7411613464355540
  8.9798336029052734 13.5938930511474609 34.7996139526367188
  4.5000629425048828  8.9846086502075195 34.8002548217773438
  4.5633344650268555  0.0475284643471241 34.7391319274902344
 13.5538562992587686 17.9903673231601715 34.7404785156250000
 18.0141302347183228  4.5621170997619629 40.4634628295898509
 17.9840985164046288 13.5341186523437500 40.5247993469238281
  9.0421257019042951  4.5886850357055664 40.5247993469238281
  8.9545984268188477 13.5620841979980469 40.4672584533691406
  4.4652953147888184  8.9582538604736328 40.5237655639648509
  4.4960803249850869 18.0498298201709986 40.5219688415527344
 13.5327482223510742  9.1019859313964844 40.5834770202636719
 13.5321598052978516  0.0456088632345200 40.5221939086914062
  9.0289716720581055  4.5156092643737793 46.4455223083496165
  9.0265130996704102 13.5470085144042969 46.4455223083496165
 18.0593719482421875  4.5156092643737793 46.4455223083496165
 18.0569133758544922 13.5470085144042969 46.4455223083496165
  4.5152091979980469  0.0000180629995157 46.4442062377929759
  4.5127501487731934  9.0314178466796857 46.4442062377929759
 13.5456094741821289  0.0000180629995157 46.4442062377929759
 13.5431499481201172  9.0314178466796857 46.4442062377929759
 13.2605714797973615  7.4469804763793945 31.7162704467773473
 12.2405099868774396  6.9350419044494629 32.5261154174804688
 12.9402875900268555  8.3683395385742188 30.7728195190429723
 11.0045366287231445  7.3643131256103516 32.4000778198242188
 11.6332159042358398  8.7696037292480469 30.6233272552490234
 10.6961622238159180  8.3746852874755859 31.4336528778076207
 13.9946556091308576  9.0328378677368164 34.0521125793457031
 12.6018867492675781 10.8650779724121076 35.0152549743652344
 14.2718563079833984  9.8199396133422852 36.4048118591308594
 15.1362056732177734 11.1599292755126953 34.5665473937988281
 15.2241411209106445  8.3840036392211914 33.8708076477050781
 15.2489757537841797  7.0941104888916007 33.3713111877441406
 12.0760164260864258 11.2157115936279297 33.6311416625976634
 13.4236316680908203  8.7428579330444336 36.8082847595214844
 15.5936012268066406 12.2277784347534180 35.4102058410644531
 14.7951784133911133  6.8467812538146973 31.9736614227294922
  0.9133892059326170  3.6579916477203369 35.2929611206054688
  0.8013973236083967 12.7609338760375977 35.2958908081054688
  9.8843917846679688  3.7845096588134766 35.2836952209472656
  9.7630777359008789 12.7690458297729492 35.4516906738281250
  8.2427673339843750  5.3152766227722159 35.2844581604003906
  8.2207651138305664 14.3935604095458984 35.2968673706054688
 17.2755680084228516  5.2452287673950195 35.4520072937011719
 17.3217582702636719 14.4453725814819336 35.4531402587890696
  3.7265374660491943  8.2213563919067383 35.4029617309570312
  3.7256662109866738 17.3250620365142822 35.3915138244628906
 12.7902473667636514 17.2171964645385742 35.3431892395019531
  5.3716449737548819  0.8097532391548157 35.2960777282714844
  5.3704690933227539  9.7687444686889648 35.4032745361328125
 14.3433322906494123  0.7975930571556091 35.3435020446777415
  0.7936915159225464  3.6680748462677002 41.1677627563476634
  0.8043142557144165 12.6388568878173828 41.1758537292480540
  9.9373559951782227  3.7076168060302734 41.1758270263671875
  9.8346958160400373 12.6877403259277344 41.0668411254882812
  3.6551895141601562  8.1719713211059570 41.1167869567871094
  3.6534988144412632 17.1539525985717773 41.1664619445800781
 12.6335554122924805  8.2246618270874023 41.1147575378418040
 12.6324562290683371 17.2646677494049108 41.1666870117187571
  8.2337722778320312  5.3156247138977051 41.1160392761230540
  8.2281398773193359 14.3350830078125000 41.1045761108398438
 17.2515243291854858  5.3735160827636719 41.0685348510742188
 17.2609196901321447 14.4043350219726562 41.1741523742675781
  5.2618145942687988  0.7959972023963928 41.0671157836914134
  5.3028173446655273  9.8392562866210938 41.1131896972656321
 14.3401155471801758  0.8074984550476074 41.0673408508300852
 14.3392763137817383  9.8302049636840820 41.1147575378418040
  0.8273094892501831  3.6869695186614990 47.0359649658203125
  0.8248501420021057 12.7183685302734375 47.0359649658203125
  9.8577098846435547  3.6869695186614990 47.0359649658203125
  9.8552503585815412 12.7183685302734375 47.0359649658203125
  3.6843190193176270  8.2023353576660156 47.0346527099609375
  3.6818594932556152 17.2337341308593750 47.0346527099609375
 12.7147188186645508  8.2023353576660156 47.0346527099609375
 12.7122592926025391 17.2337341308593750 47.0346527099609375
  8.2006769180297852  5.3445744514465332 47.0360260009765696
  8.1982173919677734 14.3759746551513672 47.0360260009765696
 17.2310771942138672  5.3445744514465332 47.0360260009765696
 17.2286186218261719 14.3759746551513672 47.0360260009765696
  5.3436489105224600  0.8290914893150328 47.0346527099609375
  5.3411893844604483  9.8604917526245117 47.0346527099609375
 14.3740482330322266  0.8290914893150328 47.0346527099609375
 14.3715896606445312  9.8604917526245117 47.0346527099609375
 13.9548368453979492 10.3324584960937500 34.9748687744140696
  8.9654821613803506 18.0027994588017464 34.5471000671386719
  8.9679412841796875  9.0913991928100586 34.5471000671386719
 17.9958819570019841 18.0027994513511658 34.5471000671386719
  0.0575406774878502  9.0913991928100586 34.5471000671386719
  4.4539885520935059  4.5756993293762207 34.5482254028320384
  4.4515290260314941 13.4870996475219727 34.4282302856445312
 13.4843893051147443  4.4556994438171387 34.5482254028320384
 13.4819307327270508 13.6070985794067383 34.4282302856445312
 17.9958819234743714 18.0027994699776208 40.9203224182128906
  0.0575406774878502  8.9714002609252930 40.9203224182128906
  9.0854810932651162 18.0027994550764561 40.9203224182128906
  8.9679412841796875  9.0913991928100586 40.9203224182128906
  4.4539699554443359  4.4556994438171387 40.9211387634277344
  4.5715117454528809 13.6070985794067383 40.9211387634277344
 13.6043701171874982  4.5757002830505371 40.9211387634277344
 13.4819116592407227 13.6070985794067383 40.8011436462402344
  2.5250406265258789  1.8701816797256470 37.8960342407226562
  2.5225813388824463 11.0215806961059570 37.8960342407226562
 11.5554418563842773  1.8701816797256470 37.8960342407226562
 11.5529823303222656 11.0215806961059570 38.0160293579101634
  6.5028915405273429  7.1612362861633292 37.8960342407226562
  6.5004324913024902 16.0726337432861328 37.8960342407226562
 15.5332908630371094  7.0412354469299316 38.0160293579101634
 15.4108324050903303 16.0726337432861328 37.8960342407226562
  1.9888536930084229  6.5066132545471191 37.8982200622558594
  1.8663945198059080 15.4180126190185547 37.8982200622558594
 10.8992538452148438  6.3866124153137207 37.8982200622558594
 11.0167932510375977 15.4180126190185547 37.8982200622558594
  7.1590876579284668  2.5248048305511475 37.8982200622558594
  7.0366272926330566 11.6762027740478516 37.8982200622558594
 16.1894893646240234  2.5248048305511475 37.8982200622558594
 16.1870307922363281 11.6762027740478516 38.0182151794433665
  0.0000000000000000  0.0000000000000000 47.1735610961914062
 -0.0024593239650130  9.0313997268676740 47.1735610961914062
  9.0304002761840803  0.0000000000000000 47.1735610961914062
  9.0279407501220685  9.0313997268676740 47.1735610961914062
  4.5139794349670410  4.5156998634338379 47.1742515563964844
  4.5115203857421875 13.5470991134643537 47.1742515563964844
 13.5443792343139648  4.5156998634338379 47.1742515563964844
 13.5419197082519531 13.5470991134643537 47.1742515563964844
  2.4519233703613277  2.0629522800445557 44.0401268005371165
  2.4494640827178955 11.0943517684936523 44.0401268005371165
 11.4823226928710920  2.0629522800445557 44.0401268005371165
 11.4798641204833984 11.0943517684936523 44.0401268005371165
  6.5760178565979004  6.9684472084045410 44.0401268005371165
  6.5735583305358887 15.9998464584350586 44.0401268005371165
 15.6064186096191406  6.9684472084045410 44.0401268005371165
 15.6039590835571289 15.9998464584350586 44.0401268005371165
  2.0610768795013428  6.5788145065307617 44.0400009155273509
  2.0586175918579102 15.6102142333984375 44.0400009155273509
 11.0914773941040039  6.5788145065307617 44.0400009155273509
 11.0890178680419922 15.6102142333984375 44.0400009155273509
  6.9668641090393066  2.4525938034057613 44.0400657653808665
  6.9644045829772949 11.4839935302734375 44.0400657653808665
 15.9972639083862305  2.4525938034057613 44.0400657653808665
 15.9948053359985352 11.4839935302734375 44.0400657653808665
  2.4316265583038330  2.0832188129425049 50.0684852600097656
  2.4291670322418213 11.1146183013915998 50.0684852600097656
 11.4620265960693359  2.0832188129425049 50.0684852600097656
 11.4595670700073224 11.1146183013915998 50.0684852600097656
  6.5963144302368164  6.9481806755065918 50.0684852600097656
  6.5938549041748047 15.9795799255371076 50.0684852600097656
 15.6267137527465803  6.9481806755065918 50.0684852600097656
 15.6242542266845703 15.9795799255371076 50.0684852600097656
  2.0811281204223633  6.5990090370178223 50.0690460205078125
  2.0786688327789307 15.6304082870483398 50.0690460205078125
 11.1115283966064453  6.5990090370178223 50.0690460205078125
 11.1090688705444336 15.6304082870483398 50.0690460205078125
  6.9468131065368652  2.4323906898498531 50.0690460205078125
  6.9443535804748535 11.4637899398803711 50.0690460205078125
 15.9772129058837891  2.4323906898498531 50.0690460205078125
 15.9747543334960938 11.4637899398803711 50.0690460205078125
  0.0600090250372887  0.0600180625915527 37.6904067993164062
  0.0575497001409531  8.9714183807373047 37.6904067993164062
  8.9704093933105469  0.0600180625915527 37.6904067993164062
  8.9679498672485352  8.9714183807373047 37.5704116821289134
  4.4539699554443359  4.5756907463073730 37.6909065246582102
  4.5715117454528809 13.4870910644531250 37.6909065246582102
 13.4843711853027344  4.5756907463073730 37.6909065246582102
 13.4819116592407209 13.6070899963378906 37.6909065246582102
  0.0000090280000222  0.0000090310004452 44.0429992675781250
 -0.0024502959568053  9.0314083099365234 44.0429992675781250
  9.0304088592529297  0.0000090310004452 44.0429992675781250
  9.0279493331909180  9.0314083099365234 44.0429992675781250
  4.5139703750610352  4.5156903266906738 44.0427513122558594
  4.5115113258361816 13.5470905303955078 44.0427513122558594
 13.5443706512451172  4.5156903266906738 44.0427513122558594
 13.5419111251831037 13.5470905303955078 44.0427513122558594
  0.0000000000000000  0.0000000000000000 50.4472808837890696
 -0.0024593239650130  9.0313997268676740 50.4472808837890696
  9.0304002761840803  0.0000000000000000 50.4472808837890696
  9.0279407501220685  9.0313997268676740 50.4472808837890696
  4.5139703750610352  4.5156998634338379 50.4472808837890696
  4.5115113258361816 13.5470991134643537 50.4472808837890696
 13.5443706512451172  4.5156998634338379 50.4472808837890696
 13.5419111251831055 13.5470991134643537 50.4472808837890696
