 H  C  N  I Pb 
 1.0000000000000000
    18.0608005523681641    0.0000000000000000    0.0000000000000000
    -0.0049186488613486   18.0627994537353516    0.0000000000000000
     0.0000000000000000    0.0000000000000000   62.4874992370605469
 H   C   N   I   Pb 
 143  39  47  72  24
Cartesian
  8.3991994857788086  6.1308188438415518 35.1695785522460938
  7.8998179435729972 14.8644542694091797 35.9199066162109375
 16.6792621612548828  5.1244335174560547 36.0212631225586009
 16.8728981018066406 14.7708091735839844 35.7783164978027344
  5.8291077613830558  1.4047715663909912 35.6610717773437500
  6.2817955017089844  9.8191585540771484 34.7621269226074219
 14.5742740631103516  1.6737443208694458 35.3215866088867188
  1.9627399444580085  4.5295724868774414 34.7637710571289062
  1.3461551666259792 12.2030525207519513 36.0626640319824219
  9.9593305587768555  2.8183031082153320 35.0465126037597656
  9.0973863601684570 11.6249847412109375 34.7663421630859446
  6.8104791641235352  0.2506586313247681 34.8168754577636719
  5.3074650764465332 11.2448024749755859 34.4345207214355540
 15.8404159545898438  0.5902405977249146 34.7525825500488281
  1.0818672180175772  5.2244725227355957 36.0876426696777415
 17.8050384521484375 12.5935468673706055 36.5853004455566477
 10.3346128463745117  4.4847774505615234 35.4468383789062571
  8.0637750625610352 12.3722352981567383 35.9373893737792969
  4.9362311363220215  7.8683395385742188 35.7438774108886719
  3.4015498161315918  1.0391653776168823 35.7524909973144531
 12.4007444381713867  0.5826535224914551 35.9671173095703196
  6.8888177871704102  5.3717832565307617 34.6866722106933594
  8.9501342773437500 15.6990995407104492 34.8138236999511790
 15.9345273971557617  4.2613005638122559 34.6895904541015625
 17.8534278869628906 15.6820888519287109 34.6687698364257812
  3.2072722911834717  8.0318145751953125 35.5898666381835938
  2.7697505215182900 17.6939815878868103 34.9732246398925781
 12.3042396763339639 16.9258835315704381 35.5975418090820312
  7.7645993232727042  3.2905988693237305 34.5114326477050781
  9.8122043609619141 13.7178211212158203 33.9087791442871094
 18.0345668792724609  3.8316676616668697 33.6757583618164134
  1.5161743164062511 14.0866184234619141 34.6786003112792969
  3.2952630519866943 10.1546554565429670 34.7611579895019531
  4.9034585217013946 16.9689813852310181 34.2839088439941477
 14.4278215626254678 16.7849420309066772 34.8199539184570312
  7.9825987815856925  5.4336729049682617 41.9634704589843821
  8.1591005325317383 14.5570840835571289 42.1075935363769602
 17.0902374982833862  5.1410269737243643 42.1531715393066406
 16.6059534549713135 13.3027048110961896 41.7695808410644531
  5.4329380989074698  0.9501261711120605 42.0263671875000071
  5.3338861465454102 10.1346044540405256 42.0926017761230540
 14.5436515808105469  1.0252780914306641 42.1034317016601634
 15.2176094055175763  8.4806146621704102 41.3782501220703196
  1.5405322313308716  3.0357997417449951 40.4918823242187500
  2.0244193077087402 12.8130865097045898 40.8330879211425781
 10.4644365310668945  3.0947494506835938 40.6040573120117259
 10.3295326232910156 12.0972166061401349 40.4392127990722727
  3.3370475769042969  7.4400739669799805 40.5741577148437571
  3.0538343647494912 16.6858078241348267 40.4578552246093750
 11.5918741226196289  8.5519151687622070 40.9589996337890696
 12.1839775303378701 16.6095782518386841 40.7462005615234446
  0.9426711201667785  3.3566210269927979 42.0916328430175781
  0.7010587453842163 12.0322151184082013 41.6626548767089915
  9.8328266143798810  3.6375136375427246 42.1379814147949290
  9.9214410781860352 12.6127700805664062 42.0502510070800852
  3.6853866577148433  8.1020774841308594 42.1402969360351562
  3.5723623493686318 17.1699138879776001 42.0516128540039134
 12.8872232437133771  7.4746699333190918 41.4195022583007812
 12.7181343296542764 17.2239747643470764 42.2864646911621094
  7.5727281570434570  5.8843598365783691 40.3381614685058594
  7.6401166915893546 15.0757751464843750 40.5304412841796875
 16.6853542327880895  5.7963294982910156 40.5873146057128906
 16.5758779048919678 14.8369874954223633 40.9390373229980469
  5.9227380752563477  1.4353141784667969 40.4301414489746094
  5.8272595405578613 10.6025466918945312 40.4875755310058594
 14.9739103317260724  1.4281414747238157 40.4589271545410156
 15.3386878967285156 10.0680656433105469 40.6900596618652344
  0.1670140027999878  4.5378503799438477 39.4417762756347727
  0.7266825437545776 14.6822423934936506 40.2522315979003977
  9.0989122390747070  4.4837880134582520 39.3544883728027415
  8.9289855957031250 13.5737094879150391 39.3834228515625000
  4.4750356674194336  0.0275651067495346 39.3385543823242188
  4.6569948196411133  8.9247570037841797 39.4274978637695384
 13.5501627186313272 17.9723760858178139 39.4996376037597656
 13.0461397171020490 10.3046522140502930 40.4167137145996094
  8.1032123565673828  5.4420318603515616 48.0459518432617259
  8.1007528305053711 14.4734306335449219 48.0459518432617259
 17.1336116790771484  5.4420318603515616 48.0459518432617259
 17.1311531066894531 14.4734306335449219 48.0459518432617259
  5.4410333633422852  0.9265221953392029 48.0449485778808594
  5.4385743141174316  9.9579219818115234 48.0449485778808594
 14.4714326858520490  0.9265221953392029 48.0449485778808594
 14.4689741134643555  9.9579219818115234 48.0449485778808594
  1.4218254089355467  3.0919990539550781 46.4558296203613281
  1.4193661212921143 12.1233978271484375 46.4558296203613281
 10.4522256851196289  3.0919990539550781 46.4558296203613281
 10.4497661590576172 12.1233978271484375 46.4558296203613281
  3.0899283885955806  7.6075901985168457 46.4545211791992188
  3.0874691009521484 16.6389904022216797 46.4545211791992188
 12.1203289031982422  7.6075901985168457 46.4545211791992188
 12.1178693771362305 16.6389904022216797 46.4545211791992188
  0.9247469902038573  3.5893490314483643 48.0459518432617259
  0.9222877025604248 12.6207475662231445 48.0459518432617259
  9.9551477432250977  3.5893490314483643 48.0459518432617259
  9.9526882171630859 12.6207475662231445 48.0459518432617259
  3.5868983268737793  8.1048498153686523 48.0448913574218821
  3.5844390392303462 17.1362495422363281 48.0448913574218821
 12.6172990798950195  8.1048498153686523 48.0448913574218821
 12.6148395538330078 17.1362495422363281 48.0448913574218821
  7.6061611175537109  5.9393639564514160 46.4558296203613281
  7.6037015914916992 14.9707632064819336 46.4558296203613281
 16.6365604400634766  5.9393639564514160 46.4558296203613281
 16.6341018676757812 14.9707632064819336 46.4558296203613281
  5.9380125999450684  1.4238001108169553 46.4545211791992188
  5.9355530738830566 10.4551992416381836 46.4545211791992188
 14.9684123992919904  1.4238001108169553 46.4545211791992188
 14.9659538269042951 10.4551992416381836 46.4545211791992188
 -0.0011664569610730  4.5157265663146973 45.3548011779785156
 -0.0036257810425013 13.5471258163452148 45.3548011779785156
  9.0292339324951172  4.5157265663146973 45.3548011779785156
  9.0267744064331037 13.5471258163452148 45.3548011779785156
  4.5152091979980469  0.0000000000000000 45.3536758422851562
  4.5127501487731934  9.0313997268676740 45.3536758422851562
 13.5456094741821289  0.0000000000000000 45.3536758422851562
 13.5431499481201172  9.0313997268676740 45.3536758422851562
 13.0041103363037109  8.0321893692016602 33.6713752746582102
 13.3954801559448242  8.9692134857177734 32.2356948852539062
 11.9732999801635742  9.9863929748535156 34.7472953796386719
 12.8208322525024414 11.5408868789672834 34.6617012023925781
 15.4143276214599592  9.2000694274902344 35.4408607482910156
 14.3255968093872070 10.4616403579711914 36.0338630676269531
 15.8647251129150391 10.1052064895629883 33.1684837341308594
 14.6029644012451172 11.1810712814331055 32.5271415710449219
 15.7623176574707031  8.3353204727172852 32.3391799926757812
 15.5807542800903320  7.6872477531433105 33.9638786315918040
 15.7658615112304688  5.8853054046630859 32.4052734375000000
 14.1610918045043945  5.8505806922912589 33.1094436645507812
 11.5303249359130842  9.9778614044189453 32.3358535766601562
 12.5608539581298828 11.4264707565307617 32.0765304565429759
 11.0716438293457031 11.5353288650512695 33.0172958374023438
 13.7938423156738281  8.4273471832275391 37.1835021972656250
 13.6319513320922852  7.4722943305969238 35.7107391357421875
 12.4170188903808594  8.7193565368652344 36.1123313903808665
 14.7824611663818359 12.5000934600830078 34.7759780883789062
 16.1938648223876953 12.5209169387817383 33.7109794616699219
 16.2152004241943359 11.4663305282592773 35.1323204040527415
 14.8130016326904297  6.8734812736511230 30.2991943359375036
 14.2074851989746094  5.2719302177429199 30.7016525268554723
 11.9638023376464844  5.4638748168945312 32.3774871826171946
 13.2279853820800781  8.3222560882568359 29.4097785949707031
  9.6637916564941406  6.3928284645080566 32.2870025634765696
 10.9197216033935547  9.2280702590942383 29.2900428771972692
  9.1314296722412109  8.2962093353271484 30.7683010101318395
 17.9775390625000000  4.3466186523437500 34.6311683654785156
  0.5941085815429702 13.9061326980590820 35.2412528991699219
  8.4320411682128906  4.1042270660400391 34.8047523498535156
  9.0559825897216797 13.6744394302368146 34.6948890686035156
  4.2338590621948242  9.6239242553710920 34.9424591064453125
  4.7925385693088174 17.9096209555864334 34.8294830322265625
 14.0675377110019326 17.7590241432189941 35.1586685180664062
  0.0851047635078430  4.4214434623718262 40.5268325805664062
  0.2915022969245911 13.8662815093994141 40.8389320373535156
  9.0252828598022461  4.4913358688354492 40.4440498352050781
  8.9752588272094727 13.5791053771972656 40.4708633422851562
  4.5996694564819336  9.0039844512939453 40.5123863220214915
  4.4912285804748535  0.0265775807201862 40.4323158264160227
 13.4416627883911133  9.3732023239135742 40.8171424865722727
 13.5787910679355264 18.0495030805468559 40.5902786254882812
  9.0289716720581055  4.5156092643737793 46.4455223083496165
  9.0265130996704102 13.5470085144042969 46.4455223083496165
 18.0593719482421875  4.5156092643737793 46.4455223083496165
 18.0569133758544922 13.5470085144042969 46.4455223083496165
  4.5152091979980469  0.0000180629995157 46.4442062377929759
  4.5127501487731934  9.0314178466796857 46.4442062377929759
 13.5456094741821289  0.0000180629995157 46.4442062377929759
 13.5431499481201172  9.0314178466796857 46.4442062377929759
 12.7636184692382795  6.8415036201477051 30.9069843292236328
 11.7348213195800763  6.2960829734802237 31.7020568847656286
 12.4436378479003906  7.8916506767272949 30.0394916534423864
 10.4394226074218750  6.8124041557312012 31.6469612121582067
 11.1389427185058594  8.4052972793579102 29.9763488769531286
 10.1398525238037092  7.8759722709655762 30.7871742248535192
 13.7929372787475586  8.6271419525146484 33.1928977966308665
 12.6207237243652344 10.6067314147949219 34.1216850280761719
 14.3625135421752930  9.5191774368286133 35.4756240844726562
 15.0384445190429688 10.7697343826293945 33.4471244812011719
 15.0593023300170898  7.8081622123718262 32.9995307922363281
 14.7983121871948224  6.4160037040710449 32.4189300537109375
 11.9319887161254883 10.8867149353027344 32.7985305786132812
 13.4884243011474609  8.4762725830078125 36.1320800781250000
 15.5709390640258771 11.8708782196044922 34.3422927856445312
 14.1831960678100586  6.3290224075317383 31.0094623565673864
  1.0467567443847674  4.7019138336181641 35.2000961303710938
  0.5352420806884747 12.8151397705078125 35.9585838317871094
  9.6721410751342773  3.7966520786285396 35.0867118835449219
  8.6998720169067383 12.4918022155761719 35.1370201110839915
  7.9009661674499503  5.3042030334472647 34.8412513732910156
  8.5680208206176758 14.8040409088134766 35.1406707763671875
 16.7928829193115234  4.5621161460876465 35.1605110168457031
 17.6744136810302734 14.7814521789550781 35.1338386535644602
  4.1310462951660156  8.3837032318115234 35.3713569641113281
  3.5924353599548340  0.1910401135683060 35.2083015441894531
 12.8208126286044717 17.8022658228874207 35.5745925903320312
  5.8755779266357422  0.5559417009353638 35.0860671997070312
  5.3580770492553711 10.2496623992919922 34.6775054931640696
 14.8841743469238281  0.7214413881301879 35.0921058654785156
  0.8866237998008728  3.5511934757232666 41.0862579345703125
  1.0316700935363770 12.8181953430175781 41.0984153747558594
  9.8217811584472656  3.6998698711395259 41.1185073852539134
  9.7746982574462891 12.7046537399291992 41.0335121154785156
  3.8425493240356445  8.1287040710449219 41.1266288757324290
  3.6531049469485879 17.2689682245254517 41.0352478027343750
 12.5988779067993146  8.4052371978759766 41.0925292968750000
 12.7901367405429482 17.2434965372085571 41.2640800476074219
  8.1461544036865234  5.3186831474304199 40.9624977111816477
  8.2203989028930664 14.4520215988159180 41.0913696289062500
 17.2646774053573608  5.1691684722900391 41.1489028930664062
 17.0991597175598145 14.0070858001708984 41.2115211486816406
  5.3325853347778320  0.8450549244880676 41.0148773193359375
  5.2924771308898917  9.9612884521484375 41.0821418762207031
 14.3988523483276367  0.8765579462051392 41.1024093627929688
 14.7459983825683594  9.2897806167602539 40.9701156616210938
  0.8273094892501831  3.6869695186614990 47.0359649658203125
  0.8248501420021057 12.7183685302734375 47.0359649658203125
  9.8577098846435547  3.6869695186614990 47.0359649658203125
  9.8552503585815412 12.7183685302734375 47.0359649658203125
  3.6843190193176270  8.2023353576660156 47.0346527099609375
  3.6818594932556152 17.2337341308593750 47.0346527099609375
 12.7147188186645508  8.2023353576660156 47.0346527099609375
 12.7122592926025391 17.2337341308593750 47.0346527099609375
  8.2006769180297852  5.3445744514465332 47.0360260009765696
  8.1982173919677734 14.3759746551513672 47.0360260009765696
 17.2310771942138672  5.3445744514465332 47.0360260009765696
 17.2286186218261719 14.3759746551513672 47.0360260009765696
  5.3436489105224600  0.8290914893150328 47.0346527099609375
  5.3411893844604483  9.8604917526245117 47.0346527099609375
 14.3740482330322266  0.8290914893150328 47.0346527099609375
 14.3715896606445312  9.8604917526245117 47.0346527099609375
 13.9565639495849609  9.8755998611450195 34.0481185913085938
  9.3599262237548810  0.1988693028688431 34.5755996704101562
  8.8372001647949219  8.9402256011962891 34.5302696228027344
  0.2038332521915436  0.1370348036289215 34.3820648193359375
  0.4400937259197235  9.0286264419555664 34.6396331787109375
  4.5406126976013184  4.2145276069641113 34.5504150390625000
  4.5829796791076651 13.7644109725952148 34.5002784729003906
 13.2722873687744141  3.8381929397583008 34.7316970825195384
 12.6304950714111310 14.3863372802734375 34.7011795043945312
 18.0401305807754433 17.8407153785228729 40.8515129089355469
  0.2267116308212280  9.0183639526367188 40.9548835754394531
  8.9362010955810547  0.0742380768060684 40.9390258789062571
  9.0284156799316388  8.9356384277343750 40.8774604797363352
  4.5546045303344727  4.4487075805664062 40.9099884033203125
  4.5684432983398438 13.6300821304321289 40.8813667297363352
 13.4964399337768555  4.8670458793640137 40.9331207275390625
 13.5047302246093750 13.3687829971313477 40.9013595581054759
  2.3437135219573975  2.2064473628997803 37.9414329528808594
  2.7250277996063232 10.9831418991088867 37.9697151184082031
 11.5411386489868164  2.0664474964141846 38.2193565368652344
 11.4085493087768555 11.1647882461547834 37.9127502441406250
  6.5145282745361328  7.0392799377441397 37.8351898193359375
  6.6678581237792969 16.0158138275146484 37.9586868286132884
 16.0443859100341797  6.6402320861816397 37.9726753234863281
 15.6632976531982404 15.9425249099731445 37.8815422058105469
  2.1935696601867676  6.6092014312744141 38.0610084533691406
  2.2242035865783691 15.8089265823364258 37.9021186828613281
 10.7762861251831037  6.2873439788818359 37.5809631347656250
 11.1409263610839844 15.6631174087524414 38.4071693420410156
  7.0009026527404785  2.4274349212646484 37.9474067687988281
  6.9651184082031250 11.4867954254150391 38.0774345397949219
 15.9562273025512678  2.4661369323730469 38.1802864074707102
 16.1620750427246094 11.5533475875854492 38.3161888122558594
  0.0000000000000000  0.0000000000000000 47.1735610961914062
 -0.0024593239650130  9.0313997268676740 47.1735610961914062
  9.0304002761840803  0.0000000000000000 47.1735610961914062
  9.0279407501220685  9.0313997268676740 47.1735610961914062
  4.5139794349670410  4.5156998634338379 47.1742515563964844
  4.5115203857421875 13.5470991134643537 47.1742515563964844
 13.5443792343139648  4.5156998634338379 47.1742515563964844
 13.5419197082519531 13.5470991134643537 47.1742515563964844
  2.4519233703613277  2.0629522800445557 44.0401268005371165
  2.4494640827178955 11.0943517684936523 44.0401268005371165
 11.4823226928710920  2.0629522800445557 44.0401268005371165
 11.4798641204833984 11.0943517684936523 44.0401268005371165
  6.5760178565979004  6.9684472084045410 44.0401268005371165
  6.5735583305358887 15.9998464584350586 44.0401268005371165
 15.6064186096191406  6.9684472084045410 44.0401268005371165
 15.6039590835571289 15.9998464584350586 44.0401268005371165
  2.0610768795013428  6.5788145065307617 44.0400009155273509
  2.0586175918579102 15.6102142333984375 44.0400009155273509
 11.0914773941040039  6.5788145065307617 44.0400009155273509
 11.0890178680419922 15.6102142333984375 44.0400009155273509
  6.9668641090393066  2.4525938034057613 44.0400657653808665
  6.9644045829772949 11.4839935302734375 44.0400657653808665
 15.9972639083862305  2.4525938034057613 44.0400657653808665
 15.9948053359985352 11.4839935302734375 44.0400657653808665
  2.4316265583038330  2.0832188129425049 50.0684852600097656
  2.4291670322418213 11.1146183013915998 50.0684852600097656
 11.4620265960693359  2.0832188129425049 50.0684852600097656
 11.4595670700073224 11.1146183013915998 50.0684852600097656
  6.5963144302368164  6.9481806755065918 50.0684852600097656
  6.5938549041748047 15.9795799255371076 50.0684852600097656
 15.6267137527465803  6.9481806755065918 50.0684852600097656
 15.6242542266845703 15.9795799255371076 50.0684852600097656
  2.0811281204223633  6.5990090370178223 50.0690460205078125
  2.0786688327789307 15.6304082870483398 50.0690460205078125
 11.1115283966064453  6.5990090370178223 50.0690460205078125
 11.1090688705444336 15.6304082870483398 50.0690460205078125
  6.9468131065368652  2.4323906898498531 50.0690460205078125
  6.9443535804748535 11.4637899398803711 50.0690460205078125
 15.9772129058837891  2.4323906898498531 50.0690460205078125
 15.9747543334960938 11.4637899398803711 50.0690460205078125
 18.0230924822390079  0.0686925500631332 37.7285995483398438
  0.0948234573006630  9.1102514266967773 37.7513236999511719
  9.1152219772338867  0.0159215237945318 37.8330497741699290
  9.0688724517822266  9.0054044723510742 37.7102508544921875
  4.5763158798217773  4.4908003807067871 37.7590179443359375
  4.5371665954589835 13.6056537628173828 37.6845054626464844
 13.4843130111694336  4.5341749191284180 37.8102378845214844
 13.4266090393066388 13.6549911499023438 37.7356643676757884
  0.0000090280000222  0.0000090310004452 44.0429992675781250
 -0.0024502959568053  9.0314083099365234 44.0429992675781250
  9.0304088592529297  0.0000090310004452 44.0429992675781250
  9.0279493331909180  9.0314083099365234 44.0429992675781250
  4.5139703750610352  4.5156903266906738 44.0427513122558594
  4.5115113258361816 13.5470905303955078 44.0427513122558594
 13.5443706512451172  4.5156903266906738 44.0427513122558594
 13.5419111251831037 13.5470905303955078 44.0427513122558594
  0.0000000000000000  0.0000000000000000 50.4472808837890696
 -0.0024593239650130  9.0313997268676740 50.4472808837890696
  9.0304002761840803  0.0000000000000000 50.4472808837890696
  9.0279407501220685  9.0313997268676740 50.4472808837890696
  4.5139703750610352  4.5156998634338379 50.4472808837890696
  4.5115113258361816 13.5470991134643537 50.4472808837890696
 13.5443706512451172  4.5156998634338379 50.4472808837890696
 13.5419111251831055 13.5470991134643537 50.4472808837890696
