 H  C  N  I Pb 
 1.0000000000000000
    18.0608005523681641    0.0000000000000000    0.0000000000000000
    -0.0049186488613486   18.0627994537353516    0.0000000000000000
     0.0000000000000000    0.0000000000000000   62.4874992370605469
 H   C   N   I   Pb 
 143  39  47  72  24
Cartesian
  8.5593776702880859  6.0644640922546387 35.5399818420410156
  8.0806427001953125 15.0582380294799805 35.8577575683593750
 16.6712875366210938  4.5281376838684082 36.2560615539550852
 16.9850788116455078 14.7780323028564453 35.9092826843261790
  5.7512454986572266  1.3690271377563477 35.5888099670410227
  6.2458858489990234 10.0841112136840820 35.2991447448730469
 14.4341211318969709  1.6677196025848389 35.6645851135253906
  1.8962993621826179  4.4516115188598633 34.8154449462890625
  1.4523296356201172 12.1767854690551758 35.9157295227050781
  9.8600149154663086  2.7061216831207275 35.0209655761718750
  9.0112943649291992 11.6496572494506836 35.0230484008789134
  6.6639027595520020  0.2024505138397217 34.6926612854003906
  5.2517428398132324 11.4078712463378906 34.7177963256835938
 15.7483472824096680  0.6426827907562256 35.0862350463867188
  1.0436935424804685  4.5548982620239258 36.3146667480468750
 17.9886150360107422 12.5691738128662109 36.6548576354980469
 10.3688631057739240  4.3043780326843262 35.5839042663574290
  8.1522884368896484 12.5855379104614240 36.2003974914550852
  5.0325908660888672  7.9492063522338867 35.8079910278320312
  3.2950677871704102  1.0807757377624512 35.7288055419921946
 12.2012310028076154  0.5430687665939331 35.8220787048339844
  6.9982900619506836  5.5316233634948730 34.9240074157714844
  9.0797557830810547 15.7190141677856445 34.5978164672851562
 15.8531112670898438  4.3182678222656250 34.7316017150878977
 17.8494701385498047 15.6533288955688477 34.7053527832031250
  3.3704304695129395  7.8867282867431641 35.3202400207519531
  2.5936538437381382 17.8360054492950475 34.8583374023437500
 12.1372408131137490 16.9446146488189733 35.2546997070312500
  7.7244076728820792  3.3988735675811768 34.4676132202148438
  9.8115959167480469 13.5944252014160156 33.9048767089843821
 17.9418144226074219  4.2682886123657227 33.5674819946289062
  1.4928283691406270 14.0307664871215820 34.5603446960449219
  3.3263292312622070 10.0699348449707031 34.5969505310058594
  4.7028183201327920 17.0217344760894775 34.1543884277343750
 14.3423551777377725 16.8771899938583374 34.7349472045898438
  8.2778100967407227  5.5431647300720215 42.0873374938964844
  7.9735155105590811 14.5899009704589844 42.0180358886718750
 17.0567030906677246  5.0028367042541495 42.1899299621582031
 16.6667912006378174 13.2214632034301758 41.9984474182128977
  5.5649123191833496  0.8844432830810547 41.9885101318359375
  5.3358402252197266  9.9945077896118164 42.2109260559082031
 14.4256429672241211  0.9721480011940002 42.1449623107910227
 15.2260026931762695  8.5215501785278320 41.4850921630859375
  1.6702377796173096  3.1367945671081543 40.5307655334472656
  2.0093317031860352 12.9612922668457031 40.7244491577148438
 10.4842500686645490  3.0504236221313472 40.5727386474609375
 10.3304252624511719 12.0945711135864258 40.7159881591796946
  3.3585591316223145  7.4088511466979980 40.5173568725585938
  3.0041894176974893 16.7942166328430176 40.4598731994628906
 11.6144666671752930  8.5763759613037109 41.1424865722656321
 12.2323354938998818 16.5580959320068359 40.5646781921386790
  0.9869745969772339  3.3555727005004883 42.1145629882812500
  0.9324370622634888 12.1932811737060547 41.8421478271484375
 10.0991573333740234  3.7286124229431152 42.1270866394042969
  9.7126464843750000 12.6584501266479492 42.2380371093750000
  3.6618490219116211  7.9815082550048828 42.1209335327148509
  3.5768577316775918 17.2562917470932007 42.0367202758789062
 12.9323844909667969  7.5950794219970703 41.7414054870605469
 12.6728214481845498 17.1380734443664551 42.1540184020996094
  7.5932016372680664  5.8698725700378418 40.5221023559570384
  7.6186885833740225 15.0433063507080078 40.3804893493652344
 16.6776216030120850  5.7574234008789062 40.6514930725097727
 16.3770372867584229 14.6146697998046875 40.9738426208496094
  6.0841336250305176  1.3231375217437744 40.3975944519042969
  5.8601660728454590 10.5524091720581055 40.6535148620605469
 14.9516248703002930  1.4695693254470825 40.5642471313476562
 15.3705320358276367 10.0257263183593750 40.6199722290039062
  0.2436249405145645  4.6585564613342276 39.5070571899414062
  0.4707453250885010 14.5615272521972656 40.0691108703613281
  8.9412517547607422  4.3477449417114258 39.4274635314941406
  9.0737075805664062 13.5122499465942383 39.4461669921875000
  4.5273690223693848  0.0042470134794712 39.3234939575195312
  4.7031884193420410  8.9504966735839844 39.4836692810058665
 13.6225694874301535 17.9994834959507024 39.4589462280273509
 13.0711202621459961 10.2058029174804670 40.3057441711425852
  8.1032123565673828  5.4420318603515616 48.0459518432617259
  8.1007528305053711 14.4734306335449219 48.0459518432617259
 17.1336116790771484  5.4420318603515616 48.0459518432617259
 17.1311531066894531 14.4734306335449219 48.0459518432617259
  5.4410333633422852  0.9265221953392029 48.0449485778808594
  5.4385743141174316  9.9579219818115234 48.0449485778808594
 14.4714326858520490  0.9265221953392029 48.0449485778808594
 14.4689741134643555  9.9579219818115234 48.0449485778808594
  1.4218254089355467  3.0919990539550781 46.4558296203613281
  1.4193661212921143 12.1233978271484375 46.4558296203613281
 10.4522256851196289  3.0919990539550781 46.4558296203613281
 10.4497661590576172 12.1233978271484375 46.4558296203613281
  3.0899283885955806  7.6075901985168457 46.4545211791992188
  3.0874691009521484 16.6389904022216797 46.4545211791992188
 12.1203289031982422  7.6075901985168457 46.4545211791992188
 12.1178693771362305 16.6389904022216797 46.4545211791992188
  0.9247469902038573  3.5893490314483643 48.0459518432617259
  0.9222877025604248 12.6207475662231445 48.0459518432617259
  9.9551477432250977  3.5893490314483643 48.0459518432617259
  9.9526882171630859 12.6207475662231445 48.0459518432617259
  3.5868983268737793  8.1048498153686523 48.0448913574218821
  3.5844390392303462 17.1362495422363281 48.0448913574218821
 12.6172990798950195  8.1048498153686523 48.0448913574218821
 12.6148395538330078 17.1362495422363281 48.0448913574218821
  7.6061611175537109  5.9393639564514160 46.4558296203613281
  7.6037015914916992 14.9707632064819336 46.4558296203613281
 16.6365604400634766  5.9393639564514160 46.4558296203613281
 16.6341018676757812 14.9707632064819336 46.4558296203613281
  5.9380125999450684  1.4238001108169553 46.4545211791992188
  5.9355530738830566 10.4551992416381836 46.4545211791992188
 14.9684123992919904  1.4238001108169553 46.4545211791992188
 14.9659538269042951 10.4551992416381836 46.4545211791992188
 -0.0011664569610730  4.5157265663146973 45.3548011779785156
 -0.0036257810425013 13.5471258163452148 45.3548011779785156
  9.0292339324951172  4.5157265663146973 45.3548011779785156
  9.0267744064331037 13.5471258163452148 45.3548011779785156
  4.5152091979980469  0.0000000000000000 45.3536758422851562
  4.5127501487731934  9.0313997268676740 45.3536758422851562
 13.5456094741821289  0.0000000000000000 45.3536758422851562
 13.5431499481201172  9.0313997268676740 45.3536758422851562
 13.0024747848510742  7.9890813827514648 33.8152694702148438
 13.3121004104614258  8.8985509872436523 32.3557968139648438
 11.9198932647705078  9.9780769348144531 34.8892555236816406
 12.7610378265380859 11.5243864059448242 34.7409057617187500
 15.3587379455566406  9.1657018661499023 35.5356674194335938
 14.2505321502685529 10.4232559204101562 36.1444129943847727
 15.7433013916015607 10.1602563858032227 33.1436424255371165
 14.4205379486083984 11.2738513946533203 32.6867332458496094
 15.7208623886108381  8.3618974685668945 32.4141883850097656
 15.5874710083007812  7.6449108123779297 34.0087966918945384
 15.7542858123779279  5.8919401168823242 32.4209403991699219
 14.1441268920898438  5.8255634307861328 33.1082916259765625
 11.4680156707763672  9.9416856765747053 32.4351501464843750
 12.4257030487060547 11.4472599029541016 32.2240600585937500
 10.9435682296752930 11.4476442337036133 33.1696853637695312
 13.6302585601806641  8.4622545242309570 37.2877426147460938
 13.6271181106567383  7.4160661697387695 35.8505134582519531
 12.3480386734008789  8.6241350173950195 36.1022377014160156
 14.7490549087524396 12.4962663650512695 34.9079399108886719
 16.2423477172851562 12.4224262237548828 33.9682655334472727
 16.0273342132568359 11.3168067932128888 35.3306503295898509
 14.8161754608154297  6.8706159591674805 30.3213844299316442
 14.1755027770996094  5.2886629104614258 30.7226963043212926
 11.9733819961547834  5.5358538627624512 32.4630317687988281
 13.2098751068115217  8.3164644241333008 29.4187011718750000
  9.6884889602661133  6.4882240295410156 32.4045372009277415
 10.9103631973266602  9.2509183883666992 29.3397960662841832
  9.1423149108886701  8.3581666946411133 30.8615703582763672
 17.9140625000000000  4.3788604736328125 34.6443176269531250
  0.6315822601318348 13.8744230270385724 35.2126922607421875
  8.4379739761352539  4.1123318672180176 34.8864517211914062
  9.1112709045410156 13.6780729293823242 34.7379035949707031
  4.2737197875976562  9.6495656967163086 34.9499168395996094
  4.6319088200107217 17.9537604749202728 34.7200241088867188
 13.9422592381015420 17.8143712729215622 35.1249313354492188
  0.1423303633928299  4.4527468681335449 40.5775871276855469
  0.1823640465736389 13.8217401504516602 40.8123664855957031
  9.0488901138305664  4.4609098434448242 40.5102577209472656
  8.9738817214965820 13.5589160919189453 40.5217933654785156
  4.6236143112182608  8.9666147232055664 40.5660705566406321
  4.5447258949279785  0.0240777991712093 40.4135894775390696
 13.4767694473266602  9.3526191711425781 40.8262939453125000
 13.5914520481601357 18.0380172953009605 40.5451927185058665
  9.0289716720581055  4.5156092643737793 46.4455223083496165
  9.0265130996704102 13.5470085144042969 46.4455223083496165
 18.0593719482421875  4.5156092643737793 46.4455223083496165
 18.0569133758544922 13.5470085144042969 46.4455223083496165
  4.5152091979980469  0.0000180629995157 46.4442062377929759
  4.5127501487731934  9.0314178466796857 46.4442062377929759
 13.5456094741821289  0.0000180629995157 46.4442062377929759
 13.5431499481201172  9.0314178466796857 46.4442062377929759
 12.7580270767211896  6.8738155364990225 30.9420375823974645
 11.7427930831909180  6.3484325408935547 31.7666759490966832
 12.4331626892089844  7.9108715057373038 30.0624122619628906
 10.4541215896606445  6.8836593627929688 31.7338008880615270
 11.1338348388671875  8.4341325759887695 30.0204734802246129
 10.1481342315673828  7.9417800903320312 30.8656158447265661
 13.7591161727905256  8.5940036773681641 33.3044052124023438
 12.5528964996337891 10.5762605667114258 34.2315826416015696
 14.3032922744750959  9.4885034561157227 35.5708847045898438
 14.9389905929565430 10.7957334518432599 33.5307617187500000
 15.0391311645507812  7.7975797653198233 33.0647888183593750
 14.7833061218261719  6.4141216278076172 32.4364051818847656
 11.8332185745239240 10.8486013412475586 32.9287109375000000
 13.4229936599731445  8.4348535537719727 36.2111892700195384
 15.5091342926025391 11.8103818893432617 34.5075225830078125
 14.1721096038818359  6.3458042144775391 31.0267181396484375
  0.9953575134277370  4.4281387329101562 35.2967300415039062
  0.6532249450683618 12.8021516799926758 35.9601440429687500
  9.6661958694458008  3.7096221446990962 35.1278724670410227
  8.7484683990478516 12.5801315307617188 35.3626708984375071
  7.9942545890808105  5.3434190750122070 35.0776062011718750
  8.6899623870849609 14.8787555694580078 35.0477142333984375
 16.7394752502441406  4.4562454223632812 35.2344017028808594
 17.7100696563720703 14.7539081573486328 35.1807136535644531
  4.2391571998596191  8.3901662826538086 35.3316421508789062
  3.4449203014373779  0.2893553674221039 35.0866355895996094
 12.6517137745395303 17.8116946816444397 35.3643379211425781
  5.7517771720886230  0.5417307615280151 34.9793968200683594
  5.3351550102233887 10.4152040481567383 34.9570960998535156
 14.7645483016967756  0.7492215633392334 35.3337173461914062
  0.9657639265060425  3.5954675674438477 41.1226692199707031
  1.0702258348464966 12.9265708923339844 41.1408538818359375
  9.9319276809692383  3.7167117595672603 41.1194267272949290
  9.7050991058349609 12.7188386917114258 41.2098960876464915
  3.8579390048980713  8.0579624176025391 41.1174774169921875
  3.6493970612064000 17.3409388661384583 41.0224227905273509
 12.6306447982788068  8.4432182312011719 41.2502784729003906
 12.7920068958774209 17.1882865428924561 41.1382064819335938
  8.2656803131103516  5.3504977226257324 41.0868225097656321
  8.1416845321655273 14.4449863433837891 41.0206375122070312
 17.2534810304641759  5.1147036552429199 41.1960678100585938
 17.0317236185073888 13.9099893569946289 41.3148612976074290
  5.4511103630065918  0.7812483310699462 40.9842605590820384
  5.3101735115051270  9.8791923522949219 41.1973800659179688
 14.3636875152587891  0.8621627092361449 41.1376495361328125
 14.7774457931518555  9.2954273223876953 40.9990501403808594
  0.8273094892501831  3.6869695186614990 47.0359649658203125
  0.8248501420021057 12.7183685302734375 47.0359649658203125
  9.8577098846435547  3.6869695186614990 47.0359649658203125
  9.8552503585815412 12.7183685302734375 47.0359649658203125
  3.6843190193176270  8.2023353576660156 47.0346527099609375
  3.6818594932556152 17.2337341308593750 47.0346527099609375
 12.7147188186645508  8.2023353576660156 47.0346527099609375
 12.7122592926025391 17.2337341308593750 47.0346527099609375
  8.2006769180297852  5.3445744514465332 47.0360260009765696
  8.1982173919677734 14.3759746551513672 47.0360260009765696
 17.2310771942138672  5.3445744514465332 47.0360260009765696
 17.2286186218261719 14.3759746551513672 47.0360260009765696
  5.3436489105224600  0.8290914893150328 47.0346527099609375
  5.3411893844604483  9.8604917526245117 47.0346527099609375
 14.3740482330322266  0.8290914893150328 47.0346527099609375
 14.3715896606445312  9.8604917526245117 47.0346527099609375
 13.8975658416748047  9.8526239395141602 34.1434669494628906
  9.2055168151855469  0.2440907657146454 34.4380187988281321
  8.7370986938476562  9.1026620864868164 34.6457099914550781
  0.0408992730081081  0.1636064052581787 34.4848136901855469
  0.5352777838706970  9.1090145111083984 34.6862068176269531
  4.5243201255798340  4.4779076576232910 34.5467376708984446
  4.4528050422668457 13.8459157943725586 34.5340843200683594
 13.2326335906982422  3.8045291900634766 34.7380981445312500
 12.6334342956542951 14.3750171661376953 34.6678962707519602
 17.9812867874279618 17.8019735813140869 40.8961753845214844
  0.2578712999820709  8.9369211196899414 40.9866714477539062
  9.0245285034179688  0.0849278122186661 40.8876533508300852
  9.0719518661499023  8.9504661560058594 40.9234733581542969
  4.6420578956604004  4.4039845466613770 40.8953247070312500
  4.5974388122558585 13.6481943130493164 40.8959732055664062
 13.4896802902221662  4.8322072029113761 40.9300193786621165
 13.4685668945312500 13.4261407852172852 40.8962554931640625
  2.3487973213195801  2.1921191215515137 37.9641990661621094
  2.7574062347412105 10.9478359222412109 38.0420722961425781
 11.5644102096557617  2.0568809509277344 38.1392326354980540
 11.3617563247680664 11.2062892913818359 38.0763053894042969
  6.5822629928588867  6.9960598945617667 37.9735221862792969
  6.7278294563293457 15.9391956329345703 37.8930320739746094
 16.0276355743408203  6.6965670585632324 38.0801010131836009
 15.6688203811645490 15.9184703826904297 37.8888206481933594
  2.2168908119201660  6.6046819686889648 38.0102043151855469
  2.2222828865051270 15.8261251449584961 37.9265708923339844
 10.7552022933959961  6.2665233612060547 37.6163902282714915
 11.1084165573120117 15.6542911529541016 38.2878761291503906
  6.9586901664733887  2.3995428085327148 37.8594551086425781
  6.9270596504211417 11.4262800216674805 38.1984939575195312
 15.9339733123779297  2.4575119018554683 38.2907257080078125
 16.3081569671630859 11.6143360137939453 38.4313316345214844
  0.0000000000000000  0.0000000000000000 47.1735610961914062
 -0.0024593239650130  9.0313997268676740 47.1735610961914062
  9.0304002761840803  0.0000000000000000 47.1735610961914062
  9.0279407501220685  9.0313997268676740 47.1735610961914062
  4.5139794349670410  4.5156998634338379 47.1742515563964844
  4.5115203857421875 13.5470991134643537 47.1742515563964844
 13.5443792343139648  4.5156998634338379 47.1742515563964844
 13.5419197082519531 13.5470991134643537 47.1742515563964844
  2.4519233703613277  2.0629522800445557 44.0401268005371165
  2.4494640827178955 11.0943517684936523 44.0401268005371165
 11.4823226928710920  2.0629522800445557 44.0401268005371165
 11.4798641204833984 11.0943517684936523 44.0401268005371165
  6.5760178565979004  6.9684472084045410 44.0401268005371165
  6.5735583305358887 15.9998464584350586 44.0401268005371165
 15.6064186096191406  6.9684472084045410 44.0401268005371165
 15.6039590835571289 15.9998464584350586 44.0401268005371165
  2.0610768795013428  6.5788145065307617 44.0400009155273509
  2.0586175918579102 15.6102142333984375 44.0400009155273509
 11.0914773941040039  6.5788145065307617 44.0400009155273509
 11.0890178680419922 15.6102142333984375 44.0400009155273509
  6.9668641090393066  2.4525938034057613 44.0400657653808665
  6.9644045829772949 11.4839935302734375 44.0400657653808665
 15.9972639083862305  2.4525938034057613 44.0400657653808665
 15.9948053359985352 11.4839935302734375 44.0400657653808665
  2.4316265583038330  2.0832188129425049 50.0684852600097656
  2.4291670322418213 11.1146183013915998 50.0684852600097656
 11.4620265960693359  2.0832188129425049 50.0684852600097656
 11.4595670700073224 11.1146183013915998 50.0684852600097656
  6.5963144302368164  6.9481806755065918 50.0684852600097656
  6.5938549041748047 15.9795799255371076 50.0684852600097656
 15.6267137527465803  6.9481806755065918 50.0684852600097656
 15.6242542266845703 15.9795799255371076 50.0684852600097656
  2.0811281204223633  6.5990090370178223 50.0690460205078125
  2.0786688327789307 15.6304082870483398 50.0690460205078125
 11.1115283966064453  6.5990090370178223 50.0690460205078125
 11.1090688705444336 15.6304082870483398 50.0690460205078125
  6.9468131065368652  2.4323906898498531 50.0690460205078125
  6.9443535804748535 11.4637899398803711 50.0690460205078125
 15.9772129058837891  2.4323906898498531 50.0690460205078125
 15.9747543334960938 11.4637899398803711 50.0690460205078125
 18.0036537982523441  0.0688794702291489 37.7952995300292969
  0.1101100295782089  9.1096372604370117 37.7966194152832031
  9.0837841033935547  0.0532072931528091 37.7628707885742259
  9.0804538726806641  9.0345268249511719 37.7537307739257812
  4.5666546821594238  4.5385417938232413 37.7550468444824219
  4.4744896888732910 13.5839071273803711 37.7181892395019531
 13.4838609695434553  4.6069545745849609 37.8132743835449219
 13.3993883132934570 13.6754150390625000 37.7157096862792969
  0.0000090280000222  0.0000090310004452 44.0429992675781250
 -0.0024502959568053  9.0314083099365234 44.0429992675781250
  9.0304088592529297  0.0000090310004452 44.0429992675781250
  9.0279493331909180  9.0314083099365234 44.0429992675781250
  4.5139703750610352  4.5156903266906738 44.0427513122558594
  4.5115113258361816 13.5470905303955078 44.0427513122558594
 13.5443706512451172  4.5156903266906738 44.0427513122558594
 13.5419111251831037 13.5470905303955078 44.0427513122558594
  0.0000000000000000  0.0000000000000000 50.4472808837890696
 -0.0024593239650130  9.0313997268676740 50.4472808837890696
  9.0304002761840803  0.0000000000000000 50.4472808837890696
  9.0279407501220685  9.0313997268676740 50.4472808837890696
  4.5139703750610352  4.5156998634338379 50.4472808837890696
  4.5115113258361816 13.5470991134643537 50.4472808837890696
 13.5443706512451172  4.5156998634338379 50.4472808837890696
 13.5419111251831055 13.5470991134643537 50.4472808837890696
