 H  C  N  I Pb 
 1.0000000000000000
    18.0608005523681641    0.0000000000000000    0.0000000000000000
    -0.0049186488613486   18.0627994537353516    0.0000000000000000
     0.0000000000000000    0.0000000000000000   62.4874992370605469
 H   C   N   I   Pb 
 143  39  47  72  24
Cartesian
  8.0076255798339844  5.4772543907165527 36.2216300964355469
  7.9734921455383301 14.7904081344604492 36.2783126831054759
 17.5488758087158203  5.5879149436950684 36.1765136718750071
 17.5194454193115234 14.5643644332885742 36.3971290588378977
  5.6714177131652832  0.3750006258487701 36.3768653869628906
  5.4710335731506348  9.9555559158325195 36.3093948364257812
 14.0166826248168945  1.1212821006774902 36.4391975402832102
  1.2371921539306625  2.5142843723297119 35.1056404113769531
  1.1251239776611339 11.7775697708129883 34.7549591064453125
 10.6857395172119141  3.4330773353576656 34.7437248229980540
 10.1293182373046875 12.0721416473388672 35.0088920593261719
  6.1390805244445801  1.1408154964447021 34.8509902954101562
  5.5423483848571777 10.8052759170532227 34.7677040100097727
 14.9914264678955078  1.4549651145935059 35.0079421997070312
  0.6546821594238287  3.3412959575653076 36.5721931457519531
  0.7595367431640636 12.3786382675170898 36.3561973571777344
 10.2855596542358398  4.3955302238464355 36.1729431152343750
  9.2797842025756836 12.5412902832031250 36.3835334777832102
  3.9812130928039551  7.9279665946960449 36.4013328552246094
  3.4897536495700479 17.1632562279701233 36.3829231262207031
 12.4476227024570107 17.2440666556358337 36.3295173645019602
  7.0130476951599121  5.2066640853881836 34.8340759277343750
  8.1560945510864258 15.6497278213500977 34.7865486145019531
 17.4552440643310547  6.1227450370788574 34.5383949279785156
 17.0893554687500000 15.2382650375366211 34.8504753112792969
  3.1246249675750732  7.5066242218017578 34.9171218872070312
  2.5622019032016397 17.1930717229843175 34.8840827941894602
 12.4424614170566201 16.3081290721893311 34.8124885559082031
  8.6231126785278320  3.8754601478576660 33.7198600769042969
  9.5245695114135742 14.0180606842041016 33.8083381652832031
  0.4535350799560552  4.1939911842346191 33.6945838928222656
  0.0493564605712910 13.4749298095703107 33.6513519287109446
  4.0437150001525879  9.2866706848144531 33.7474136352539062
  4.2041840553283691  0.4350058138370514 33.7789268493652344
 14.0370105961337686 17.6780182719230652 33.8453407287597656
  8.2444248199462891  5.5666933059692383 42.2253532409667969
  7.9228563308715820 14.6098060607910156 42.1553268432617259
 17.2064156532287598  5.2708058357238770 42.3724174499511790
 17.0096845626831055 14.5170574188232422 42.2478675842285156
  5.3700799942016602  0.9019936323165894 42.2164039611816477
  5.4109025001525879 10.0775289535522443 42.2153320312500000
 14.5105247497558594  0.8812701702117920 42.1515731811523438
 14.5102043151855469 10.3607931137084943 42.0776062011718750
  1.5010572671890259  3.0723590850830078 40.5147933959960938
  1.5807631015777588 12.3689031600952148 40.8607597351074290
 10.3030443191528320  2.9250292778015132 40.6577415466308665
 10.3141498565673828 12.1407060623168945 40.7837829589843750
  3.3132841587066650  7.5084681510925293 40.5817413330078196
  3.0755113819614053 16.5763696432113647 40.5681724548339844
 12.3141584396362305  7.5476374626159668 41.0154457092285156
 11.9886259296908975 16.7415002584457397 40.5770874023437571
  1.0513467788696289  3.4735813140869141 42.1333847045898438
  0.7757608890533446 12.6821479797363281 42.3560447692871094
 10.1204872131347656  3.7008011341094971 42.1864051818847656
  9.7648572921752930 12.7075777053832990 42.3490295410156250
  3.7776443958282466  8.0037250518798828 42.1826362609863281
  3.5090054729953408 17.0887788534164429 42.1846427917480469
 12.6551132202148438  8.4375476837158203 42.4657516479492188
 12.4880346516147256 17.2443493604660034 42.1751213073730469
  7.4573974609374991  5.7604980468750000 40.7009201049804759
  7.5137033462524405 15.0241413116455078 40.5349540710449290
 16.6300295591354406  5.8310976028442383 40.8058395385742259
 16.8043329715728760 15.1872215270996076 40.6705207824707031
  5.9072933197021484  1.3725694417953491 40.6414260864257884
  5.8212704658508301 10.6516113281250000 40.6167259216308594
 15.0820560455322266  1.2583988904953003 40.5587120056152415
 15.0736627578735352 10.4801187515258789 40.4156417846679688
 18.0195709988474881  4.5388307571411133 39.5684394836425852
  0.4149301350116730 13.9557781219482422 39.7056312561035227
  8.6189012527465820  4.1405377388000488 39.5876502990722656
  8.9413404464721680 13.5559988021850586 39.5550003051757812
  4.5502156475558877 18.0053881220519543 39.4823417663574290
  4.5638685226440430  9.1434392929077148 39.4816131591796946
 13.5502409199252725 17.9532426595687866 39.4476165771484446
 13.7359113693237305  8.7132616043090820 39.6781196594238281
  8.1032123565673828  5.4420318603515616 48.0459518432617259
  8.1007528305053711 14.4734306335449219 48.0459518432617259
 17.1336116790771484  5.4420318603515616 48.0459518432617259
 17.1311531066894531 14.4734306335449219 48.0459518432617259
  5.4410333633422852  0.9265221953392029 48.0449485778808594
  5.4385743141174316  9.9579219818115234 48.0449485778808594
 14.4714326858520490  0.9265221953392029 48.0449485778808594
 14.4689741134643555  9.9579219818115234 48.0449485778808594
  1.4218254089355467  3.0919990539550781 46.4558296203613281
  1.4193661212921143 12.1233978271484375 46.4558296203613281
 10.4522256851196289  3.0919990539550781 46.4558296203613281
 10.4497661590576172 12.1233978271484375 46.4558296203613281
  3.0899283885955806  7.6075901985168457 46.4545211791992188
  3.0874691009521484 16.6389904022216797 46.4545211791992188
 12.1203289031982422  7.6075901985168457 46.4545211791992188
 12.1178693771362305 16.6389904022216797 46.4545211791992188
  0.9247469902038573  3.5893490314483643 48.0459518432617259
  0.9222877025604248 12.6207475662231445 48.0459518432617259
  9.9551477432250977  3.5893490314483643 48.0459518432617259
  9.9526882171630859 12.6207475662231445 48.0459518432617259
  3.5868983268737793  8.1048498153686523 48.0448913574218821
  3.5844390392303462 17.1362495422363281 48.0448913574218821
 12.6172990798950195  8.1048498153686523 48.0448913574218821
 12.6148395538330078 17.1362495422363281 48.0448913574218821
  7.6061611175537109  5.9393639564514160 46.4558296203613281
  7.6037015914916992 14.9707632064819336 46.4558296203613281
 16.6365604400634766  5.9393639564514160 46.4558296203613281
 16.6341018676757812 14.9707632064819336 46.4558296203613281
  5.9380125999450684  1.4238001108169553 46.4545211791992188
  5.9355530738830566 10.4551992416381836 46.4545211791992188
 14.9684123992919904  1.4238001108169553 46.4545211791992188
 14.9659538269042951 10.4551992416381836 46.4545211791992188
 -0.0011664569610730  4.5157265663146973 45.3548011779785156
 -0.0036257810425013 13.5471258163452148 45.3548011779785156
  9.0292339324951172  4.5157265663146973 45.3548011779785156
  9.0267744064331037 13.5471258163452148 45.3548011779785156
  4.5152091979980469  0.0000000000000000 45.3536758422851562
  4.5127501487731934  9.0313997268676740 45.3536758422851562
 13.5456094741821289  0.0000000000000000 45.3536758422851562
 13.5431499481201172  9.0313997268676740 45.3536758422851562
 14.1014175415039062 10.1428184509277344 32.8708801269531250
 13.1400995254516602  8.6271610260009766 33.0119094848632812
 15.6888608932495099  9.1460943222045898 34.2651786804199219
 15.3480367660522461  8.7190847396850586 35.9413375854492188
 13.3580751419067383 11.5872373580932617 35.4234428405761719
 14.3803691864013654 10.6843738555908203 36.5166778564453125
 11.7435522079467773  9.6862134933471680 35.7381515502929688
 12.1183376312255842  8.0848159790039062 35.0887451171875071
 11.1597108840942365  9.8678340911865234 33.7189178466796875
 12.0880155563354492 11.3711538314819336 33.9633407592773509
 11.1665620803833008 11.8613014221191406 31.8705768585205078
 12.6080255508422852 10.9683198928833008 31.3439083099365234
 14.9569005966186523  7.0646162033081055 33.4250183105468750
 13.7130060195922852  6.9836039543151855 34.6110496520996094
 15.3146600723266602  6.5151963233947754 35.0722312927246094
 15.4330301284790039 12.4905710220336914 34.9576721191406250
 15.3439884185791016 11.3719482421875000 33.6707038879394531
 16.2888145446777344 10.9253120422363281 35.0837974548339844
 13.7684211730957031  9.1449451446533203 37.4836044311523438
 13.3837156295776367  7.4884681701660156 37.0167884826660227
 12.1385183334350568  8.5179271697998047 37.7378540039062500
  9.7832717895507812  9.7412633895874006 31.8305797576904297
 10.4525756835937500 10.1509561538696289 30.2110900878906286
 13.0402488708496094  9.0121850967407227 29.8381633758544922
  9.9664602279663086  7.5540494918823242 32.5381546020507812
 14.1714105606079102  6.7797555923461914 29.9555149078369141
 11.1700878143310547  5.3518443107604980 32.6746063232421875
 13.2829246520996094  4.9452738761901855 31.4342689514160192
  0.3150844573974607  4.2883648872375488 34.7730979919433594
  0.0681610107421901 13.5087928771972656 34.7169380187988281
  8.8146505355834961  4.3211994171142578 34.6840286254882812
  9.1443510055541992 13.8762626647949201 34.8152236938476562
  4.3432750701904297  9.1749229431152344 34.7974243164062500
  4.3695039749145508  0.1559382826089859 34.8264541625976634
 13.7054228046908975 17.8933795392513275 34.8685150146484375
  0.0222080349922180  4.4625229835510254 40.6227378845214844
  0.1595494747161865 13.8021841049194336 40.7228088378906321
  8.8520841598510742  4.3498625755310059 40.6430091857910227
  8.9166069030761719 13.5856571197509766 40.6167297363281250
  4.5607099533081046  9.0558195114135742 40.5502700805664062
  4.5085686901584268 18.0229240432381630 40.5577774047851634
 13.7010774612426758  9.0197677612304688 40.7133827209472656
 13.5492824772372842 18.0448716674000025 40.5208969116210938
  9.0289716720581055  4.5156092643737793 46.4455223083496165
  9.0265130996704102 13.5470085144042969 46.4455223083496165
 18.0593719482421875  4.5156092643737793 46.4455223083496165
 18.0569133758544922 13.5470085144042969 46.4455223083496165
  4.5152091979980469  0.0000180629995157 46.4442062377929759
  4.5127501487731934  9.0314178466796857 46.4442062377929759
 13.5456094741821289  0.0000180629995157 46.4442062377929759
 13.5431499481201172  9.0314178466796857 46.4442062377929759
 11.3864250183105469  8.4095592498779297 31.1972274780273438
 12.5739765167236310  8.1688928604125977 30.4428615570068359
 10.8738193511962873  7.3572635650634766 31.9761943817138672
 13.2142972946166974  6.9660568237304688 30.5285701751708984
 11.5288248062133789  6.1519117355346680 32.0323448181152344
 12.7206020355224609  5.9247889518737793 31.3218746185302734
 13.2668581008911133  9.6520166397094727 33.4080162048339844
 14.9756278991699219  8.6548976898193359 34.9141540527343821
 14.1618328094482422 10.8705463409423828 35.4596862792968750
 12.5450019836425781  8.9263114929199219 35.6763153076171875
 11.9900226593017578 10.4501676559448224 33.3212814331054688
 11.6253728866577148 10.8372306823730451 31.8785228729248047
 14.7470474243164062  7.2392730712890625 34.4818916320800781
 15.3834085464477539 11.4260902404785156 34.7589912414550781
 12.9903831481933576  8.4898233413696289 37.0456542968750071
 10.7318716049194318  9.7873640060424805 31.2174110412597692
  0.7690925598144536  3.3368561267852783 35.5213165283203125
  0.6918239593505866 12.4998683929443359 35.3089790344238281
  9.9907913208007812  4.0004200935363770 35.2280426025390696
  9.5642261505126935 12.7908744812011719 35.4399414062500000
  7.9183688163757324  5.0377330780029297 35.2582092285156321
  8.3868703842163086 14.7911672592163086 35.2896881103515625
 17.7216339111328125  5.3626437187194824 35.1683006286621094
 17.5392894744873047 14.4881858825683576 35.3674430847167969
  3.8045725822448730  8.1277675628662109 35.4370536804199219
  3.4305857876315713 17.4683870673179626 35.4295578002929759
 12.8007225254550576 17.1371034979820251 35.3931465148925781
  5.4447083473205566  0.5688319802284241 35.4128227233886719
  5.1576886177062979 10.0102090835571289 35.3529319763183594
 14.2940206527709961  0.8450114130973816 35.5178031921386719
  0.9342205524444580  3.5970156192779541 41.1510009765625071
  0.9081256985664368 12.8675775527954102 41.3842124938964844
  9.8368253707885742  3.6024422645568848 41.2235488891601562
  9.6865348815917969 12.7910509109497070 41.3180885314941406
  3.8541986942291260  8.1473264694213867 41.1292991638183594
  3.6270908573642373 17.1611835956573486 41.1288948059082031
 12.8584156036376935  8.3244829177856445 41.4605026245117188
 12.6002401569858193 17.2844998836517334 41.1205329895019602
  8.1639480590820312  5.2569518089294434 41.2139854431152344
  8.0808811187744141 14.4495487213134766 41.1301765441894531
 17.2876265048980713  5.2025499343872070 41.3220672607421875
 17.2815108299255407 14.5288143157958967 41.2864189147949219
  5.2886443138122559  0.7691528797149658 41.1633377075195312
  5.3207406997680664 10.0052318572998047 41.1604957580566406
 14.4105939865112305  0.7313611507415771 41.1007461547851562
 14.4337024688720685  9.9907140731811523 41.1407318115234446
  0.8273094892501831  3.6869695186614990 47.0359649658203125
  0.8248501420021057 12.7183685302734375 47.0359649658203125
  9.8577098846435547  3.6869695186614990 47.0359649658203125
  9.8552503585815412 12.7183685302734375 47.0359649658203125
  3.6843190193176270  8.2023353576660156 47.0346527099609375
  3.6818594932556152 17.2337341308593750 47.0346527099609375
 12.7147188186645508  8.2023353576660156 47.0346527099609375
 12.7122592926025391 17.2337341308593750 47.0346527099609375
  8.2006769180297852  5.3445744514465332 47.0360260009765696
  8.1982173919677734 14.3759746551513672 47.0360260009765696
 17.2310771942138672  5.3445744514465332 47.0360260009765696
 17.2286186218261719 14.3759746551513672 47.0360260009765696
  5.3436489105224600  0.8290914893150328 47.0346527099609375
  5.3411893844604483  9.8604917526245117 47.0346527099609375
 14.3740482330322266  0.8290914893150328 47.0346527099609375
 14.3715896606445312  9.8604917526245117 47.0346527099609375
 13.7106637954711914  9.5599851608276367 34.8736343383789062
  8.8835163116455078  0.2743247449398041 34.4640388488769602
  8.5653753280639648  9.3731679916381836 34.8701629638671875
  0.0181701937690377 17.9722969233989716 34.4999084472656250
  0.5198713541030884  8.7325124740600586 34.3960723876953125
  4.4794549942016602  4.5077447891235352 34.4722862243652415
  4.4988555908203125 13.5220108032226545 34.5110397338867188
 13.6251544952392578  3.9932320117950439 34.7236557006836009
 13.1635990142822266 14.0316467285156232 34.2116775512695312
  0.0865400070324540 18.0260448232293129 40.9088706970214844
  0.1577090024948120  9.1391477584838867 40.9141159057617259
  9.0619459152221680  0.0314369536936283 40.8684806823730469
  9.0898427963256836  8.8594169616699219 40.9961242675781250
  4.4879846572875977  4.4855742454528809 40.8783149719238352
  4.4524917602539062 13.5738878250122070 40.9154319763183594
 13.3907194137573242  4.5440716743469238 40.9458045959472656
 13.6576747894287109 13.7091979980468750 40.8393402099609375
  2.5752944946289062  1.8797924518585205 38.0745162963867188
  2.5942664146423340 10.9392728805541992 37.9163513183593821
 11.6215124130249006  1.8068867921829224 37.9597854614257812
 11.2240762710571289 11.3770399093627930 38.3410987854003906
  6.3767366409301758  7.1234602928161621 37.9898490905761719
  6.3918070793151855 16.1020603179931641 37.9937705993652344
 15.9844179153442383  6.6469378471374512 38.3594322204589844
 15.4729757308959961 16.1917343139648438 37.8966331481933594
  1.9537158012390134  6.4682445526123047 37.9863815307617188
  1.9714577198028564 15.5146360397338867 37.9711570739746094
 10.4901313781738281  6.0173501968383789 38.0531005859375071
 10.9959449768066406 15.5573387145996094 38.0616073608398438
  6.9875469207763672  2.4728949069976807 37.9693870544433665
  6.9367527961730957 11.4772014617919922 38.1455612182617259
 16.1482181549072266  2.5037765502929688 38.1317291259765696
 16.5147933959960938 11.9068622589111328 38.3812026977539062
  0.0000000000000000  0.0000000000000000 47.1735610961914062
 -0.0024593239650130  9.0313997268676740 47.1735610961914062
  9.0304002761840803  0.0000000000000000 47.1735610961914062
  9.0279407501220685  9.0313997268676740 47.1735610961914062
  4.5139794349670410  4.5156998634338379 47.1742515563964844
  4.5115203857421875 13.5470991134643537 47.1742515563964844
 13.5443792343139648  4.5156998634338379 47.1742515563964844
 13.5419197082519531 13.5470991134643537 47.1742515563964844
  2.4519233703613277  2.0629522800445557 44.0401268005371165
  2.4494640827178955 11.0943517684936523 44.0401268005371165
 11.4823226928710920  2.0629522800445557 44.0401268005371165
 11.4798641204833984 11.0943517684936523 44.0401268005371165
  6.5760178565979004  6.9684472084045410 44.0401268005371165
  6.5735583305358887 15.9998464584350586 44.0401268005371165
 15.6064186096191406  6.9684472084045410 44.0401268005371165
 15.6039590835571289 15.9998464584350586 44.0401268005371165
  2.0610768795013428  6.5788145065307617 44.0400009155273509
  2.0586175918579102 15.6102142333984375 44.0400009155273509
 11.0914773941040039  6.5788145065307617 44.0400009155273509
 11.0890178680419922 15.6102142333984375 44.0400009155273509
  6.9668641090393066  2.4525938034057613 44.0400657653808665
  6.9644045829772949 11.4839935302734375 44.0400657653808665
 15.9972639083862305  2.4525938034057613 44.0400657653808665
 15.9948053359985352 11.4839935302734375 44.0400657653808665
  2.4316265583038330  2.0832188129425049 50.0684852600097656
  2.4291670322418213 11.1146183013915998 50.0684852600097656
 11.4620265960693359  2.0832188129425049 50.0684852600097656
 11.4595670700073224 11.1146183013915998 50.0684852600097656
  6.5963144302368164  6.9481806755065918 50.0684852600097656
  6.5938549041748047 15.9795799255371076 50.0684852600097656
 15.6267137527465803  6.9481806755065918 50.0684852600097656
 15.6242542266845703 15.9795799255371076 50.0684852600097656
  2.0811281204223633  6.5990090370178223 50.0690460205078125
  2.0786688327789307 15.6304082870483398 50.0690460205078125
 11.1115283966064453  6.5990090370178223 50.0690460205078125
 11.1090688705444336 15.6304082870483398 50.0690460205078125
  6.9468131065368652  2.4323906898498531 50.0690460205078125
  6.9443535804748535 11.4637899398803711 50.0690460205078125
 15.9772129058837891  2.4323906898498531 50.0690460205078125
 15.9747543334960938 11.4637899398803711 50.0690460205078125
  0.0171371772885323  0.0490134358406067 37.7312850952148438
  0.0985043644905090  9.0726928710937500 37.7271118164062500
  9.0591974258422852  0.1040627062320709 37.6298446655273509
  8.9269914627075195  8.9468984603881836 37.9224052429199219
  4.5002360343933105  4.4475674629211426 37.6218833923339915
  4.5063028335571289 13.5482883453369141 37.6053161621093750
 13.4651403427124006  4.4322619438171387 37.8305358886718821
 13.5091390609741211 13.6990365982055664 37.7556114196777344
  0.0000090280000222  0.0000090310004452 44.0429992675781250
 -0.0024502959568053  9.0314083099365234 44.0429992675781250
  9.0304088592529297  0.0000090310004452 44.0429992675781250
  9.0279493331909180  9.0314083099365234 44.0429992675781250
  4.5139703750610352  4.5156903266906738 44.0427513122558594
  4.5115113258361816 13.5470905303955078 44.0427513122558594
 13.5443706512451172  4.5156903266906738 44.0427513122558594
 13.5419111251831037 13.5470905303955078 44.0427513122558594
  0.0000000000000000  0.0000000000000000 50.4472808837890696
 -0.0024593239650130  9.0313997268676740 50.4472808837890696
  9.0304002761840803  0.0000000000000000 50.4472808837890696
  9.0279407501220685  9.0313997268676740 50.4472808837890696
  4.5139703750610352  4.5156998634338379 50.4472808837890696
  4.5115113258361816 13.5470991134643537 50.4472808837890696
 13.5443706512451172  4.5156998634338379 50.4472808837890696
 13.5419111251831055 13.5470991134643537 50.4472808837890696
