 H  C  N  I Pb 
 1.0000000000000000
    18.0608005523681641    0.0000000000000000    0.0000000000000000
    -0.0049186488613486   18.0627994537353516    0.0000000000000000
     0.0000000000000000    0.0000000000000000   62.4874992370605469
 H   C   N   I   Pb 
 143  39  47  72  24
Cartesian
  8.1641054153442383  6.0500278472900391 35.2830238342285156
  7.7652540206909171 14.9964933395385724 35.5727195739746094
 17.3518505096435547  5.9362711906433105 36.0078582763671946
 17.0695095062255859 14.7257862091064453 35.8209991455078196
  5.9761795261874795 17.2482105493545532 35.7852363586425781
  6.3668241500854492  9.9067173004150391 34.9111938476562571
 14.5589256286621094  1.5878751277923582 35.3460006713867188
  0.1873340606689453  2.5850715637207031 34.9840927124023438
  1.2823848724365237 11.9291820526123047 35.5894279479980540
  9.9886465072631836  2.9153823852539062 34.8261299133300781
  8.9605722427368164 11.6443128585815412 34.9730644226074290
  6.5600290298461914  0.4952569603919983 34.7946662902832031
  5.3693342208862305 11.3428478240966797 34.5901184082031250
 15.8563365936279297  0.4593804776668549 34.8834838867187500
 17.2436981201171875  3.4743824005126953 36.1143226623535156
 17.9133052825927734 12.4600334167480469 36.4294853210449219
 10.2206935882568359  4.5456004142761222 35.4371032714843750
  7.8232746124267569 12.5413751602172852 35.9319152832031321
  5.0598726272583008  7.9036335945129395 35.7531166076660227
  3.5776006439700723 16.7560808658599854 35.7516403198242188
 12.2900505065917969  0.5880588889122009 35.6017532348632812
  6.7219619750976562  5.2614622116088867 34.6505012512207102
  8.9877347946166992 15.7053079605102539 34.5425186157226562
  0.3302783966064459  6.6602177619934073 34.8097877502441477
 17.9565429687500000 15.6313953399658185 34.6363868713378906
  3.3311891555786133  7.9942770004272461 35.5166015625000000
  2.5135368565097451 17.8887697160243988 34.9434738159179688
 12.1439480045810342 16.9461462497711182 35.1639175415039062
  7.8029928207397461  3.2662916183471680 34.2301940917968750
  9.8825016021728516 13.5871047973632812 33.9946136474609375
  1.1191940307617174  4.5499091148376465 34.0800514221191477
  1.5065212249755853 13.9116134643554670 34.3780479431152344
  3.3683657646179199 10.1530065536499023 34.7666664123535156
  4.3492660522460938  1.1522901058197019 34.2097396850585938
 14.3674501636996848 16.7265400886535645 34.6839294433593821
  8.7727775573730469  6.1325139999389648 41.3528518676757812
  8.1193857192993164 14.6567668914794904 42.0837516784667969
 17.4338115453720093  5.1209650039672852 42.2752304077148438
 16.7869980335235631 13.0910415649414045 42.0533828735351634
  5.5821452140808097  1.0157635211944580 41.8574905395507812
  5.3773503303527832  9.9034118652343750 42.1894302368164062
 14.4624691009521484  1.0127292871475220 42.1458663940429688
 13.7196063995361328 10.7966556549072266 41.0710639953613281
  1.5495035648345945  2.9385848045349121 40.2895317077636719
  2.0849575996398926 12.9968805313110352 40.6592292785644602
 10.3226041793823224  2.8973963260650635 40.7233695983886719
 10.1798486709594727 11.9730319976806641 40.6558418273925852
  3.2048308849334717  7.4740576744079590 40.4852027893066406
  3.1309999683871865 16.6197650432586670 40.6419944763183665
 12.6328639984130842  7.3278341293334961 41.2765998840332031
 12.1692661503329855 16.6363734006881749 40.6347961425781250
  1.1351077556610107  3.2713747024536133 41.9585075378417969
  1.0621926784515381 12.2001609802246094 41.8167991638183594
 10.7362632751464826  4.5143270492553711 41.2017822265625000
  9.6122751235961914 12.5442266464233398 42.2146987915039062
  3.5928409099578857  8.0087499618530273 42.1034584045410156
  3.7456094482913613 17.2522783875465393 42.1423873901367188
 12.0168943405151367  8.9531307220458984 41.4327507019042969
 12.5959104755893350 17.3009218573570251 42.1952438354492259
  7.1955327987670898  5.4225964546203613 41.0639038085937571
  7.8731489181518555 15.2566909790039062 40.4744834899902344
 16.9178133010864258  5.8820538520812988 40.7921409606933594
 16.3326883316040039 14.3639650344848633 40.9685745239257884
  5.9742169380187988  1.3764960765838623 40.1958923339843750
  5.9479503631591797 10.4217720031738281 40.6284942626953196
 15.0706691741943342  1.3768349885940552 40.5475502014160156
 15.3097429275512695 10.2719593048095703 40.6608276367187571
  0.1689621657133102  4.5681104660034180 39.4399299621582031
  0.3983057141304016 14.4582443237304688 39.9665184020996094
  8.0536727905273438  3.3189983367919922 40.5794143676757884
  9.1438980102539062 13.6216659545898438 39.4607200622558665
  4.4662403324618936 17.9319589734077454 39.3250122070312500
  4.6604628562927246  8.9237899780273438 39.4573059082031250
 13.6938289860263467 17.9112578332424199 39.4855918884277344
 14.7817840576171857  8.0096149444580078 40.7289543151855469
  8.1032123565673828  5.4420318603515616 48.0459518432617259
  8.1007528305053711 14.4734306335449219 48.0459518432617259
 17.1336116790771484  5.4420318603515616 48.0459518432617259
 17.1311531066894531 14.4734306335449219 48.0459518432617259
  5.4410333633422852  0.9265221953392029 48.0449485778808594
  5.4385743141174316  9.9579219818115234 48.0449485778808594
 14.4714326858520490  0.9265221953392029 48.0449485778808594
 14.4689741134643555  9.9579219818115234 48.0449485778808594
  1.4218254089355467  3.0919990539550781 46.4558296203613281
  1.4193661212921143 12.1233978271484375 46.4558296203613281
 10.4522256851196289  3.0919990539550781 46.4558296203613281
 10.4497661590576172 12.1233978271484375 46.4558296203613281
  3.0899283885955806  7.6075901985168457 46.4545211791992188
  3.0874691009521484 16.6389904022216797 46.4545211791992188
 12.1203289031982422  7.6075901985168457 46.4545211791992188
 12.1178693771362305 16.6389904022216797 46.4545211791992188
  0.9247469902038573  3.5893490314483643 48.0459518432617259
  0.9222877025604248 12.6207475662231445 48.0459518432617259
  9.9551477432250977  3.5893490314483643 48.0459518432617259
  9.9526882171630859 12.6207475662231445 48.0459518432617259
  3.5868983268737793  8.1048498153686523 48.0448913574218821
  3.5844390392303462 17.1362495422363281 48.0448913574218821
 12.6172990798950195  8.1048498153686523 48.0448913574218821
 12.6148395538330078 17.1362495422363281 48.0448913574218821
  7.6061611175537109  5.9393639564514160 46.4558296203613281
  7.6037015914916992 14.9707632064819336 46.4558296203613281
 16.6365604400634766  5.9393639564514160 46.4558296203613281
 16.6341018676757812 14.9707632064819336 46.4558296203613281
  5.9380125999450684  1.4238001108169553 46.4545211791992188
  5.9355530738830566 10.4551992416381836 46.4545211791992188
 14.9684123992919904  1.4238001108169553 46.4545211791992188
 14.9659538269042951 10.4551992416381836 46.4545211791992188
 -0.0011664569610730  4.5157265663146973 45.3548011779785156
 -0.0036257810425013 13.5471258163452148 45.3548011779785156
  9.0292339324951172  4.5157265663146973 45.3548011779785156
  9.0267744064331037 13.5471258163452148 45.3548011779785156
  4.5152091979980469  0.0000000000000000 45.3536758422851562
  4.5127501487731934  9.0313997268676740 45.3536758422851562
 13.5456094741821289  0.0000000000000000 45.3536758422851562
 13.5431499481201172  9.0313997268676740 45.3536758422851562
 14.0160074234008789 10.0617218017578125 32.4714775085449219
 12.9936304092407227  8.6456222534179688 32.7938613891601562
 15.6823205947875977  9.0504035949707013 33.6666450500488281
 15.5084095001220703  8.6953639984130859 35.3869285583496094
 13.4479751586914045 11.5898323059082031 35.0026283264160227
 14.6600036621093750 10.7720880508422852 35.9974441528320312
 12.0337209701538086  9.8908863067626953 35.5602722167968750
 12.2828941345214844  8.2022457122802734 35.0190315246582031
 11.1469659805297834 10.0803747177124023 33.5618743896484375
 12.1586065292358398 11.5328845977783203 33.4345130920410156
 10.9511175155639631 11.6634731292724609 31.4766960144042969
 12.4029579162597638 10.8838911056518555 30.8883495330810547
 14.1921739578247070  7.0402736663818359 33.1267585754394531
 14.0657119750976562  6.7174258232116699 34.8533706665039062
 15.6313333511352539  6.6393570899963379 34.0532188415527344
 15.5877885818481445 12.5726022720336914 34.5733871459960938
 15.1931848526000977 11.6864681243896484 33.1006889343261790
 16.3795642852783203 11.0101079940795898 34.2597503662109375
 13.8962259292602521  9.5442867279052717 37.3076705932617188
 13.9586687088012695  7.8325214385986328 36.8120727539062500
 12.4794549942016602  8.5049676895141602 37.4974098205566406
  9.6912155151367188  9.5551881790161133 31.5181007385253906
 10.3802461624145508  9.8720121383666974 29.9127273559570312
 12.6527585983276367  8.6722364425659180 29.3489437103271520
 10.0591297149658185  7.4938845634460449 32.5609664916992188
 13.8052110671997070  6.4796876907348633 29.4673557281494176
 11.2133207321166992  5.2967958450317383 32.7047653198242259
 13.1148643493652344  4.7907080650329590 31.1762485504150391
  0.3349208831787130  4.6085700988769531 34.8393669128417969
  0.6490898132324203 13.7724046707153320 35.0471191406250071
  8.3717432022094727  4.1006555557250977 34.6554946899414062
  9.0229167938232422 13.6637516021728516 34.6672401428222656
  4.3209433555603027  9.6588649749755859 34.9786605834960938
  4.5212078094482422  0.2473498582839966 34.8016052246093821
 14.0062336185947043 17.7084299027919769 34.9978065490722656
  0.1993003040552139  4.4117679595947266 40.5240707397460938
  0.1855468451976776 13.7282714843750000 40.7583312988281250
  8.7316474914550781  4.1323809623718262 40.8625717163085938
  9.0300388336181641 13.6144084930419904 40.5451202392578125
  4.5843434333801261  8.9455814361572266 40.5473365783691406
  4.5481061199679971 18.0266114026308060 40.4110527038574219
 14.0046720504760742  8.7578668594360352 40.9457321166992188
 13.6239046314731223 18.0254623889923096 40.5714149475097656
  9.0289716720581055  4.5156092643737793 46.4455223083496165
  9.0265130996704102 13.5470085144042969 46.4455223083496165
 18.0593719482421875  4.5156092643737793 46.4455223083496165
 18.0569133758544922 13.5470085144042969 46.4455223083496165
  4.5152091979980469  0.0000180629995157 46.4442062377929759
  4.5127501487731934  9.0314178466796857 46.4442062377929759
 13.5456094741821289  0.0000180629995157 46.4442062377929759
 13.5431499481201172  9.0314178466796857 46.4442062377929759
 11.2839050292968732  8.2428083419799805 30.9587001800537109
 12.3432216644287092  7.9316062927246085 30.0939006805419922
 10.8860359191894531  7.2647333145141602 31.8851947784423864
 12.9877510070800781  6.6974725723266602 30.1557426452636754
 11.5370130538940430  6.0274152755737305 31.9617481231689489
 12.5963850021362305  5.7455816268920898 31.0988311767578161
 13.2125444412231428  9.6720275878906250 33.1030654907226562
 15.0055103302001935  8.6254405975341797 34.4151992797851562
 14.3200292587280273 10.9305543899536115 34.9684867858886719
 12.7648601531982422  9.0775060653686523 35.4760551452636719
 11.9710645675659162 10.5361900329589844 32.9933547973632812
 11.5248947143554688 10.7322025299072266 31.5304870605468786
 14.6837072372436506  7.1877517700195304 34.0923728942871094
 15.4370183944702131 11.5632352828979492 34.1659851074218750
 13.3264541625976562  8.7280340194702148 36.8354072570800852
 10.6411333084106445  9.6047859191894531 30.9520606994628906
 17.9484004974365234  3.4931433200836182 35.3539505004882884
  0.5906753540039072 12.6591958999633789 35.7347145080566406
  9.6386690139770508  3.8737533092498779 34.9251136779785156
  8.5437650680541992 12.5537853240966779 35.1943397521972656
  7.7356386184692374  5.2383589744567871 34.8312339782714915
  8.5222797393798828 14.8617868423461914 34.8948402404785156
 17.9738368988037109  5.8000273704528809 35.1885337829589844
 17.7965106964111328 14.7212066650390607 35.0942535400390696
  4.2561373710632324  8.3965091705322266 35.3484306335449219
  3.4781896332278848 17.5936814546585083 35.1687889099121094
 12.7177299717441183 17.8050287663936615 35.2256431579589844
  5.7503251293674111 18.0067464411258698 35.1276283264160156
  5.4336223602294922 10.3370285034179688 34.8246269226074219
 14.8719501495361328  0.6256648898124695 35.1419296264648438
  1.0019949674606323  3.4755806922912598 40.9636001586914062
  1.1487995386123657 12.8889780044555646 41.0691719055175781
 10.0143213272094727  3.8377571105957027 40.9476013183593750
  9.6331577301025391 12.6491498947143555 41.1972656250000071
  3.7402536869049072  8.1021871566772461 41.1012344360351562
  3.7649304131045933 17.2657758593559265 41.1299743652343750
 12.7928495407104492  8.3331432342529297 41.1972160339355469
 12.7513879993930441 17.2785026431083679 41.1937103271484375
  8.2143869400024414  5.3169727325439453 41.1027259826660156
  8.3092107772827148 14.5682268142700195 41.0853309631347656
 17.4924482107162476  5.1770577430725098 41.2561111450195384
 17.0594267845153809 13.7427883148193359 41.3117179870605469
  5.4295077323913574  0.8319129347801208 40.8701362609863281
  5.3459644317626953  9.7957391738891602 41.1822395324707031
 14.4313697814941406  0.8418792486190795 41.1405868530273509
 14.3685951232910138 10.0249176025390625 40.9327430725097727
  0.8273094892501831  3.6869695186614990 47.0359649658203125
  0.8248501420021057 12.7183685302734375 47.0359649658203125
  9.8577098846435547  3.6869695186614990 47.0359649658203125
  9.8552503585815412 12.7183685302734375 47.0359649658203125
  3.6843190193176270  8.2023353576660156 47.0346527099609375
  3.6818594932556152 17.2337341308593750 47.0346527099609375
 12.7147188186645508  8.2023353576660156 47.0346527099609375
 12.7122592926025391 17.2337341308593750 47.0346527099609375
  8.2006769180297852  5.3445744514465332 47.0360260009765696
  8.1982173919677734 14.3759746551513672 47.0360260009765696
 17.2310771942138672  5.3445744514465332 47.0360260009765696
 17.2286186218261719 14.3759746551513672 47.0360260009765696
  5.3436489105224600  0.8290914893150328 47.0346527099609375
  5.3411893844604483  9.8604917526245117 47.0346527099609375
 14.3740482330322266  0.8290914893150328 47.0346527099609375
 14.3715896606445312  9.8604917526245117 47.0346527099609375
 13.8200693130493146  9.5789728164672852 34.4881477355957031
  9.2595825195312500  0.3234549760818481 34.4755592346191406
  8.6731414794921875  8.9562740325927734 34.6730308532714844
  0.1616693884134293  0.0957356914877892 34.2705421447753906
  0.6914964914321898  9.1402559280395508 34.5734024047851562
  4.2697386741638184  4.3724884986877441 34.5026245117187500
  4.6294908523559561 13.8331384658813477 34.5909156799316406
 13.3165063858032227  3.6645510196685791 34.6639060974121094
 12.6689100265502912 14.3078985214233398 34.6319427490234375
  0.0118558993563056 17.7556411623954773 40.8415412902832031
 17.9886800795793533  9.1307744979858398 40.9216308593750071
  9.0128650665283203  0.2133178561925888 40.8732795715332102
  9.2147712707519531  8.8595819473266602 40.9393157958984375
  4.7049536705017090  4.4487900733947754 40.8808097839355469
  4.6928601264953613 13.6161441802978516 40.9060287475586009
 13.5206909179687500  4.7708992958068848 40.8996658325195384
 13.4517059326171875 13.5667562484741211 40.9053344726562500
  2.4520547389984131  2.0276880264282227 37.9393348693847656
  2.7363982200622559 10.9080457687377930 38.0075492858886790
 11.7061061859130842  1.8908677101135252 38.1048316955566406
 11.1252031326293945 11.3541173934936523 38.0894813537597656
  6.4990892410278320  6.9833102226257324 37.7961425781250071
  6.7582373619079581 15.8963508605957031 37.8952903747558594
 16.0817661285400391  6.5899753570556641 38.0954666137695384
 15.7189455032348633 15.8323717117309553 37.7894554138183594
  2.2325963973999023  6.6518936157226562 38.0893745422363352
  2.2224712371826172 15.6248502731323242 37.9472503662109375
 10.6961183547973633  6.0982246398925781 37.5756874084472656
 11.1439123153686523 15.7427186965942365 38.2768821716308665
  6.9691138267517090  2.4231684207916260 37.7482604980468750
  6.9621248245239258 11.3551187515258789 38.1827163696289062
 16.0180606842041016  2.4031043052673340 38.1526451110839844
 16.1895084381103516 11.6364679336547852 38.1610984802246094
  0.0000000000000000  0.0000000000000000 47.1735610961914062
 -0.0024593239650130  9.0313997268676740 47.1735610961914062
  9.0304002761840803  0.0000000000000000 47.1735610961914062
  9.0279407501220685  9.0313997268676740 47.1735610961914062
  4.5139794349670410  4.5156998634338379 47.1742515563964844
  4.5115203857421875 13.5470991134643537 47.1742515563964844
 13.5443792343139648  4.5156998634338379 47.1742515563964844
 13.5419197082519531 13.5470991134643537 47.1742515563964844
  2.4519233703613277  2.0629522800445557 44.0401268005371165
  2.4494640827178955 11.0943517684936523 44.0401268005371165
 11.4823226928710920  2.0629522800445557 44.0401268005371165
 11.4798641204833984 11.0943517684936523 44.0401268005371165
  6.5760178565979004  6.9684472084045410 44.0401268005371165
  6.5735583305358887 15.9998464584350586 44.0401268005371165
 15.6064186096191406  6.9684472084045410 44.0401268005371165
 15.6039590835571289 15.9998464584350586 44.0401268005371165
  2.0610768795013428  6.5788145065307617 44.0400009155273509
  2.0586175918579102 15.6102142333984375 44.0400009155273509
 11.0914773941040039  6.5788145065307617 44.0400009155273509
 11.0890178680419922 15.6102142333984375 44.0400009155273509
  6.9668641090393066  2.4525938034057613 44.0400657653808665
  6.9644045829772949 11.4839935302734375 44.0400657653808665
 15.9972639083862305  2.4525938034057613 44.0400657653808665
 15.9948053359985352 11.4839935302734375 44.0400657653808665
  2.4316265583038330  2.0832188129425049 50.0684852600097656
  2.4291670322418213 11.1146183013915998 50.0684852600097656
 11.4620265960693359  2.0832188129425049 50.0684852600097656
 11.4595670700073224 11.1146183013915998 50.0684852600097656
  6.5963144302368164  6.9481806755065918 50.0684852600097656
  6.5938549041748047 15.9795799255371076 50.0684852600097656
 15.6267137527465803  6.9481806755065918 50.0684852600097656
 15.6242542266845703 15.9795799255371076 50.0684852600097656
  2.0811281204223633  6.5990090370178223 50.0690460205078125
  2.0786688327789307 15.6304082870483398 50.0690460205078125
 11.1115283966064453  6.5990090370178223 50.0690460205078125
 11.1090688705444336 15.6304082870483398 50.0690460205078125
  6.9468131065368652  2.4323906898498531 50.0690460205078125
  6.9443535804748535 11.4637899398803711 50.0690460205078125
 15.9772129058837891  2.4323906898498531 50.0690460205078125
 15.9747543334960938 11.4637899398803711 50.0690460205078125
 -0.0006126132793725 18.0258477292954922 37.7904815673828125
  0.1224658489227295  9.0931205749511701 37.8028373718261790
  9.1055831909179688  0.1246703863143921 37.7080917358398438
  8.9946689605712891  8.8925285339355469 37.7919883728027344
  4.4752526283264160  4.4535841941833496 37.6387062072753977
  4.5575723648071289 13.4527597427368164 37.7330589294433594
 13.4217805862426758  4.4554247856140137 37.6690216064453125
 13.3307275772094727 13.6349573135375977 37.6965942382812500
  0.0000090280000222  0.0000090310004452 44.0429992675781250
 -0.0024502959568053  9.0314083099365234 44.0429992675781250
  9.0304088592529297  0.0000090310004452 44.0429992675781250
  9.0279493331909180  9.0314083099365234 44.0429992675781250
  4.5139703750610352  4.5156903266906738 44.0427513122558594
  4.5115113258361816 13.5470905303955078 44.0427513122558594
 13.5443706512451172  4.5156903266906738 44.0427513122558594
 13.5419111251831037 13.5470905303955078 44.0427513122558594
  0.0000000000000000  0.0000000000000000 50.4472808837890696
 -0.0024593239650130  9.0313997268676740 50.4472808837890696
  9.0304002761840803  0.0000000000000000 50.4472808837890696
  9.0279407501220685  9.0313997268676740 50.4472808837890696
  4.5139703750610352  4.5156998634338379 50.4472808837890696
  4.5115113258361816 13.5470991134643537 50.4472808837890696
 13.5443706512451172  4.5156998634338379 50.4472808837890696
 13.5419111251831055 13.5470991134643537 50.4472808837890696
