 H  C  N  I Pb 
 1.0000000000000000
    18.0608005523681641    0.0000000000000000    0.0000000000000000
    -0.0049186488613486   18.0627994537353516    0.0000000000000000
     0.0000000000000000    0.0000000000000000   62.4874992370605469
 H   C   N   I   Pb 
 143  39  47  72  24
Cartesian
  7.8945503234863281  5.1526150703430176 36.4706687927246094
  7.8071298599243155 14.1331357955932617 36.3039817810058594
 17.0267143249511719  5.3293752670288077 36.5016822814941406
 17.1905460357666016 14.5350875854492188 36.3297080993652344
  5.4928631782531738  0.9059981703758240 36.3681068420410156
  5.5326395034790039 10.2331171035766602 36.1539344787597656
 14.1046085357666016  1.1891492605209351 36.3558502197265625
  1.5671405792236330  3.1273756027221680 34.9355888366699219
  1.5873165130615250 12.2791566848754865 34.8413810729980540
 10.7625904083251935  3.3663063049316406 34.8981399536132812
 10.8772802352905256 12.7320232391357422 34.8607406616210938
  6.3657598495483398  0.9697043299674988 34.8456039428710938
  5.6519079208374023 10.7271318435668945 34.4772224426269531
 14.9125957489013672  1.5077033042907715 34.8343696594238352
  1.1213378906249989  3.8611562252044678 36.5199050903320312
  0.7584533691406268 12.5672855377197266 36.3207168579101634
  9.9071769714355469  3.5165088176727295 36.4433479309082102
  9.9290819168090820 12.7745218276977521 36.3718452453613281
  4.1293668746948242  8.0828561782836914 36.5414924621582102
  3.3142143944278359 17.5576020479202271 36.3318824768066406
 12.5194849232211709 17.1938671469688416 36.3501510620117188
  7.4748039245605460  5.7966918945312500 34.8864631652832031
  7.4327464103698730 14.9170923233032227 34.7810630798339915
 16.2889499664306641  5.4166045188903800 34.8846626281738281
 17.0130367279052734 15.3663578033447248 34.8278427124023438
  3.4676294326782227  7.3314056396484366 35.1020469665527344
  2.9220215538516641 16.8247550725936890 34.7841262817382812
 12.4445585468783975 16.3092325925827026 34.8286705017089915
  9.2524223327636719  4.6858358383178711 33.7314071655273509
  9.3816070556640625 14.0465431213378906 33.7145080566406250
 17.7476310729980469  3.9690897464752193 33.8829040527343750
  0.5947303771972658 14.0839586257934570 33.7166404724121165
  4.3777747154235840  8.9365711212158203 33.6548004150390625
  4.8149980762973428 17.6842323839664459 33.7109107971191477
 13.9380792835727334 17.7484344840049744 33.7357749938964915
  7.9259142875671387  5.3741807937622070 42.0331954956054688
  7.9770412445068350 14.5192003250122070 42.1163711547851562
 17.0698000788688660  5.4552087783813477 42.1160430908203196
 17.0332249402999878 14.4074096679687482 42.2543334960937500
  5.4203829765319824  1.0212759971618652 42.0883598327636790
  5.4613056182861319 10.0036973953247070 42.1219787597656321
 14.6638917922973633  0.9047282934188842 42.1002120971679688
 14.4782724380493164 10.0104122161865234 42.0986480712890696
  1.4427775144577026  3.0534896850585938 40.5787200927734375
  1.5866287946701050 12.3611354827880859 40.6584968566894531
 10.4703941345214844  3.1220405101776123 40.5244827270507812
 10.3910951614379883 12.0482234954833984 40.8138771057128906
  3.0407962799072266  7.6019120216369629 40.6427421569824219
  3.1549820164218545 16.5053089857101440 40.6274833679199290
 12.0490093231201154  7.4439015388488761 41.0577201843261719
 11.9669889668002725 16.8347952365875244 40.6556167602539062
  0.8794440627098082  3.5571866035461426 42.1594009399414062
  0.9091632366180420 12.7024641036987305 42.2497749328613281
  9.7495660781860334  3.4890015125274658 42.0883407592773438
  9.7972450256347656 12.6682415008544904 42.3268699645996094
  3.5793707370758057  8.1653137207031250 42.2223663330078125
  3.6076292255893350 17.1523263454437256 42.2017250061035156
 12.7026481628417969  8.0832023620605469 42.5363006591796875
 12.6133150318637473 17.3071939945220947 42.2240066528320312
  7.6438422203063965  6.0304112434387207 40.4463195800781321
  7.6102180480957022 14.9897670745849609 40.4663276672363352
 16.6362724304199254  5.9108781814575186 40.5223007202148438
 16.6023679971694982 15.0290575027465820 40.6651268005371094
  5.9357933998107910  1.4264932870864868 40.4512634277343750
  5.9409089088439941 10.4512834548950195 40.4983978271484375
 15.1177177429199219  1.3554847240447998 40.4518623352050852
 14.6756105422973633 10.4332084655761719 40.3954696655273509
  0.0514712147414684  4.4789505004882812 39.4448089599609375
  0.1820537745952606 13.7930631637573224 39.5546722412109446
  9.2255306243896484  4.6685152053833008 39.3809661865234446
  9.1309785842895508 13.4455499649047852 39.5279846191406321
  4.5422586658969522 17.8748686760663986 39.4436569213867259
  4.4328403472900391  8.9584321975708008 39.4589271545410156
 13.4551753997802734  0.0059968344867229 39.4516830444336009
 13.1706409454345703  8.8520803451538086 39.6483039855957102
  8.1032123565673828  5.4420318603515616 48.0459518432617259
  8.1007528305053711 14.4734306335449219 48.0459518432617259
 17.1336116790771484  5.4420318603515616 48.0459518432617259
 17.1311531066894531 14.4734306335449219 48.0459518432617259
  5.4410333633422852  0.9265221953392029 48.0449485778808594
  5.4385743141174316  9.9579219818115234 48.0449485778808594
 14.4714326858520490  0.9265221953392029 48.0449485778808594
 14.4689741134643555  9.9579219818115234 48.0449485778808594
  1.4218254089355467  3.0919990539550781 46.4558296203613281
  1.4193661212921143 12.1233978271484375 46.4558296203613281
 10.4522256851196289  3.0919990539550781 46.4558296203613281
 10.4497661590576172 12.1233978271484375 46.4558296203613281
  3.0899283885955806  7.6075901985168457 46.4545211791992188
  3.0874691009521484 16.6389904022216797 46.4545211791992188
 12.1203289031982422  7.6075901985168457 46.4545211791992188
 12.1178693771362305 16.6389904022216797 46.4545211791992188
  0.9247469902038573  3.5893490314483643 48.0459518432617259
  0.9222877025604248 12.6207475662231445 48.0459518432617259
  9.9551477432250977  3.5893490314483643 48.0459518432617259
  9.9526882171630859 12.6207475662231445 48.0459518432617259
  3.5868983268737793  8.1048498153686523 48.0448913574218821
  3.5844390392303462 17.1362495422363281 48.0448913574218821
 12.6172990798950195  8.1048498153686523 48.0448913574218821
 12.6148395538330078 17.1362495422363281 48.0448913574218821
  7.6061611175537109  5.9393639564514160 46.4558296203613281
  7.6037015914916992 14.9707632064819336 46.4558296203613281
 16.6365604400634766  5.9393639564514160 46.4558296203613281
 16.6341018676757812 14.9707632064819336 46.4558296203613281
  5.9380125999450684  1.4238001108169553 46.4545211791992188
  5.9355530738830566 10.4551992416381836 46.4545211791992188
 14.9684123992919904  1.4238001108169553 46.4545211791992188
 14.9659538269042951 10.4551992416381836 46.4545211791992188
 -0.0011664569610730  4.5157265663146973 45.3548011779785156
 -0.0036257810425013 13.5471258163452148 45.3548011779785156
  9.0292339324951172  4.5157265663146973 45.3548011779785156
  9.0267744064331037 13.5471258163452148 45.3548011779785156
  4.5152091979980469  0.0000000000000000 45.3536758422851562
  4.5127501487731934  9.0313997268676740 45.3536758422851562
 13.5456094741821289  0.0000000000000000 45.3536758422851562
 13.5431499481201172  9.0313997268676740 45.3536758422851562
 14.0372400283813477  9.4621133804321289 32.7578353881836009
 15.7398624420166016  9.3628463745117188 33.4587326049804759
 13.8738536834716797 11.3775739669799805 33.8169822692871094
 13.9712562561035138 11.5326223373413086 35.5806655883789062
 12.3681859970092773  8.4897184371948242 35.2363357543945384
 12.1961574554443342 10.2291879653930664 35.5716667175292969
 14.5982999801635742  7.8073039054870605 35.8621673583984446
 15.7481498718261719  9.1763505935668945 36.0342636108398438
 15.4751701354980469  7.1035141944885254 34.2207832336425781
 13.7262277603149396  7.0416769981384277 33.8201065063476562
 14.0366182327270490  7.1659641265869141 31.5187206268310547
 15.6641654968261701  7.8664393424987793 31.6445617675781250
 16.2776565551757812 11.4936628341674805 33.5681877136230469
 16.6529788970947266 11.0002183914184570 35.2560539245605469
 15.8496723175048828 12.5703725814819336 34.9541664123535227
 10.8526582717895508  9.8111639022827131 33.6883735656738352
 12.0960884094238281  8.9253015518188477 32.8187103271484375
 12.1673250198364258 10.7020330429077148 32.9469413757324290
 13.1740331649780273  8.6795940399169922 37.6012573242187500
 13.5157155990600568 10.3709230422973633 37.0620574951171875
 14.6551494598388672  9.5897789001464844 38.1631736755371094
 15.1466512680053711  4.9380373954772949 32.5903701782226562
 15.1800270080566406  5.2899689674377433 30.8433055877685547
 17.0210151672363281  3.3873643875122066 31.4462490081787145
 17.4591674804687500  7.5898127555847168 32.3670425415039134
  1.4221649169921866  3.1164608001708984 31.6373710632324254
  1.7928352355957047  7.3027315139770508 32.5773391723632884
  2.8715686798095690  5.0486173629760742 32.1893806457519602
 17.9205322265625000  4.2505426406860352 34.9416160583496165
  0.2969722747802764 13.8428277969360352 34.7557983398437500
  9.1221857070922852  4.5589208602905273 34.8075408935546946
  9.1504850387573242 13.8072261810302734 34.7621498107910227
  4.5535206794738770  9.0242118835449219 34.7455558776855469
  4.6469763973727813 17.9244658797979355 34.7763710021972656
 13.6805052021518332 17.9360558688640594 34.7937812805175781
 18.0584858348593116  4.5000138282775879 40.5355682373046875
  0.0509831234812737 13.7104654312133789 40.6457481384277415
  9.0592689514160156  4.5757861137390137 40.4554824829101562
  9.0159511566162109 13.5333356857299805 40.6219024658203125
  4.4988594055175781  9.0325984954833984 40.5447463989257812
  4.5437664249911904 18.0088093727827072 40.5322532653808594
 13.3515186309814435  8.9227914810180664 40.7263526916503977
 13.5551681518554688  0.0558594055473804 40.5372276306152344
  9.0289716720581055  4.5156092643737793 46.4455223083496165
  9.0265130996704102 13.5470085144042969 46.4455223083496165
 18.0593719482421875  4.5156092643737793 46.4455223083496165
 18.0569133758544922 13.5470085144042969 46.4455223083496165
  4.5152091979980469  0.0000180629995157 46.4442062377929759
  4.5127501487731934  9.0314178466796857 46.4442062377929759
 13.5456094741821289  0.0000180629995157 46.4442062377929759
 13.5431499481201172  9.0314178466796857 46.4442062377929759
 17.0369300842285156  5.5090184211730957 31.8744316101074254
 17.6403770446777344  4.2735428810119629 31.6658477783203125
 17.9048519134521484  6.6113376617431641 32.1232566833496094
  0.9751510620117210  4.1229243278503418 31.7353019714355469
  1.2061252593994172  6.4494204521179199 32.2762107849121165
  1.8154315948486310  5.2026033401489258 32.0996475219726562
 14.6993103027343750  8.9982509613037109 33.5365676879882812
 14.4469556808471662 11.0670127868652344 34.7000617980957031
 12.5619163513183594  9.4984436035156250 34.8335723876953125
 14.6850538253784180  8.9059829711914062 36.0369949340820384
 14.6913871765136719  7.4787011146545410 33.5022850036621094
 14.9934034347534180  7.0833806991577148 32.0736808776855540
 15.9169311523437482 11.5227222442626953 34.6062088012695312
 11.9348649978637695  9.7532091140747070 33.4850120544433594
 13.9554262161254865  9.3703241348266602 37.2981185913086009
 15.5568094253540039  5.6696963310241699 31.8195648193359375
  0.9043502807617158  3.7005014419555660 35.5369148254394602
  0.9200191497802737 12.8470268249511719 35.3368949890136719
  9.9650049209594727  3.7372913360595703 35.4239959716796875
 10.0415401458740217 13.0251226425170898 35.3686370849609446
  8.1084136962890625  5.1984338760375977 35.4150581359863352
  8.0434446334838867 14.3112602233886701 35.3153724670410156
 17.0110149383544922  5.0464820861816406 35.5065689086914062
 17.4714813232421875 14.6195983886718732 35.3353919982910156
  4.0248365402221680  8.1045265197753906 35.5261611938476562
  3.5748759964480992 17.4154701828956604 35.3523292541503906
 12.8309606770053488 17.1261557340621948 35.3785209655761719
  5.5336132049560547  0.6179599165916443 35.3861923217773438
  5.2745494842529297 10.0415840148925781 35.1776657104492259
 14.2557363510131836  0.9058859944343567 35.3838386535644531
  0.8304185271263123  3.6530623435974121 41.1266365051269531
  0.9029226303100586 12.8706607818603516 41.2318801879882884
  9.8022212982177734  3.6690647602081299 41.0653038024902344
  9.7745952606201154 12.7195262908935547 41.3410568237304759
  3.6787707805633540  8.2374477386474609 41.2036933898925852
  3.7357892254367471 17.1972725391387939 41.1843109130859375
 12.6740264892578125  8.1199865341186523 41.5052947998046875
 12.6772245625033957 17.3933215737342834 41.2063331604003977
  8.1599950790405273  5.3602614402770996 41.0200157165527415
  8.1417684555053711 14.4004011154174805 41.1035728454589844
 17.2355544567108190  5.3047103881835929 41.1276359558105469
 17.1969261169433594 14.4225444793701172 41.2254295349121094
  5.3196644783020020  0.8324352502822876 41.0828475952148438
  5.3516368865966797  9.8821945190429670 41.1011085510253906
 14.5011062622070312  0.7996643781661987 41.0804328918457031
 14.2393684387207013  9.8529739379882812 41.1115913391113352
  0.8273094892501831  3.6869695186614990 47.0359649658203125
  0.8248501420021057 12.7183685302734375 47.0359649658203125
  9.8577098846435547  3.6869695186614990 47.0359649658203125
  9.8552503585815412 12.7183685302734375 47.0359649658203125
  3.6843190193176270  8.2023353576660156 47.0346527099609375
  3.6818594932556152 17.2337341308593750 47.0346527099609375
 12.7147188186645508  8.2023353576660156 47.0346527099609375
 12.7122592926025391 17.2337341308593750 47.0346527099609375
  8.2006769180297852  5.3445744514465332 47.0360260009765696
  8.1982173919677734 14.3759746551513672 47.0360260009765696
 17.2310771942138672  5.3445744514465332 47.0360260009765696
 17.2286186218261719 14.3759746551513672 47.0360260009765696
  5.3436489105224600  0.8290914893150328 47.0346527099609375
  5.3411893844604483  9.8604917526245117 47.0346527099609375
 14.3740482330322266  0.8290914893150328 47.0346527099609375
 14.3715896606445312  9.8604917526245117 47.0346527099609375
 14.1106910705566388  9.5960855484008789 34.7793464660644531
  8.9355621337890625  0.0253591947257519 34.5093078613281321
  8.6177120208740234  8.7077474594116211 34.6698150634765625
 18.0241590254008770  0.0259592607617378 34.4361495971679688
  0.3616870641708374  8.9922437667846680 34.8358917236328125
  4.7190265655517578  4.4356145858764648 34.6218872070312571
  4.4817972183227539 13.7048425674438477 34.4715309143066406
 13.2845621109008789  4.1791005134582520 34.7078132629394602
 13.1633691787719727 13.9262323379516602 34.1926956176757884
  0.0295519344508648  0.0726472064852715 40.8576812744140625
  0.1104536801576614  9.0226106643676758 41.0194015502929688
  9.1270637512207031  0.0779888927936554 40.9149665832519531
  9.0477972030639648  9.0191364288330078 40.9599800109863281
  4.4716076850891113  4.4582624435424805 40.9622802734375000
  4.4516906738281250 13.5962724685668945 40.8840217590332031
 13.4109649658203125  4.4845185279846191 40.9895935058593821
 13.4955406188964826 13.6455793380737305 40.8603668212890696
  2.6382956504821777  1.8951388597488401 38.0725784301757812
  2.6911857128143311 10.9616661071777344 38.0670471191406250
 11.6249694824218750  1.9357868432998657 38.0959091186523438
 11.2328109741210938 11.3540182113647461 38.3236236572265625
  6.4390411376953125  7.0693044662475586 38.1554107666015625
  6.4214301109313965 16.1242542266845703 38.0568466186523438
 15.8545761108398438  6.7492289543151855 38.3108901977539062
 15.4598245620727539 16.1882038116455078 38.0116920471191406
  2.0089132785797119  6.3714413642883301 38.0822944641113281
  1.9223567247390747 15.4740104675292951 38.0323753356933594
 11.1027545928955078  6.5603380203247070 37.9078865051269531
 10.9516716003417969 15.5602989196777344 38.1123046875000000
  7.1247029304504386  2.5503969192504883 38.0975265502929759
  7.0519876480102539 11.6298494338989258 37.9348373413086009
 16.0853252410888672  2.5000221729278560 38.0747070312500000
 16.4180679321289062 11.9200878143310529 38.2945938110351634
  0.0000000000000000  0.0000000000000000 47.1735610961914062
 -0.0024593239650130  9.0313997268676740 47.1735610961914062
  9.0304002761840803  0.0000000000000000 47.1735610961914062
  9.0279407501220685  9.0313997268676740 47.1735610961914062
  4.5139794349670410  4.5156998634338379 47.1742515563964844
  4.5115203857421875 13.5470991134643537 47.1742515563964844
 13.5443792343139648  4.5156998634338379 47.1742515563964844
 13.5419197082519531 13.5470991134643537 47.1742515563964844
  2.4519233703613277  2.0629522800445557 44.0401268005371165
  2.4494640827178955 11.0943517684936523 44.0401268005371165
 11.4823226928710920  2.0629522800445557 44.0401268005371165
 11.4798641204833984 11.0943517684936523 44.0401268005371165
  6.5760178565979004  6.9684472084045410 44.0401268005371165
  6.5735583305358887 15.9998464584350586 44.0401268005371165
 15.6064186096191406  6.9684472084045410 44.0401268005371165
 15.6039590835571289 15.9998464584350586 44.0401268005371165
  2.0610768795013428  6.5788145065307617 44.0400009155273509
  2.0586175918579102 15.6102142333984375 44.0400009155273509
 11.0914773941040039  6.5788145065307617 44.0400009155273509
 11.0890178680419922 15.6102142333984375 44.0400009155273509
  6.9668641090393066  2.4525938034057613 44.0400657653808665
  6.9644045829772949 11.4839935302734375 44.0400657653808665
 15.9972639083862305  2.4525938034057613 44.0400657653808665
 15.9948053359985352 11.4839935302734375 44.0400657653808665
  2.4316265583038330  2.0832188129425049 50.0684852600097656
  2.4291670322418213 11.1146183013915998 50.0684852600097656
 11.4620265960693359  2.0832188129425049 50.0684852600097656
 11.4595670700073224 11.1146183013915998 50.0684852600097656
  6.5963144302368164  6.9481806755065918 50.0684852600097656
  6.5938549041748047 15.9795799255371076 50.0684852600097656
 15.6267137527465803  6.9481806755065918 50.0684852600097656
 15.6242542266845703 15.9795799255371076 50.0684852600097656
  2.0811281204223633  6.5990090370178223 50.0690460205078125
  2.0786688327789307 15.6304082870483398 50.0690460205078125
 11.1115283966064453  6.5990090370178223 50.0690460205078125
 11.1090688705444336 15.6304082870483398 50.0690460205078125
  6.9468131065368652  2.4323906898498531 50.0690460205078125
  6.9443535804748535 11.4637899398803711 50.0690460205078125
 15.9772129058837891  2.4323906898498531 50.0690460205078125
 15.9747543334960938 11.4637899398803711 50.0690460205078125
 18.0585007600020617  0.0045459046959877 37.6927185058593750
  0.1920730918645859  9.0674095153808594 37.8893089294433594
  8.9940624237060547  0.0189905464649200 37.6374359130859375
  9.0233087539672852  9.0077266693115234 37.7090797424316406
  4.5826268196105957  4.4560861587524414 37.7651977539062571
  4.4918241500854492 13.6151781082153320 37.6952133178710938
 13.5486602783203107  4.5320868492126465 37.8546791076660156
 13.5473747253417969 13.7049217224121076 37.7766914367675852
  0.0000090280000222  0.0000090310004452 44.0429992675781250
 -0.0024502959568053  9.0314083099365234 44.0429992675781250
  9.0304088592529297  0.0000090310004452 44.0429992675781250
  9.0279493331909180  9.0314083099365234 44.0429992675781250
  4.5139703750610352  4.5156903266906738 44.0427513122558594
  4.5115113258361816 13.5470905303955078 44.0427513122558594
 13.5443706512451172  4.5156903266906738 44.0427513122558594
 13.5419111251831037 13.5470905303955078 44.0427513122558594
  0.0000000000000000  0.0000000000000000 50.4472808837890696
 -0.0024593239650130  9.0313997268676740 50.4472808837890696
  9.0304002761840803  0.0000000000000000 50.4472808837890696
  9.0279407501220685  9.0313997268676740 50.4472808837890696
  4.5139703750610352  4.5156998634338379 50.4472808837890696
  4.5115113258361816 13.5470991134643537 50.4472808837890696
 13.5443706512451172  4.5156998634338379 50.4472808837890696
 13.5419111251831055 13.5470991134643537 50.4472808837890696
