 H  C  N  I Pb 
 1.0000000000000000
    18.0608005523681641    0.0000000000000000    0.0000000000000000
    -0.0049186488613486   18.0627994537353516    0.0000000000000000
     0.0000000000000000    0.0000000000000000   62.4874992370605469
 H   C   N   I   Pb 
 143  39  47  72  24
Cartesian
  8.0745277404785156  5.5086388587951660 36.2956657409667969
  8.0049457550048828 14.7116985321044922 36.2821311950683594
 17.4264259338378906  5.6284556388854980 36.1004371643066406
 17.4986820220947266 14.6583652496337891 36.3579864501953125
  5.6828517913818359  0.5274247527122498 36.3705253601074290
  5.4447841644287109  9.9533700942993164 36.3027801513671875
 14.0717782974243146  1.1105396747589111 36.4235877990722656
  1.3157730102539047  2.5667080879211426 35.1060218811035156
  1.1785678863525411 11.8589143753051758 34.7273635864257812
 10.6652612686157227  3.3679423332214355 34.7715644836425852
 10.2065048217773438 12.0400848388671875 34.9404716491699219
  6.1232471466064453  1.2122321128845215 34.8044891357421875
  5.6445717811584473 10.7057895660400391 34.7225074768066406
 14.9221591949462891  1.5240654945373535 34.9363327026367188
  0.6797237396240243  3.4004430770874019 36.5770416259765696
  0.8653697967529309 12.5130558013916016 36.3177261352539134
 10.2720422744750977  4.2466678619384766 36.2639732360839915
  9.3965215682983398 12.5754508972167969 36.3850593566894531
  3.8316824436187740  7.9593033790588379 36.3883399963378906
  3.5389596680179238 17.1621022820472717 36.3962402343750000
 12.4957966068759543 17.1580671072006226 36.3084449768066406
  7.1396474838256836  5.4283704757690430 34.8419647216796946
  8.0209016799926758 15.5227451324462891 34.7387504577636719
 17.3059501647949219  6.0361480712890616 34.4315681457519531
 16.9635314941406250 15.2013950347900391 34.8264312744140625
  3.0644690990447998  7.5188112258911133 34.8623428344726562
  2.6811925629153848 17.0311479568481481 34.8624725341796875
 12.4221672276034951 16.3302552700042725 34.7436752319335938
  8.7207059860229492  4.0405273437500000 33.6975936889648438
  9.3944225311279297 13.9314908981323224 33.7096405029296875
  0.3987541198730460  4.2128329277038574 33.6350440979003906
 18.0167560577392578 13.4655981063842773 33.6174812316894602
  4.1449608802795410  9.2093734741210938 33.6720581054687500
  4.2653846740722656  0.3018153607845306 33.7189178466796875
 13.9295467594638467 17.7970939576625824 33.7396774291992188
  8.2295293807983398  5.5470781326293945 42.2283630371093750
  8.0160341262817383 14.5298824310302734 42.1890754699707031
 17.0865123867988586  5.3671407699584961 42.2364120483398509
 17.0696718692779541 14.5368461608886719 42.2447624206542969
  5.3486127853393546  0.8929064869880676 42.2164611816406250
  5.3990530967712402 10.0734443664550781 42.1770744323730540
 14.5377645492553711  0.8666877746582031 42.1348152160644602
 14.4955205917358398 10.3048152923583984 42.1526222229003977
  1.4823306798934937  3.1108775138854980 40.5896530151367259
  1.5045444965362549 12.2615118026733398 40.7771377563476562
 10.3055133819580078  2.9415166378021240 40.6252708435058594
 10.3049583435058594 12.0777606964111328 40.6201934814453125
  3.2538444995880123  7.5311942100524902 40.5378646850586009
  3.0515872696414590 16.6035597324371338 40.4807357788085938
 12.3083400726318359  7.5589580535888672 40.9276542663574219
 11.9469837406650168 16.7632842063903809 40.5702323913574290
  0.9468886256217957  3.5898623466491699 42.1841888427734375
  0.7694424390792847 12.6748561859130859 42.3176956176757812
 10.0398607254028303  3.6741707324981689 42.1912727355957102
  9.8395013809204102 12.5800933837890625 42.2384719848632812
  3.7057452201843262  8.0469808578491211 42.1458549499511719
  3.4886311748996377 17.0684148669242859 42.1193695068359446
 12.6335268020629883  8.3444252014160156 42.4018135070800781
 12.4861072758212686 17.2504601478576660 42.1719894409179688
  7.5183959007263175  5.8542385101318359 40.6691398620605540
  7.5400657653808594 15.0280570983886719 40.5992240905761719
 16.5758390426635742  5.8484568595886230 40.6199569702148438
 16.7761304378509521 15.1685256958007812 40.6560325622558665
  5.8920745849609375  1.4236409664154053 40.6486282348632884
  5.8734412193298340 10.6143674850463867 40.5728950500488281
 15.0890178680419922  1.2588520050048828 40.5293235778808594
 15.0590715408325178 10.4893093109130859 40.5004882812500000
  0.0160211231559515  4.4731812477111816 39.4955978393554688
  0.3040698170661926 13.8111238479614258 39.6209793090820312
  8.7093877792358398  4.2300534248352051 39.5563240051269531
  8.8887224197387695 13.5855989456176758 39.4972648620605540
  4.5232343673706055  0.0114262029528618 39.4479942321777415
  4.6017174720764160  9.1280403137207031 39.4401435852050852
 13.4909195164218545 17.9695580899715424 39.4338111877441406
 13.7510442733764648  8.7835340499877930 39.6372680664062500
  8.1032123565673828  5.4420318603515616 48.0459518432617259
  8.1007528305053711 14.4734306335449219 48.0459518432617259
 17.1336116790771484  5.4420318603515616 48.0459518432617259
 17.1311531066894531 14.4734306335449219 48.0459518432617259
  5.4410333633422852  0.9265221953392029 48.0449485778808594
  5.4385743141174316  9.9579219818115234 48.0449485778808594
 14.4714326858520490  0.9265221953392029 48.0449485778808594
 14.4689741134643555  9.9579219818115234 48.0449485778808594
  1.4218254089355467  3.0919990539550781 46.4558296203613281
  1.4193661212921143 12.1233978271484375 46.4558296203613281
 10.4522256851196289  3.0919990539550781 46.4558296203613281
 10.4497661590576172 12.1233978271484375 46.4558296203613281
  3.0899283885955806  7.6075901985168457 46.4545211791992188
  3.0874691009521484 16.6389904022216797 46.4545211791992188
 12.1203289031982422  7.6075901985168457 46.4545211791992188
 12.1178693771362305 16.6389904022216797 46.4545211791992188
  0.9247469902038573  3.5893490314483643 48.0459518432617259
  0.9222877025604248 12.6207475662231445 48.0459518432617259
  9.9551477432250977  3.5893490314483643 48.0459518432617259
  9.9526882171630859 12.6207475662231445 48.0459518432617259
  3.5868983268737793  8.1048498153686523 48.0448913574218821
  3.5844390392303462 17.1362495422363281 48.0448913574218821
 12.6172990798950195  8.1048498153686523 48.0448913574218821
 12.6148395538330078 17.1362495422363281 48.0448913574218821
  7.6061611175537109  5.9393639564514160 46.4558296203613281
  7.6037015914916992 14.9707632064819336 46.4558296203613281
 16.6365604400634766  5.9393639564514160 46.4558296203613281
 16.6341018676757812 14.9707632064819336 46.4558296203613281
  5.9380125999450684  1.4238001108169553 46.4545211791992188
  5.9355530738830566 10.4551992416381836 46.4545211791992188
 14.9684123992919904  1.4238001108169553 46.4545211791992188
 14.9659538269042951 10.4551992416381836 46.4545211791992188
 -0.0011664569610730  4.5157265663146973 45.3548011779785156
 -0.0036257810425013 13.5471258163452148 45.3548011779785156
  9.0292339324951172  4.5157265663146973 45.3548011779785156
  9.0267744064331037 13.5471258163452148 45.3548011779785156
  4.5152091979980469  0.0000000000000000 45.3536758422851562
  4.5127501487731934  9.0313997268676740 45.3536758422851562
 13.5456094741821289  0.0000000000000000 45.3536758422851562
 13.5431499481201172  9.0313997268676740 45.3536758422851562
 14.1389417648315412 10.2139329910278320 32.9570388793945384
 13.2104501724243164  8.6572790145874023 33.0782012939453125
 15.7477750778198242  9.1365385055541992 34.3241577148437571
 15.3469886779785138  8.6760711669921875 36.0089759826660156
 13.3697690963745117 11.5684823989868164 35.4782142639160156
 14.4417896270751953 10.6977834701538086 36.5780830383300852
 11.7111253738403320  9.7081613540649414 35.7692337036132812
 12.1628837585449219  8.1025314331054688 35.0996131896972656
 11.2340822219848615  9.8648567199707031 33.8075294494628906
 12.0976953506469727 11.4118185043334961 33.9903717041015625
 11.2522583007812482 11.8972997665405273 31.9369621276855504
 12.6436033248901367 10.9678754806518555 31.4195899963378906
 14.9351778030395508  7.1016139984130850 33.4916305541992188
 13.6980409622192383  7.0461359024047852 34.7284812927246094
 15.3085947036743164  6.5670213699340820 35.1126899719238281
 15.5178642272949219 12.4936161041259748 35.0049476623535156
 15.3274126052856445 11.3263683319091797 33.7823371887207031
 16.3218059539794922 10.9149370193481445 35.1548042297363281
 13.8393545150756836  9.1084842681884766 37.4857101440429688
 13.3590221405029279  7.4323348999023438 37.0674133300781250
 12.1715602874755859  8.5137624740600586 37.8534851074218821
  9.8262519836425781  9.8254489898681623 31.9206085205078125
 10.4599494934082031 10.1761426925659180 30.2582912445068359
 13.0670118331909180  9.0235090255737305 29.8933811187744176
 10.0070610046386719  7.6199083328247070 32.6256370544433594
 14.1614913940429688  6.7687902450561515 29.9886150360107457
 11.1442356109619141  5.4123578071594238 32.7504920959472727
 13.2534341812133789  4.9619393348693848 31.4756259918212926
  0.2766723632812502  4.2945075035095215 34.7168502807617259
  0.0461521148681618 13.5238790512084961 34.6819839477539134
  8.8805179595947266  4.3999342918395996 34.7117385864257884
  9.1105709075927734 13.7978467941284180 34.7602920532226562
  4.3574104309082031  9.1213302612304688 34.7504882812500000
  4.4097886085510254  0.1027719080448151 34.7946472167968750
 13.6666073063388467 17.9484452009201050 34.8010711669921875
  0.0027030250057578  4.4749951362609863 40.5756492614746094
  0.1017456799745560 13.7381477355957031 40.6779365539550781
  8.8953247070312500  4.4021725654602051 40.6237640380859375
  8.9251098632812500 13.5544147491455078 40.5790443420410156
  4.5560469627380371  9.0485677719116211 40.5188941955566406
  4.4854983547702432 18.0608479548245668 40.5262603759765625
 13.6830615997314453  9.0192489624023438 40.7084083557128977
 13.5320533970370889 18.0569657618179917 40.5100326538085938
  9.0289716720581055  4.5156092643737793 46.4455223083496165
  9.0265130996704102 13.5470085144042969 46.4455223083496165
 18.0593719482421875  4.5156092643737793 46.4455223083496165
 18.0569133758544922 13.5470085144042969 46.4455223083496165
  4.5152091979980469  0.0000180629995157 46.4442062377929759
  4.5127501487731934  9.0314178466796857 46.4442062377929759
 13.5456094741821289  0.0000180629995157 46.4442062377929759
 13.5431499481201172  9.0314178466796857 46.4442062377929759
 11.4117174148559570  8.4737558364868164 31.2365932464599645
 12.5898036956787092  8.1955986022949219 30.4862041473388707
 10.8974237442016584  7.4121704101562500 32.0282859802246094
 13.2108659744262695  6.9672327041625977 30.5762958526611328
 11.5405216217041016  6.1858205795288077 32.0936431884765625
 12.7118444442749023  5.9499216079711914 31.3651142120361328
 13.2832250595092773  9.6850957870483398 33.4794654846191406
 14.9958457946777326  8.6546411514282227 34.9754829406738281
 14.1887598037719709 10.8565912246704102 35.5281791687011719
 12.5429754257202148  8.9412355422973633 35.6999015808105469
 12.0455312728881836 10.4638395309448224 33.3737564086914134
 11.6609001159667969 10.8990545272827148 31.9682235717773473
 14.7500181198120117  7.2887535095214844 34.5476722717285227
 15.4008073806762695 11.4143819808959961 34.8580970764160156
 12.9859580993652344  8.4666976928710938 37.0951614379882812
 10.7596158981323242  9.8506336212158203 31.2832145690918004
  0.7894611358642571  3.3889126777648926 35.5050811767578125
  0.7306671142578112 12.5802698135375977 35.2757225036621094
  9.9903707504272461  3.9696292877197266 35.2809982299804688
  9.6159610748291016 12.7522134780883789 35.3975944519042969
  7.9959616661071768  5.1444282531738272 35.3059120178222727
  8.3258533477783203 14.7190446853637695 35.2745704650878906
 17.6366176605224609  5.3441619873046875 35.1035194396972656
 17.4960575103759766 14.5009717941284180 35.3193359375000071
  3.7338905334472656  8.1428718566894531 35.4033012390136719
  3.5067006805911656 17.4032849669456482 35.4194374084472656
 12.8117536762729287 17.1308152675628662 35.3523063659667969
  5.4476938247680664  0.6245179772377014 35.3930358886718750
  5.1840767860412598  9.9519720077514648 35.3283233642578196
 14.2601013183593750  0.8790932893753052 35.4620590209960938
  0.8908641934394835  3.6509644985198975 41.1657905578613281
  0.8656121492385864 12.8137817382812500 41.3287048339843750
  9.8136911392211914  3.6051571369171138 41.1831741333007812
  9.7014961242675781 12.7270383834838849 41.2104988098144602
  3.8121781349182129  8.1606416702270508 41.1029739379882812
  3.6277884701266885 17.1988555192947388 41.0908241271972656
 12.8267288208007812  8.2688236236572266 41.3896713256835938
 12.6032318333163857 17.3192902803421021 41.1352920532226562
  8.1828937530517578  5.3066511154174805 41.2003135681152344
  8.1238803863525391 14.4160394668579102 41.1475410461425781
 17.2249779105186462  5.2432403564453125 41.1943473815917969
 17.2853357791900670 14.5216970443725568 41.2457389831542969
  5.2805347442626953  0.8087576031684875 41.1667785644531250
  5.3173146247863770  9.9643039703369141 41.1411399841308665
 14.4282693862915039  0.7397494316101074 41.0915832519531250
 14.4271535873413086  9.9740571975708008 41.1836128234863281
  0.8273094892501831  3.6869695186614990 47.0359649658203125
  0.8248501420021057 12.7183685302734375 47.0359649658203125
  9.8577098846435547  3.6869695186614990 47.0359649658203125
  9.8552503585815412 12.7183685302734375 47.0359649658203125
  3.6843190193176270  8.2023353576660156 47.0346527099609375
  3.6818594932556152 17.2337341308593750 47.0346527099609375
 12.7147188186645508  8.2023353576660156 47.0346527099609375
 12.7122592926025391 17.2337341308593750 47.0346527099609375
  8.2006769180297852  5.3445744514465332 47.0360260009765696
  8.1982173919677734 14.3759746551513672 47.0360260009765696
 17.2310771942138672  5.3445744514465332 47.0360260009765696
 17.2286186218261719 14.3759746551513672 47.0360260009765696
  5.3436489105224600  0.8290914893150328 47.0346527099609375
  5.3411893844604483  9.8604917526245117 47.0346527099609375
 14.3740482330322266  0.8290914893150328 47.0346527099609375
 14.3715896606445312  9.8604917526245117 47.0346527099609375
 13.7055625915527344  9.5603389739990217 34.9267730712890625
  8.9658021926879883  0.2393448352813721 34.4845390319824219
  8.6253538131713867  9.3726444244384766 34.8378143310546875
 18.0368281519040465 18.0286413803696632 34.5013122558593821
  0.4426728785037994  8.6946144104003906 34.3572425842285156
  4.5470080375671387  4.5291128158569336 34.4639167785644531
  4.4964022636413574 13.5720405578613281 34.4917373657226634
 13.6621837615966797  4.0745539665222168 34.7100296020507884
 13.2278900146484357 13.9545898437500000 34.2340507507324219
  0.0935252830386162  0.0164530295878649 40.8814277648925781
  0.1444419622421265  9.1374559402465820 40.8590469360351562
  9.1053247451782227  0.0166007019579411 40.9195442199707102
  9.0190877914428711  8.9499578475952148 40.9985504150390625
  4.4869422912597656  4.5027074813842773 40.9243583679199219
  4.4299144744873047 13.5595617294311523 40.8659896850585938
 13.4426698684692383  4.5112042427062988 40.9714736938476634
 13.5911254882812482 13.6878585815429688 40.8600921630859375
  2.5893344879150391  1.8850790262222290 38.1044998168945312
  2.6023793220520020 10.9008188247680664 37.9768333435058594
 11.6379480361938477  1.8326580524444578 38.0005493164062500
 11.2711133956909180 11.3211488723754883 38.2975082397460938
  6.3792781829833975  7.1180253028869629 38.0486259460449219
  6.3933444023132324 16.1269321441650391 38.0523567199707102
 15.9115009307861328  6.7039928436279288 38.3216743469238352
 15.4388074874877930 16.1943397521972656 37.9582633972167969
  1.9460521936416626  6.4540128707885742 37.9634323120117188
  1.9660384654998777 15.5087442398071289 38.0362243652343750
 10.5521755218505859  6.0722570419311523 38.0057640075683594
 10.9627838134765607 15.5451383590698242 38.0995178222656250
  7.0456790924072266  2.5323119163513184 37.9717750549316406
  6.9642438888549805 11.5413475036621094 38.1148109436035227
 16.1506690979003906  2.5159838199615479 38.0480804443359446
 16.4832172393798828 11.9317398071289062 38.3344268798828125
  0.0000000000000000  0.0000000000000000 47.1735610961914062
 -0.0024593239650130  9.0313997268676740 47.1735610961914062
  9.0304002761840803  0.0000000000000000 47.1735610961914062
  9.0279407501220685  9.0313997268676740 47.1735610961914062
  4.5139794349670410  4.5156998634338379 47.1742515563964844
  4.5115203857421875 13.5470991134643537 47.1742515563964844
 13.5443792343139648  4.5156998634338379 47.1742515563964844
 13.5419197082519531 13.5470991134643537 47.1742515563964844
  2.4519233703613277  2.0629522800445557 44.0401268005371165
  2.4494640827178955 11.0943517684936523 44.0401268005371165
 11.4823226928710920  2.0629522800445557 44.0401268005371165
 11.4798641204833984 11.0943517684936523 44.0401268005371165
  6.5760178565979004  6.9684472084045410 44.0401268005371165
  6.5735583305358887 15.9998464584350586 44.0401268005371165
 15.6064186096191406  6.9684472084045410 44.0401268005371165
 15.6039590835571289 15.9998464584350586 44.0401268005371165
  2.0610768795013428  6.5788145065307617 44.0400009155273509
  2.0586175918579102 15.6102142333984375 44.0400009155273509
 11.0914773941040039  6.5788145065307617 44.0400009155273509
 11.0890178680419922 15.6102142333984375 44.0400009155273509
  6.9668641090393066  2.4525938034057613 44.0400657653808665
  6.9644045829772949 11.4839935302734375 44.0400657653808665
 15.9972639083862305  2.4525938034057613 44.0400657653808665
 15.9948053359985352 11.4839935302734375 44.0400657653808665
  2.4316265583038330  2.0832188129425049 50.0684852600097656
  2.4291670322418213 11.1146183013915998 50.0684852600097656
 11.4620265960693359  2.0832188129425049 50.0684852600097656
 11.4595670700073224 11.1146183013915998 50.0684852600097656
  6.5963144302368164  6.9481806755065918 50.0684852600097656
  6.5938549041748047 15.9795799255371076 50.0684852600097656
 15.6267137527465803  6.9481806755065918 50.0684852600097656
 15.6242542266845703 15.9795799255371076 50.0684852600097656
  2.0811281204223633  6.5990090370178223 50.0690460205078125
  2.0786688327789307 15.6304082870483398 50.0690460205078125
 11.1115283966064453  6.5990090370178223 50.0690460205078125
 11.1090688705444336 15.6304082870483398 50.0690460205078125
  6.9468131065368652  2.4323906898498531 50.0690460205078125
  6.9443535804748535 11.4637899398803711 50.0690460205078125
 15.9772129058837891  2.4323906898498531 50.0690460205078125
 15.9747543334960938 11.4637899398803711 50.0690460205078125
  0.0218126736581325  0.0278368610888720 37.7010726928710938
  0.0538351982831955  9.0933170318603516 37.7006072998046946
  9.0094175338745117  0.0770692676305771 37.6090431213378906
  8.9353132247924805  8.9694490432739258 37.8993835449218821
  4.5305075645446777  4.4574913978576660 37.6162147521972727
  4.5011777877807617 13.5354938507080078 37.6206512451171875
 13.4823789596557617  4.4292893409729004 37.8455276489257812
 13.5137596130371094 13.7101984024047852 37.7725296020507812
  0.0000090280000222  0.0000090310004452 44.0429992675781250
 -0.0024502959568053  9.0314083099365234 44.0429992675781250
  9.0304088592529297  0.0000090310004452 44.0429992675781250
  9.0279493331909180  9.0314083099365234 44.0429992675781250
  4.5139703750610352  4.5156903266906738 44.0427513122558594
  4.5115113258361816 13.5470905303955078 44.0427513122558594
 13.5443706512451172  4.5156903266906738 44.0427513122558594
 13.5419111251831037 13.5470905303955078 44.0427513122558594
  0.0000000000000000  0.0000000000000000 50.4472808837890696
 -0.0024593239650130  9.0313997268676740 50.4472808837890696
  9.0304002761840803  0.0000000000000000 50.4472808837890696
  9.0279407501220685  9.0313997268676740 50.4472808837890696
  4.5139703750610352  4.5156998634338379 50.4472808837890696
  4.5115113258361816 13.5470991134643537 50.4472808837890696
 13.5443706512451172  4.5156998634338379 50.4472808837890696
 13.5419111251831055 13.5470991134643537 50.4472808837890696
