 H  C  N  I Pb 
 1.0000000000000000
    18.0608005523681641    0.0000000000000000    0.0000000000000000
    -0.0049186488613486   18.0627994537353516    0.0000000000000000
     0.0000000000000000    0.0000000000000000   62.4874992370605469
 H   C   N   I   Pb 
 143  39  47  72  24
Cartesian
  7.5459575653076163  4.7444167137145987 35.7632598876953196
  7.3912363052368164 12.9162244796752930 35.8647613525390696
 16.6639137268066406  5.0712909698486319 36.3179206848144531
 16.8990745544433594 14.6925306320190430 35.9303169250488352
  5.8142328262329102  1.4937974214553833 35.6422233581542969
  5.6492862701416016 10.4719381332397461 35.6751556396484375
 14.4365358352661133  1.5527685880661011 35.9001884460449219
  1.9578704833984364  4.2656383514404297 35.2672843933105469
  1.4848461151123047 12.2276687622070312 35.5703811645507812
 10.9121246337890625  3.5433158874511714 35.3666648864746094
 10.8545970916748047 13.2971267700195312 34.9896469116210938
  6.8273134231567383  0.2831384539604187 34.8699760437011719
  4.5564117431640625 11.2374382019042969 34.5536651611328125
 15.7568979263305664  0.6489410996437073 35.1604003906250000
  1.0870342254638681  5.1327571868896484 36.4672813415527344
 18.0210475921630859 12.4783115386962891 36.3719520568847656
  9.3514919281005859  3.1034176349639893 36.0062141418457031
  9.8203334808349609 12.3612680435180646 36.0207138061523438
  5.4112138748168945  8.0052671432495117 36.0128593444824290
  3.3365945816040039  1.0349645614624023 35.6421203613281250
 12.1736612319946289  0.4782614111900330 35.7731971740722656
  7.9998559951782218  6.2936429977416992 35.0275917053222656
  6.8973460197448730 14.1876506805419904 34.7845802307128906
 15.9516096115112305  4.1311187744140625 35.0496788024902344
 17.7427291870117188 15.7767286300659180 34.8730545043945312
  4.0998320579528809  7.2346687316894531 35.1632385253906250
  2.7901417473331089 17.7384993135929143 34.7172355651855469
 12.1363128880038857 16.9363447427749634 35.0326309204101562
 10.1389636993408203  5.5846662521362305 34.5721321105957031
  9.1407051086425781 14.5747165679931641 34.1083183288574219
  0.0150108337402344  3.5066556930541992 34.1716194152832031
  1.4292201995849592 14.2785472869873047 34.4728050231933594
  3.3786606788635249  9.2117881774902326 34.1614418029785156
  4.9689783314242959 17.0465312004089391 34.2005615234375071
 14.3758682468906045 16.9324889183044434 34.5434646606445312
  8.1911563873291016  5.1508245468139648 42.2766189575195312
  7.8211417198181152 14.7798223495483381 41.9413642883300781
 17.4750040769577062  5.0437273979187012 42.5029411315917969
 16.6851613521575928 13.7029504776000959 41.9914855957031250
  5.3955268859863281  0.8381704092025757 42.1410293579101562
  5.6406822204589844  9.9588069915771484 42.0426445007324219
 14.3266248703002912  1.0518774986267090 42.1878433227539062
 14.7829036712646467  9.5203685760498047 42.0953483581542969
  1.5691916942596436  3.0180280208587646 40.3692626953125000
  1.7993381023406982 12.4350271224975586 40.7343788146972727
 10.4227705001831055  3.1177809238433838 40.2158355712890625
 10.2449970245361328 12.2142333984375000 40.9605712890625000
  3.2654964923858643  7.4326443672180176 40.8502006530761719
  2.9513084152713418 16.7045853137970006 40.4661407470703125
 11.7885046005249023  8.0725412368774414 40.6082229614257812
 12.1528248051181436 16.5906138420104980 40.6612663269042969
  1.2265200614929199  3.3005671501159668 42.0579185485839844
  0.5247956514358521 12.0311384201049805 41.8450736999511719
  9.8535728454589844  3.2565639019012451 41.8626670837402344
  9.5484638214111328 12.9391641616821289 42.3894386291503906
  3.9683413505554199  8.0181818008422852 42.3368415832519531
  3.3780292728915811 17.2160553932189941 42.0820236206054688
 12.7422275543212891  7.9981932640075684 42.0667839050292969
 12.5731701115146279 17.2184472680091858 42.2357711791992188
  7.8563079833984375  6.1598029136657715 40.9044685363769531
  7.5050821304321289 15.0888814926147461 40.2389984130859446
 16.7766375541687012  5.7769846916198730 41.0860252380371094
 16.8336379528045690 15.1067495346069336 40.9785041809082031
  6.1060018539428711  1.1552348136901855 40.5875129699707031
  5.8170709609985352 10.5304775238037092 40.3916282653808594
 14.9147014617919922  1.4597334861755371 40.5809097290039062
 15.0318222045898438 10.4777917861938477 40.6684265136718821
  0.0055305361747742  4.5678806304931641 39.6364250183105469
  0.7796325087547302 14.3954887390136719 40.0418739318847656
  9.2510538101196289  4.9617571830749512 39.4693565368652344
  9.0144071578979492 13.5102462768554688 39.4943885803222656
  4.6339506367221475 17.8654808998107910 39.4196510314941406
  4.3591589927673340  8.9724903106689453 39.5161857604980469
 13.6144117573276162 17.9701293259859121 39.5099487304687500
 13.1171340942382812  9.6649618148803693 39.6154174804687571
  8.1032123565673828  5.4420318603515616 48.0459518432617259
  8.1007528305053711 14.4734306335449219 48.0459518432617259
 17.1336116790771484  5.4420318603515616 48.0459518432617259
 17.1311531066894531 14.4734306335449219 48.0459518432617259
  5.4410333633422852  0.9265221953392029 48.0449485778808594
  5.4385743141174316  9.9579219818115234 48.0449485778808594
 14.4714326858520490  0.9265221953392029 48.0449485778808594
 14.4689741134643555  9.9579219818115234 48.0449485778808594
  1.4218254089355467  3.0919990539550781 46.4558296203613281
  1.4193661212921143 12.1233978271484375 46.4558296203613281
 10.4522256851196289  3.0919990539550781 46.4558296203613281
 10.4497661590576172 12.1233978271484375 46.4558296203613281
  3.0899283885955806  7.6075901985168457 46.4545211791992188
  3.0874691009521484 16.6389904022216797 46.4545211791992188
 12.1203289031982422  7.6075901985168457 46.4545211791992188
 12.1178693771362305 16.6389904022216797 46.4545211791992188
  0.9247469902038573  3.5893490314483643 48.0459518432617259
  0.9222877025604248 12.6207475662231445 48.0459518432617259
  9.9551477432250977  3.5893490314483643 48.0459518432617259
  9.9526882171630859 12.6207475662231445 48.0459518432617259
  3.5868983268737793  8.1048498153686523 48.0448913574218821
  3.5844390392303462 17.1362495422363281 48.0448913574218821
 12.6172990798950195  8.1048498153686523 48.0448913574218821
 12.6148395538330078 17.1362495422363281 48.0448913574218821
  7.6061611175537109  5.9393639564514160 46.4558296203613281
  7.6037015914916992 14.9707632064819336 46.4558296203613281
 16.6365604400634766  5.9393639564514160 46.4558296203613281
 16.6341018676757812 14.9707632064819336 46.4558296203613281
  5.9380125999450684  1.4238001108169553 46.4545211791992188
  5.9355530738830566 10.4551992416381836 46.4545211791992188
 14.9684123992919904  1.4238001108169553 46.4545211791992188
 14.9659538269042951 10.4551992416381836 46.4545211791992188
 -0.0011664569610730  4.5157265663146973 45.3548011779785156
 -0.0036257810425013 13.5471258163452148 45.3548011779785156
  9.0292339324951172  4.5157265663146973 45.3548011779785156
  9.0267744064331037 13.5471258163452148 45.3548011779785156
  4.5152091979980469  0.0000000000000000 45.3536758422851562
  4.5127501487731934  9.0313997268676740 45.3536758422851562
 13.5456094741821289  0.0000000000000000 45.3536758422851562
 13.5431499481201172  9.0313997268676740 45.3536758422851562
 14.3841037750244141  9.2303419113159180 32.2429275512695312
 15.8353061676025391  9.0814361572265625 33.2782325744628906
 13.7323732376098615 11.3286142349243164 33.4144134521484375
 13.8598775863647461 11.3495368957519531 35.1714515686035156
 12.3577642440795898  8.1518068313598633 34.5427093505859375
 12.1178617477416992  9.8414392471313477 35.0373077392578196
 14.4511976242065430  7.7254190444946289 35.5296249389648438
 15.6654615402221680  9.0383787155151367 35.6125259399414062
 15.5382070541381836  6.8160352706909180 33.7395591735839915
 13.7952241897583008  6.8048648834228516 33.4409332275390625
 14.0531597137451172  6.8790054321289054 31.0538120269775426
 15.7150354385375977  7.4440340995788574 31.1367759704589844
 16.2119617462158203 11.1347684860229492 33.1875534057617188
 16.4227199554443359 10.9669637680053711 34.9411544799804759
 15.7613840103149414 12.4754581451416016 34.2502861022949219
 10.8132438659667951  9.3698997497558594 33.0415649414062500
 12.2162742614746094  8.8274326324462891 32.1192092895507812
 12.0608682632446289 10.5612115859985352 32.5621070861816406
 12.9108543395996094  9.0003614425659180 36.9864425659179688
 13.9920873641967773 10.4331026077270508 36.9903335571289062
 14.5151596069335920  8.9299068450927734 37.7138442993164062
 14.8900279998779297  4.6730690002441406 32.1313705444335938
 15.2607545852661133  4.9650526046752930 30.4261531829834020
 16.7639789581298828  2.9630293846130371 31.1547756195068395
 17.5342922210693359  7.0527482032775879 32.2884559631347656
  1.1168117523193362  2.4397559165954585 31.3871402740478551
  1.8750267028808612  6.5248250961303711 32.5167961120605469
  2.7337665557861341  4.2354497909545898 32.0215988159179688
 17.9988937377929688  4.1485939025878906 35.0589981079101562
  0.5845813751220709 13.9847459793090820 35.1170425415039062
  9.4494066238403320  4.9021258354187012 35.0724372863769531
  8.9056205749511719 13.7667207717895508 34.8059082031250000
  4.2592663764953613  9.2227506637573242 34.8138771057128906
  4.8243717411532998 17.9781260788440704 34.7458610534668040
 13.9457582691684365 17.8074412345886230 35.0369949340820312
  0.1464623063802719  4.3888249397277832 40.7017517089843750
  0.2937579154968262 13.7628335952758789 40.8045349121093750
  9.1440467834472656  4.6423459053039551 40.5297241210937500
  8.8864135742187500 13.6586980819702148 40.5867424011230540
  4.5399527549743652  8.9665460586547852 40.6054801940918040
  4.5150450924411416 17.9577058702707291 40.5171165466308665
 13.3947849273681641  9.2815980911254883 40.5955581665039134
 13.5327133396640420 18.0434084162116051 40.6103019714355469
  9.0289716720581055  4.5156092643737793 46.4455223083496165
  9.0265130996704102 13.5470085144042969 46.4455223083496165
 18.0593719482421875  4.5156092643737793 46.4455223083496165
 18.0569133758544922 13.5470085144042969 46.4455223083496165
  4.5152091979980469  0.0000180629995157 46.4442062377929759
  4.5127501487731934  9.0314178466796857 46.4442062377929759
 13.5456094741821289  0.0000180629995157 46.4442062377929759
 13.5431499481201172  9.0314178466796857 46.4442062377929759
 16.9758548736572266  5.0328340530395508 31.6829090118408203
 17.4504642486572266  3.7426252365112305 31.4512901306152344
 17.8927783966064453  6.0335159301757812 32.0754394531250071
  0.7547454833984412  3.4469237327575684 31.5966587066650426
  1.1921043395996087  5.7381300926208496 32.2038459777832102
  1.6622028350830096  4.4477820396423340 31.9489688873291016
 14.7936973571777344  8.7633895874023438 33.1524925231933665
 14.3179187774658185 10.9367866516113281 34.2608604431152344
 12.5385694503784180  9.2045106887817365 34.2471885681152415
 14.5863876342773438  8.8206157684326172 35.6139717102050781
 14.7536792755126953  7.2210941314697266 33.0769882202148438
 14.9989547729492188  6.7721958160400382 31.6134891510009766
 15.7680721282958967 11.3778038024902344 34.1576309204101562
 11.8989191055297852  9.5240983963012695 32.9058113098144531
 13.9323453903198242  9.3406658172607422 36.8744850158691477
 15.4903173446655273  5.3164405822753897 31.4518375396728551
  1.0509395599365219  4.4970598220825195 35.6570091247558594
  0.6466865539550769 12.7953872680664062 35.6707763671875000
  9.9070358276367188  3.7331964969635010 35.4457283020019531
  9.8925476074218750 13.0252571105957031 35.2478256225586009
  8.2121181488037109  5.3122186660766602 35.2480201721191406
  7.6465787887573233 13.6148376464843750 35.1745605468750071
 16.8033866882324219  4.5416417121887207 35.4474334716796875
 17.6242313385009766 14.8137226104736328 35.2193450927734375
  4.6068539619445801  8.0908718109130859 35.3759574890136719
  3.5928008556365962  0.2377806305885315 35.0285491943359375
 12.6566108921542764 17.7991961240768433 35.2450599670410156
  5.8712954521179199  0.6351234912872314 35.0617904663086009
  4.8756856918334961 10.3678388595581055 35.0033569335937571
 14.7498893737792969  0.7224102616310120 35.3738250732421875
  1.0330822467803955  3.5133912563323975 41.0774230957031321
  0.8942955136299133 12.6698665618896484 41.1514549255371094
  9.8327064514160156  3.5993456840515137 40.9025192260742188
  9.6137275695800781 12.9045305252075195 41.3879432678222656
  3.9005944728851314  8.0925455093383789 41.3318405151367188
  3.5595852592960000 17.2681040763854980 41.0829391479492188
 12.5924654006958008  8.3819894790649414 41.1306877136230469
 12.7119945744052529 17.2446262240409851 41.2339439392089844
  8.3454895019531250  5.3573307991027832 41.3037414550781250
  8.0195083618164062 14.5735492706298828 40.9636878967285227
 17.4479678869247437  5.1064500808715820 41.4838485717773438
 17.2102258801460266 14.2086896896362305 41.2820625305175781
  5.3746242523193350  0.6638486385345459 41.1407661437988281
  5.3939018249511719  9.8771476745605469 41.0608901977539062
 14.3137426376342773  0.8934171795845032 41.1863784790039134
 14.4800949096679688  9.7673702239990234 41.1521949768066406
  0.8273094892501831  3.6869695186614990 47.0359649658203125
  0.8248501420021057 12.7183685302734375 47.0359649658203125
  9.8577098846435547  3.6869695186614990 47.0359649658203125
  9.8552503585815412 12.7183685302734375 47.0359649658203125
  3.6843190193176270  8.2023353576660156 47.0346527099609375
  3.6818594932556152 17.2337341308593750 47.0346527099609375
 12.7147188186645508  8.2023353576660156 47.0346527099609375
 12.7122592926025391 17.2337341308593750 47.0346527099609375
  8.2006769180297852  5.3445744514465332 47.0360260009765696
  8.1982173919677734 14.3759746551513672 47.0360260009765696
 17.2310771942138672  5.3445744514465332 47.0360260009765696
 17.2286186218261719 14.3759746551513672 47.0360260009765696
  5.3436489105224600  0.8290914893150328 47.0346527099609375
  5.3411893844604483  9.8604917526245117 47.0346527099609375
 14.3740482330322266  0.8290914893150328 47.0346527099609375
 14.3715896606445312  9.8604917526245117 47.0346527099609375
 14.0533761978149414  9.4258356094360352 34.3077659606933594
  9.1910890797153115 17.6705761551856995 34.6352272033691477
  8.2722196578979492  8.8570632934570312 34.6469459533691406
  0.1039354503154754  0.2245389968156814 34.5167541503906250
  0.6619617938995361  8.9475631713867188 34.6851539611816406
  4.5665998458862296  4.4108848571777344 34.7074432373046875
  4.2449378967285156 13.9750328063964844 34.4397468566894602
 13.3736944198608398  3.9953525066375732 34.7119865417480469
 12.9715681076049787 14.3873119354248047 34.4526481628417969
 17.9565887236967718 17.8377780020236969 40.9033813476562500
  0.0625374838709831  9.0545911788940430 40.9669494628906250
  8.9843950271606445  0.0882329493761063 40.9302215576171875
  8.9610271453857422  9.0795831680297852 40.9303169250488281
  4.7078685760498047  4.2724137306213379 40.9710197448730469
  4.4712309837341309 13.5892515182495117 40.8666229248046875
 13.3882265090942383  4.6111207008361808 40.9649658203125071
 13.5913105010986328 13.5081520080566406 40.8505744934082031
  2.5885918140411373  2.0366420745849609 38.0612678527832031
  2.5844650268554688 11.0396986007690430 38.1025772094726562
 11.6242370605468732  1.9548349380493162 38.0472106933593821
 11.0719966888427734 11.4596195220947266 38.2259407043457031
  6.6180114746093741  6.9688453674316406 38.2378654479980540
  6.5882725715637207 16.0083312988281250 37.9487953186035227
 16.0667228698730469  6.5199007987976074 38.4165077209472656
 15.6407194137573224 16.0263442993164062 37.9303436279296946
  2.2107741832733154  6.6343827247619629 38.2996978759765625
  2.1352198123931885 15.8177728652954084 37.9008140563964844
 11.1748332977294922  6.7201995849609375 37.7852210998535227
 11.2088174819946289 15.6679401397705078 38.2418823242187500
  7.2344317436218262  2.6113047599792476 37.7773017883300781
  6.7852377891540527 11.4355802536010742 37.9262542724609375
 15.9745388031005842  2.4585800170898438 38.3214035034179759
 16.4003715515136719 11.8556690216064453 38.2803268432617188
  0.0000000000000000  0.0000000000000000 47.1735610961914062
 -0.0024593239650130  9.0313997268676740 47.1735610961914062
  9.0304002761840803  0.0000000000000000 47.1735610961914062
  9.0279407501220685  9.0313997268676740 47.1735610961914062
  4.5139794349670410  4.5156998634338379 47.1742515563964844
  4.5115203857421875 13.5470991134643537 47.1742515563964844
 13.5443792343139648  4.5156998634338379 47.1742515563964844
 13.5419197082519531 13.5470991134643537 47.1742515563964844
  2.4519233703613277  2.0629522800445557 44.0401268005371165
  2.4494640827178955 11.0943517684936523 44.0401268005371165
 11.4823226928710920  2.0629522800445557 44.0401268005371165
 11.4798641204833984 11.0943517684936523 44.0401268005371165
  6.5760178565979004  6.9684472084045410 44.0401268005371165
  6.5735583305358887 15.9998464584350586 44.0401268005371165
 15.6064186096191406  6.9684472084045410 44.0401268005371165
 15.6039590835571289 15.9998464584350586 44.0401268005371165
  2.0610768795013428  6.5788145065307617 44.0400009155273509
  2.0586175918579102 15.6102142333984375 44.0400009155273509
 11.0914773941040039  6.5788145065307617 44.0400009155273509
 11.0890178680419922 15.6102142333984375 44.0400009155273509
  6.9668641090393066  2.4525938034057613 44.0400657653808665
  6.9644045829772949 11.4839935302734375 44.0400657653808665
 15.9972639083862305  2.4525938034057613 44.0400657653808665
 15.9948053359985352 11.4839935302734375 44.0400657653808665
  2.4316265583038330  2.0832188129425049 50.0684852600097656
  2.4291670322418213 11.1146183013915998 50.0684852600097656
 11.4620265960693359  2.0832188129425049 50.0684852600097656
 11.4595670700073224 11.1146183013915998 50.0684852600097656
  6.5963144302368164  6.9481806755065918 50.0684852600097656
  6.5938549041748047 15.9795799255371076 50.0684852600097656
 15.6267137527465803  6.9481806755065918 50.0684852600097656
 15.6242542266845703 15.9795799255371076 50.0684852600097656
  2.0811281204223633  6.5990090370178223 50.0690460205078125
  2.0786688327789307 15.6304082870483398 50.0690460205078125
 11.1115283966064453  6.5990090370178223 50.0690460205078125
 11.1090688705444336 15.6304082870483398 50.0690460205078125
  6.9468131065368652  2.4323906898498531 50.0690460205078125
  6.9443535804748535 11.4637899398803711 50.0690460205078125
 15.9772129058837891  2.4323906898498531 50.0690460205078125
 15.9747543334960938 11.4637899398803711 50.0690460205078125
 18.0581423270050436  0.1328698396682739 37.8088264465332031
  0.1338232606649399  9.0894203186035156 37.8149948120117188
  9.0555376270785928 17.9579504430294072 37.7622489929199219
  8.9604558944702148  9.0175094604492188 37.7228279113769602
  4.5723972320556641  4.5472812652587891 37.8549842834472656
  4.3920497894287109 13.6718235015869141 37.7310523986816406
 13.5481910705566406  4.5466504096984863 37.8952560424804688
 13.5295066833496094 13.6863803863525373 37.6857032775878906
  0.0000090280000222  0.0000090310004452 44.0429992675781250
 -0.0024502959568053  9.0314083099365234 44.0429992675781250
  9.0304088592529297  0.0000090310004452 44.0429992675781250
  9.0279493331909180  9.0314083099365234 44.0429992675781250
  4.5139703750610352  4.5156903266906738 44.0427513122558594
  4.5115113258361816 13.5470905303955078 44.0427513122558594
 13.5443706512451172  4.5156903266906738 44.0427513122558594
 13.5419111251831037 13.5470905303955078 44.0427513122558594
  0.0000000000000000  0.0000000000000000 50.4472808837890696
 -0.0024593239650130  9.0313997268676740 50.4472808837890696
  9.0304002761840803  0.0000000000000000 50.4472808837890696
  9.0279407501220685  9.0313997268676740 50.4472808837890696
  4.5139703750610352  4.5156998634338379 50.4472808837890696
  4.5115113258361816 13.5470991134643537 50.4472808837890696
 13.5443706512451172  4.5156998634338379 50.4472808837890696
 13.5419111251831055 13.5470991134643537 50.4472808837890696
