 H  C  N  I Pb 
 1.0000000000000000
    18.0608005523681641    0.0000000000000000    0.0000000000000000
    -0.0049186488613486   18.0627994537353516    0.0000000000000000
     0.0000000000000000    0.0000000000000000   62.4874992370605469
 H   C   N   I   Pb 
 143  39  47  72  24
Cartesian
  8.0848283767700195  5.5228352546691895 36.2704887390136719
  8.0696001052856445 15.1698598861694336 36.0432739257812500
 16.9283027648925781  4.7401652336120605 36.5252609252929688
 17.3620548248291016 14.5636043548583967 36.6451187133789062
  5.4006662368774414  0.8719258308410645 36.3718605041503906
  5.5293016433715820 10.0822935104370117 36.3785209655761719
 14.0539369583129865  1.2683091163635252 36.3583946228027344
  1.9356994628906254  3.7877445220947266 34.7082786560058594
  1.6091175079345690 12.2992191314697266 34.9340324401855540
 10.3852005004882795  3.2295892238616943 34.8510856628417969
  9.3741607666015625 11.8599805831909180 35.4298667907714844
  6.4788613319396973  0.5439381599426270 35.0522003173828196
  5.3264441490173331 10.9897556304931641 34.9385375976562500
 15.3031272888183594  1.0730868577957153 35.1875419616699290
  1.2521800994873029  3.8275122642517085 36.2950248718261719
  0.7123298645019540 12.4946842193603516 36.4101943969726562
 10.1511487960815430  4.3154368400573730 36.1516075134277344
  8.8930912017822266 12.9265794754028320 36.7046432495117188
  4.3031001091003418  7.8485026359558105 36.4137725830078125
  3.0912980297580357 17.8849098086357152 36.2032356262207031
 12.2213138798251748 17.6365708708763123 36.3043594360351562
  6.8722834587097168  5.1732606887817383 35.0818519592285156
  8.2143058776855469 15.6023130416870099 34.3610420227050781
 16.1532135009765625  5.0148963928222656 34.9893302917480469
 17.3976135253906250 15.6633043289184570 35.2649841308593821
  3.4355523586273189  7.4417490959167480 34.9847221374511719
  2.7636388996616006 17.0656386613845825 34.7305526733398438
 12.3819212177768350 16.3733544349670410 35.0844497680664062
  8.2367544174194336  3.7043120861053467 33.9758071899414062
  9.0641155242919922 13.5445261001586914 33.7941398620605469
 18.0540390014648438  4.4994125366210938 33.7091598510742188
  0.8144340515136712 14.2813968658447266 34.0502243041992188
  3.9719238281250000  9.3828315734863281 33.9070434570312571
  4.8738087872043252 17.4135245084762573 33.8606567382812500
 14.3347210148349387 17.2693133950233459 34.2333221435546875
  8.2184953689575195  5.5661892890930167 42.2626037597656321
  7.8604841232299805 14.7634534835815430 41.9910812377929688
 17.3744111061096191  5.1139903068542480 42.4916572570800852
 16.8995003700256348 14.4305133819580078 42.1479530334472727
  5.5344967842102051  0.9862018227577209 42.0786056518554688
  5.3491625785827628  9.9850749969482422 42.2567520141601562
 14.5178356170654279  0.9228292107582091 42.2519111633300781
 15.1280326843261701  9.5946636199951172 41.8919677734375000
  1.5282882452011108  3.1294810771942139 40.3480644226074290
  1.7090113162994385 12.4333858489990234 40.9179763793945384
 10.2919921875000000  2.9347205162048340 40.7362518310546875
 10.3006639480590820 12.1724290847778320 41.1768035888671875
  3.3169507980346680  7.4199242591857910 40.5707435607910156
  3.0917553165927525 16.6358015537261963 40.8097229003906250
 11.8756217956542969  8.2085943222045898 41.0370063781738281
 12.0369734028354287 16.8115190267562866 40.6469573974609375
  1.1560713052749634  3.3904232978820801 42.0337333679199219
  0.7821555137634277 12.6229705810546875 42.3681449890136719
 10.0194578170776367  3.6799821853637695 42.2714309692382812
  9.5579376220703125 12.9389381408691406 42.5673789978027415
  3.7663316726684570  7.9374799728393555 42.1573944091796875
  3.6834770897403355 17.2559463381767273 42.3157081604003977
 13.0696821212768555  8.1451120376586914 42.2759933471679759
 12.5307478168979287 17.3341699838638306 42.2254981994628906
  7.4832024574279785  5.8607568740844727 40.7257690429687571
  7.6620464324951172 15.0955266952514648 40.2928047180175781
 16.6685576438903809  5.8341174125671387 41.0448226928710938
 16.7817947864532471 15.1493482589721680 40.5880928039550781
  5.9869794845581046  1.3951493501663208 40.4526023864746094
  5.8025398254394531 10.6186676025390625 40.7105178833007812
 15.1684083938598633  1.3236439228057861 40.6954307556152344
 15.1970539093017578 10.3863134384155273 40.3464431762695312
 18.0160516873002052  4.6400389671325684 39.6148071289062500
  0.5307011604309082 14.0395393371582031 39.7034606933593750
  8.7245988845825195  4.2516851425170898 39.6394882202148509
  9.1857805252075195 13.5062847137451172 39.6500434875488281
  4.5081662395969033 17.9804696887731552 39.5166015625000000
  4.5504517555236816  9.0656900405883789 39.5239830017089915
 13.7022571563720703  0.0155785568058491 39.5596885681152415
 13.1908979415893537  9.6361522674560547 39.6991767883300852
  8.1032123565673828  5.4420318603515616 48.0459518432617259
  8.1007528305053711 14.4734306335449219 48.0459518432617259
 17.1336116790771484  5.4420318603515616 48.0459518432617259
 17.1311531066894531 14.4734306335449219 48.0459518432617259
  5.4410333633422852  0.9265221953392029 48.0449485778808594
  5.4385743141174316  9.9579219818115234 48.0449485778808594
 14.4714326858520490  0.9265221953392029 48.0449485778808594
 14.4689741134643555  9.9579219818115234 48.0449485778808594
  1.4218254089355467  3.0919990539550781 46.4558296203613281
  1.4193661212921143 12.1233978271484375 46.4558296203613281
 10.4522256851196289  3.0919990539550781 46.4558296203613281
 10.4497661590576172 12.1233978271484375 46.4558296203613281
  3.0899283885955806  7.6075901985168457 46.4545211791992188
  3.0874691009521484 16.6389904022216797 46.4545211791992188
 12.1203289031982422  7.6075901985168457 46.4545211791992188
 12.1178693771362305 16.6389904022216797 46.4545211791992188
  0.9247469902038573  3.5893490314483643 48.0459518432617259
  0.9222877025604248 12.6207475662231445 48.0459518432617259
  9.9551477432250977  3.5893490314483643 48.0459518432617259
  9.9526882171630859 12.6207475662231445 48.0459518432617259
  3.5868983268737793  8.1048498153686523 48.0448913574218821
  3.5844390392303462 17.1362495422363281 48.0448913574218821
 12.6172990798950195  8.1048498153686523 48.0448913574218821
 12.6148395538330078 17.1362495422363281 48.0448913574218821
  7.6061611175537109  5.9393639564514160 46.4558296203613281
  7.6037015914916992 14.9707632064819336 46.4558296203613281
 16.6365604400634766  5.9393639564514160 46.4558296203613281
 16.6341018676757812 14.9707632064819336 46.4558296203613281
  5.9380125999450684  1.4238001108169553 46.4545211791992188
  5.9355530738830566 10.4551992416381836 46.4545211791992188
 14.9684123992919904  1.4238001108169553 46.4545211791992188
 14.9659538269042951 10.4551992416381836 46.4545211791992188
 -0.0011664569610730  4.5157265663146973 45.3548011779785156
 -0.0036257810425013 13.5471258163452148 45.3548011779785156
  9.0292339324951172  4.5157265663146973 45.3548011779785156
  9.0267744064331037 13.5471258163452148 45.3548011779785156
  4.5152091979980469  0.0000000000000000 45.3536758422851562
  4.5127501487731934  9.0313997268676740 45.3536758422851562
 13.5456094741821289  0.0000000000000000 45.3536758422851562
 13.5431499481201172  9.0313997268676740 45.3536758422851562
 12.9288682937622070  8.0215368270874023 33.9719772338867188
 13.3006668090820312  9.0879774093627930 32.6208000183105469
 11.7114696502685547  9.7836322784423828 35.0444450378418040
 12.4571361541748047 11.4235258102416974 35.1294288635253906
 15.0954084396362305  9.1131334304809570 35.9586219787597656
 13.9212579727172852 10.3029165267944336 36.6030693054199219
 15.6054935455322266 10.0786314010620099 33.6049041748046875
 14.4236850738525391 11.1644906997680664 33.0348243713378906
 15.6536521911621094  8.6563987731933594 32.6497993469238352
 15.6350784301757812  7.9554319381713867 34.2752494812011719
 15.9485797882080078  6.2381019592285156 32.6642494201660227
 14.3845663070678711  5.9594841003417969 33.4272613525390625
 11.2628116607666016  9.8619785308837891 32.7787857055664062
 12.4450492858886719 11.1693754196166992 32.4217033386230469
 10.9477691650390625 11.5097303390502930 33.2890319824218821
 13.4947586059570312  8.1243047714233398 37.4762382507324290
 13.3775892257690430  7.3227691650390625 35.9105033874511790
 12.0877189636230469  8.4834966659545898 36.4199905395507812
 15.0312194824218750 12.2962188720703125 35.5857429504394531
 15.8518600463867188 12.6168727874755859 34.0490837097167969
 16.5141925811767578 11.4245977401733398 35.1505050659179759
 14.9529104232788086  7.1720910072326651 30.6663455963134766
 14.3747968673706055  5.5681710243225089 30.9844913482666016
 12.0707941055297852  5.6856069564819336 32.5833511352539062
 13.4193267822265625  8.6432228088378906 29.7535190582275391
  9.7864532470703125  6.6322116851806641 32.4517555236816406
 11.1336002349853498  9.5739793777465820 29.6454963684082031
  9.2980575561523438  8.5599250793457031 31.0443439483642578
  0.0214595794677737  4.4157686233520508 34.7814064025878906
  0.4711112976074235 13.9802770614624023 35.0258560180664062
  8.6126976013183594  4.1848669052124023 34.8817481994628906
  8.8550624847412109 13.7279176712036133 34.8227539062500000
  4.3694024085998535  9.2345180511474609 34.8977050781250000
  4.6118559101596475 17.8155601024627686 34.8273963928222656
 13.8555454472079873 17.7590215802192688 35.0660209655761719
  0.0706819444894791  4.4804158210754395 40.7035484313964915
  0.2288740724325180 13.7910251617431641 40.7413177490234375
  8.8900117874145508  4.3947091102600098 40.7214698791503906
  9.0068521499633789 13.6243343353271484 40.7316894531250071
  4.5625662803649902  9.0264892578125000 40.6186714172363281
  4.5167154530063272 18.0297858417034149 40.6171913146972727
 13.5420379638671857  9.3013010025024414 40.6597366333007884
 13.5940332412719727  0.0272591486573219 40.6553916931152344
  9.0289716720581055  4.5156092643737793 46.4455223083496165
  9.0265130996704102 13.5470085144042969 46.4455223083496165
 18.0593719482421875  4.5156092643737793 46.4455223083496165
 18.0569133758544922 13.5470085144042969 46.4455223083496165
  4.5152091979980469  0.0000180629995157 46.4442062377929759
  4.5127501487731934  9.0314178466796857 46.4442062377929759
 13.5456094741821289  0.0000180629995157 46.4442062377929759
 13.5431499481201172  9.0314178466796857 46.4442062377929759
 12.9230690002441388  7.1139311790466309 31.1695880889892614
 11.8928899765014648  6.5441694259643555 31.9174232482910156
 12.6234216690063477  8.1845998764038086 30.3461761474609375
 10.5835323333740234  7.0598020553588867 31.8439292907714879
 11.3385601043701172  8.7315053939819336 30.2723712921142578
 10.2776412963867188  8.1626071929931641 31.0486030578613317
 13.6807136535644531  8.7272663116455078 33.5983886718750000
 12.3565711975097656 10.5040845870971680 34.5328941345214844
 14.0533132553100586  9.4353008270263672 35.9375038146972727
 14.8389225006103516 10.7680530548095685 33.9457435607910227
 15.0615882873535156  8.0247287750244141 33.3310737609863281
 14.9177265167236328  6.6214704513549805 32.7181243896484446
 11.7434778213500977 10.7650604248046857 33.1669807434082031
 13.1796331405639648  8.2871313095092773 36.4321556091308665
 15.5647640228271484 11.8236370086669922 34.7568588256835938
 14.3141927719116193  6.5972738265991211 31.3165779113769567
  1.1416740417480473  3.9784147739410396 35.2977066040039062
  0.9516677856445329 12.8511791229248047 35.5077285766601634
  9.7708024978637695  3.8476564884185791 35.3452262878417969
  9.1239395141601562 12.7988452911376953 35.7161254882812571
  7.8245711326599121  5.0706114768981934 35.4376106262207031
  8.3426523208618164 14.9186820983886719 35.1135253906250000
 16.9949645996093750  4.7504963874816895 35.4911041259765625
 17.6610641479492188 14.7407169342041016 35.6644592285156250
  4.0183434486389160  8.0874223709106445 35.4513435363769531
  3.4230226734653115 17.5699293315410614 35.2663383483886719
 12.7102913120761514 17.2354840040206909 35.4906387329101562
  5.5581641197204590  0.4454402029514313 35.4451408386230469
  5.1057472229003906 10.1538648605346680 35.4285926818847727
 14.4650049209594727  0.7125850915908813 35.5780906677246094
  0.9589052200317382  3.6358373165130615 41.0651435852050781
  0.9114511013031006 12.9173069000244123 41.3795814514160227
  9.7689456939697248  3.6583726406097412 41.2914199829101562
  9.6626949310302734 12.8574123382568359 41.5536766052246094
  3.8496041297912593  8.0687389373779297 41.1726799011230469
  3.7326969364657998 17.2777740955352783 41.3150863647461009
 12.8019971847534180  8.4886083602905273 41.3556327819824290
 12.6815685490146279 17.3778317570686340 41.2385635375976562
  8.1516542434692383  5.3429837226867676 41.3016624450683665
  8.1124086380004883 14.5615749359130842 41.0501708984375000
 17.3246772289276123  5.1991934776306152 41.4878387451171946
 17.2690178155899048 14.4730434417724609 41.1776237487793040
  5.4120836257934570  0.8432900309562683 41.1057739257812500
  5.2677226066589355  9.9227895736694336 41.2617034912109375
 14.4903249740600586  0.8154838681221007 41.2671394348144531
 14.7287540435790998  9.7891025543212891 41.0054512023925781
  0.8273094892501831  3.6869695186614990 47.0359649658203125
  0.8248501420021057 12.7183685302734375 47.0359649658203125
  9.8577098846435547  3.6869695186614990 47.0359649658203125
  9.8552503585815412 12.7183685302734375 47.0359649658203125
  3.6843190193176270  8.2023353576660156 47.0346527099609375
  3.6818594932556152 17.2337341308593750 47.0346527099609375
 12.7147188186645508  8.2023353576660156 47.0346527099609375
 12.7122592926025391 17.2337341308593750 47.0346527099609375
  8.2006769180297852  5.3445744514465332 47.0360260009765696
  8.1982173919677734 14.3759746551513672 47.0360260009765696
 17.2310771942138672  5.3445744514465332 47.0360260009765696
 17.2286186218261719 14.3759746551513672 47.0360260009765696
  5.3436489105224600  0.8290914893150328 47.0346527099609375
  5.3411893844604483  9.8604917526245117 47.0346527099609375
 14.3740482330322266  0.8290914893150328 47.0346527099609375
 14.3715896606445312  9.8604917526245117 47.0346527099609375
 13.7592201232910156  9.8706893920898438 34.5131835937500071
  8.8583211898803711  0.3027490079402924 34.4411315917968750
  8.7075128555297852  9.3581523895263672 34.7546615600586009
 17.8528039455413818  0.1013348996639252 34.5308227539062500
  0.5760223865509032  9.1089887619018555 34.6706123352050781
  4.4953861236572266  4.4580097198486328 34.4458045959472656
  4.6215553283691406 13.5849838256835920 34.5604248046875000
 13.3721284866333008  3.9085438251495357 34.9327850341796946
 12.9200496673583984 14.1815671920776367 34.1357688903808594
  0.0387993976473808  0.0551114678382874 40.8959655761718750
  0.2368763983249664  8.9157094955444336 40.9913673400878977
  8.9691299656406045 18.0512942271307111 40.8814964294433665
  9.0578079223632795  8.8334016799926758 40.9651527404785156
  4.5957427024841309  4.4368786811828613 40.8666000366211009
  4.5641713142395011 13.6146564483642560 40.9067993164062500
 13.3737792968749982  4.5924744606018066 41.0254478454589844
 13.6448822021484375 13.6316604614257812 40.8468017578125071
  2.6039252281188965  1.9564198255538938 37.9717025756835938
  2.6552143096923828 11.0818948745727521 38.1584930419921946
 11.6529693603515625  1.8987601995468140 38.1598701477050852
 11.1756353378295881 11.4247217178344727 38.4617843627929688
  6.3869886398315430  7.0905804634094238 38.0457649230957031
  6.6367354393005371 16.0393371582031250 38.0108108520507812
 15.9214954376220703  6.7106156349182129 38.3566741943359375
 15.5481109619140625 16.1187305450439453 38.1258773803710938
  2.0241477489471436  6.4104261398315430 38.0255012512207031
  2.1244747638702393 15.7423200607299805 38.0350418090820312
 10.6179828643798828  6.1782627105712891 37.9927177429199290
 11.0008563995361328 15.6192264556884748 38.0955734252929688
  7.0046482086181632  2.5097041130065918 38.0823440551757812
  6.9134178161621085 11.4432544708251953 38.3256721496582031
 15.9569778442382812  2.5279412269592285 38.3390998840332102
 16.5327682495117188 11.7620801925659180 38.5394859313964844
  0.0000000000000000  0.0000000000000000 47.1735610961914062
 -0.0024593239650130  9.0313997268676740 47.1735610961914062
  9.0304002761840803  0.0000000000000000 47.1735610961914062
  9.0279407501220685  9.0313997268676740 47.1735610961914062
  4.5139794349670410  4.5156998634338379 47.1742515563964844
  4.5115203857421875 13.5470991134643537 47.1742515563964844
 13.5443792343139648  4.5156998634338379 47.1742515563964844
 13.5419197082519531 13.5470991134643537 47.1742515563964844
  2.4519233703613277  2.0629522800445557 44.0401268005371165
  2.4494640827178955 11.0943517684936523 44.0401268005371165
 11.4823226928710920  2.0629522800445557 44.0401268005371165
 11.4798641204833984 11.0943517684936523 44.0401268005371165
  6.5760178565979004  6.9684472084045410 44.0401268005371165
  6.5735583305358887 15.9998464584350586 44.0401268005371165
 15.6064186096191406  6.9684472084045410 44.0401268005371165
 15.6039590835571289 15.9998464584350586 44.0401268005371165
  2.0610768795013428  6.5788145065307617 44.0400009155273509
  2.0586175918579102 15.6102142333984375 44.0400009155273509
 11.0914773941040039  6.5788145065307617 44.0400009155273509
 11.0890178680419922 15.6102142333984375 44.0400009155273509
  6.9668641090393066  2.4525938034057613 44.0400657653808665
  6.9644045829772949 11.4839935302734375 44.0400657653808665
 15.9972639083862305  2.4525938034057613 44.0400657653808665
 15.9948053359985352 11.4839935302734375 44.0400657653808665
  2.4316265583038330  2.0832188129425049 50.0684852600097656
  2.4291670322418213 11.1146183013915998 50.0684852600097656
 11.4620265960693359  2.0832188129425049 50.0684852600097656
 11.4595670700073224 11.1146183013915998 50.0684852600097656
  6.5963144302368164  6.9481806755065918 50.0684852600097656
  6.5938549041748047 15.9795799255371076 50.0684852600097656
 15.6267137527465803  6.9481806755065918 50.0684852600097656
 15.6242542266845703 15.9795799255371076 50.0684852600097656
  2.0811281204223633  6.5990090370178223 50.0690460205078125
  2.0786688327789307 15.6304082870483398 50.0690460205078125
 11.1115283966064453  6.5990090370178223 50.0690460205078125
 11.1090688705444336 15.6304082870483398 50.0690460205078125
  6.9468131065368652  2.4323906898498531 50.0690460205078125
  6.9443535804748535 11.4637899398803711 50.0690460205078125
 15.9772129058837891  2.4323906898498531 50.0690460205078125
 15.9747543334960938 11.4637899398803711 50.0690460205078125
 17.9490920603275299  0.0907356739044189 37.7659835815429688
  0.1244482994079590  9.0897932052612305 37.7867088317871165
  9.0707836151123047  0.1379809677600861 37.6958465576171875
  9.0021524429321289  9.0704946517944336 37.7941551208496094
  4.5326085090637207  4.4994029998779297 37.7166481018066406
  4.5261693000793457 13.5992174148559553 37.6714286804199219
 13.4712066650390625  4.5852618217468262 37.9312210083007812
 13.4025468826293945 13.7101469039916992 37.6987113952636719
  0.0000090280000222  0.0000090310004452 44.0429992675781250
 -0.0024502959568053  9.0314083099365234 44.0429992675781250
  9.0304088592529297  0.0000090310004452 44.0429992675781250
  9.0279493331909180  9.0314083099365234 44.0429992675781250
  4.5139703750610352  4.5156903266906738 44.0427513122558594
  4.5115113258361816 13.5470905303955078 44.0427513122558594
 13.5443706512451172  4.5156903266906738 44.0427513122558594
 13.5419111251831037 13.5470905303955078 44.0427513122558594
  0.0000000000000000  0.0000000000000000 50.4472808837890696
 -0.0024593239650130  9.0313997268676740 50.4472808837890696
  9.0304002761840803  0.0000000000000000 50.4472808837890696
  9.0279407501220685  9.0313997268676740 50.4472808837890696
  4.5139703750610352  4.5156998634338379 50.4472808837890696
  4.5115113258361816 13.5470991134643537 50.4472808837890696
 13.5443706512451172  4.5156998634338379 50.4472808837890696
 13.5419111251831055 13.5470991134643537 50.4472808837890696
