 H  C  N  I Pb 
 1.0000000000000000
    18.0608005523681641    0.0000000000000000    0.0000000000000000
    -0.0049186488613486   18.0627994537353516    0.0000000000000000
     0.0000000000000000    0.0000000000000000   62.4874992370605469
 H   C   N   I   Pb 
 143  39  47  72  24
Cartesian
  8.1922025680541992  6.0768604278564453 35.2003707885742188
  8.0414514541625977 14.9524106979370099 35.8237457275390625
 17.4029312133789062  5.9283418655395499 35.9362564086914062
 16.9418945312500000 14.7551651000976562 35.7755546569824219
  6.1027545193210244 17.1566820144653320 35.7263374328613281
  6.3648767471313468  9.9018201828002930 34.8692321777343750
 14.5763349533081055  1.5988425016403198 35.0096664428710938
  0.2478694915771487  2.5697505474090572 34.9403038024902344
  1.3985290527343777 12.1470689773559570 35.6520729064941477
  9.9520902633666974  2.8773500919342041 34.9868850708007812
  8.9636173248291016 11.5718269348144531 34.8617553710937500
  6.7263994216918936  0.4515070915222168 34.8438987731933594
  5.3737258911132812 11.3297605514526367 34.5364112854003906
 15.8813199996948224  0.4959381520748138 34.5718002319335938
 17.2933635711669922  3.4367220401763916 36.0474586486816406
 17.9056377410888672 12.5242309570312500 36.3441009521484375
 10.2220830917358398  4.5487017631530762 35.4649200439453125
  8.0119094848632812 12.4535665512084961 36.0126419067382812
  5.0241603851318359  7.8880562782287598 35.7254180908203196
  3.6702203014865518 16.7950968742370605 35.7666473388671946
 12.4209356307983398  0.5185804367065430 35.7197418212890625
  6.7194676399230948  5.2350292205810547 34.7246894836425781
  9.1282730102539062 15.6448183059692365 34.6609992980957031
  0.4296169281005862  6.6398420333862305 34.7601356506347656
 17.8489856719970703 15.7134313583374023 34.6334800720214844
  3.2987551689147949  8.0545682907104492 35.5606918334960938
  2.6809803703799844 17.9828508719801903 34.9681892395019602
 12.3475355366244912 16.8426083326339722 35.4590682983398438
  7.7465825080871573  3.2197611331939697 34.4659652709960938
  9.8205223083496094 13.5422830581665039 33.8668556213378906
  1.1641139984130844  4.5097413063049316 34.0176658630371094
  1.4794368743896509 14.1239538192749023 34.4100761413574219
  3.3845701217651367 10.2055673599243164 34.8046226501464844
  4.5306973457336426  1.2000144720077515 34.3005218505859375
 14.5014023045077920 16.6656124591827393 34.7838363647460938
  8.7819128036499023  6.1268796920776367 41.0725250244140625
  8.1033792495727539 14.5861120223999023 42.1189804077148438
 17.3887641429901159  5.2159914970397949 42.2091636657714844
 16.7368940114974976 13.0982570648193359 42.0123176574707031
  5.4808859825134277  1.0185050964355469 41.9034423828125000
  5.3676996231079093  9.9039716720581055 42.1613273620605540
 14.4632635116577148  1.0570898056030273 42.1329269409179688
 13.9530429840087891 10.7611255645751953 40.9538116455078196
  1.5295571088790894  2.9409859180450439 40.3295021057128906
  2.1041147708892822 13.0595340728759766 40.7910118103027344
 10.1402187347412109  2.7221598625183105 40.9717826843261719
 10.2723455429077148 12.0613164901733398 40.5623703002929688
  3.1650843620300293  7.5064125061035156 40.4521598815918040
  3.0781072834506631 16.6207468509674072 40.6006698608398509
 12.4929113388061523  7.4005537033081046 40.9607963562011719
 12.2002014378085732 16.6343903541564941 40.6548576354980469
  1.1241728067398071  3.3293921947479248 41.9839782714843821
  1.0301456451416016 12.2252740859985352 41.8684768676757812
 10.6963834762573242  4.3730416297912598 41.1007766723632812
  9.7831172943115234 12.5888576507568359 42.1492424011230469
  3.5812854766845703  8.0130233764648438 42.0717849731445312
  3.6547643402591348 17.2300247550010681 42.1234092712402344
 11.9997224807739258  9.0698232650756836 40.9509315490722656
 12.6228889683261514 17.3055850267410278 42.2122077941894531
  7.1796064376831046  5.4261322021484375 40.9826164245605540
  7.7301335334777832 15.1710863113403320 40.5232429504394602
 16.8706692457199097  5.8800601959228516 40.6774597167968750
 16.3431876897811890 14.4085035324096680 40.9360885620117188
  5.8897600173950195  1.4156556129455564 40.2511520385742188
  5.9137954711914062 10.4383811950683594 40.5926246643066406
 15.0620050430297852  1.4037677049636841 40.5331535339355469
 15.5419378280639631 10.0196714401245117 40.9233741760253977
  0.1236173287034035  4.5148229598999023 39.4052085876464844
  0.4341026544570923 14.5204353332519513 40.0377960205078125
  7.9225845336914062  3.2580292224884033 40.9055442810058594
  9.0492734909057617 13.6224479675292969 39.4372558593750000
  4.4211014965549111 17.9669404402375221 39.3268241882324219
  4.5940442085266113  8.9610958099365234 39.4216308593750000
 13.7084631184116006 17.9259534776210785 39.4940185546875000
 14.7404155731201172  7.8624858856201172 40.9378814697265625
  8.1032123565673828  5.4420318603515616 48.0459518432617259
  8.1007528305053711 14.4734306335449219 48.0459518432617259
 17.1336116790771484  5.4420318603515616 48.0459518432617259
 17.1311531066894531 14.4734306335449219 48.0459518432617259
  5.4410333633422852  0.9265221953392029 48.0449485778808594
  5.4385743141174316  9.9579219818115234 48.0449485778808594
 14.4714326858520490  0.9265221953392029 48.0449485778808594
 14.4689741134643555  9.9579219818115234 48.0449485778808594
  1.4218254089355467  3.0919990539550781 46.4558296203613281
  1.4193661212921143 12.1233978271484375 46.4558296203613281
 10.4522256851196289  3.0919990539550781 46.4558296203613281
 10.4497661590576172 12.1233978271484375 46.4558296203613281
  3.0899283885955806  7.6075901985168457 46.4545211791992188
  3.0874691009521484 16.6389904022216797 46.4545211791992188
 12.1203289031982422  7.6075901985168457 46.4545211791992188
 12.1178693771362305 16.6389904022216797 46.4545211791992188
  0.9247469902038573  3.5893490314483643 48.0459518432617259
  0.9222877025604248 12.6207475662231445 48.0459518432617259
  9.9551477432250977  3.5893490314483643 48.0459518432617259
  9.9526882171630859 12.6207475662231445 48.0459518432617259
  3.5868983268737793  8.1048498153686523 48.0448913574218821
  3.5844390392303462 17.1362495422363281 48.0448913574218821
 12.6172990798950195  8.1048498153686523 48.0448913574218821
 12.6148395538330078 17.1362495422363281 48.0448913574218821
  7.6061611175537109  5.9393639564514160 46.4558296203613281
  7.6037015914916992 14.9707632064819336 46.4558296203613281
 16.6365604400634766  5.9393639564514160 46.4558296203613281
 16.6341018676757812 14.9707632064819336 46.4558296203613281
  5.9380125999450684  1.4238001108169553 46.4545211791992188
  5.9355530738830566 10.4551992416381836 46.4545211791992188
 14.9684123992919904  1.4238001108169553 46.4545211791992188
 14.9659538269042951 10.4551992416381836 46.4545211791992188
 -0.0011664569610730  4.5157265663146973 45.3548011779785156
 -0.0036257810425013 13.5471258163452148 45.3548011779785156
  9.0292339324951172  4.5157265663146973 45.3548011779785156
  9.0267744064331037 13.5471258163452148 45.3548011779785156
  4.5152091979980469  0.0000000000000000 45.3536758422851562
  4.5127501487731934  9.0313997268676740 45.3536758422851562
 13.5456094741821289  0.0000000000000000 45.3536758422851562
 13.5431499481201172  9.0313997268676740 45.3536758422851562
 13.9852008819580078 10.0362987518310547 32.3504562377929759
 12.9673385620117188  8.6470699310302734 32.7378616333007884
 15.6877317428588867  9.0652780532836914 33.5729370117187500
 15.5389738082885742  8.7817506790161133 35.3048667907714915
 13.4107856750488281 11.5964965820312500 34.9021339416503906
 14.6747303009033203 10.8268089294433594 35.8702163696289062
 12.0300092697143537  9.8861112594604492 35.4660758972167969
 12.3123283386230469  8.2221755981445312 34.9458847045898438
 11.1286592483520508 10.1499891281127930 33.4897270202636719
 12.1760835647583008 11.5673999786376953 33.3102226257324219
 10.9295158386230469 11.6333246231079102 31.3465423583984411
 12.4078578948974592 10.8527812957763672 30.8079872131347692
 14.2676954269409180  7.0443062782287598 33.0747756958007812
 14.0379486083984375  6.7704362869262686 34.8068275451660227
 15.6389884948730469  6.6472702026367188 34.1056213378906250
 15.5408887863159180 12.6128873825073242 34.4228401184082102
 15.0590801239013672 11.7763299942016602 32.9563598632812571
 16.3244628906250000 11.0781059265136701 34.0237731933593750
 13.8942918777465820  9.6278572082519531 37.2251091003417969
 14.0230760574340820  7.9187688827514648 36.7518920898437500
 12.5239992141723633  8.5376558303833008 37.4360275268554688
  9.7354764938354492  9.4894380569458008 31.5228919982910192
 10.3409595489501935  9.7965717315673810 29.8887805938720703
 12.7417554855346680  8.6590881347656250 29.3609428405761719
 10.0529222488403320  7.3767352104187003 32.4813423156738281
 13.8955926895141584  6.4672675132751465 29.4560661315917969
 11.2355699539184570  5.1919169425964355 32.5940856933593821
 13.1688938140869141  4.7359075546264648 31.1040096282958984
  0.3876132965087900  4.5912337303161621 34.7824478149414062
  0.6040458679199197 13.9076967239379883 35.0341720581054759
  8.3528394699096680  4.0686221122741699 34.7830390930175852
  9.0744609832763672 13.6047115325927734 34.6608505249023438
  4.3218946456909180  9.6749258041381818 34.9743804931640625
  4.6841740608215332  0.2643502354621887 34.8445587158203125
 14.1146902302280068 17.6602609157562256 35.0140457153320312
  0.1660848259925842  4.4088845252990723 40.4943542480468750
  0.1971739530563354 13.7695856094360352 40.7957611083984375
  8.6547393798828125  4.0681042671203613 40.9820632934570384
  8.9990844726562500 13.6103458404541016 40.5310020446777344
  4.5470299720764160  8.9639453887939453 40.5141525268554688
  4.4814376095309854 18.0427475459873676 40.4182128906250071
 14.0277032852172852  8.6939649581909180 40.9417648315429759
 13.6333440998569131 18.0411590114235878 40.5785064697265625
  9.0289716720581055  4.5156092643737793 46.4455223083496165
  9.0265130996704102 13.5470085144042969 46.4455223083496165
 18.0593719482421875  4.5156092643737793 46.4455223083496165
 18.0569133758544922 13.5470085144042969 46.4455223083496165
  4.5152091979980469  0.0000180629995157 46.4442062377929759
  4.5127501487731934  9.0314178466796857 46.4442062377929759
 13.5456094741821289  0.0000180629995157 46.4442062377929759
 13.5431499481201172  9.0314178466796857 46.4442062377929759
 11.3220129013061506  8.1839084625244141 30.9216957092285156
 12.4032516479492188  7.9024925231933594 30.0716495513916016
 10.9013710021972638  7.1814966201782227 31.8156852722167969
 13.0584402084350586  6.6663379669189453 30.1254253387451207
 11.5607500076293945  5.9466986656188965 31.8762474060058629
 12.6488084793090820  5.6921544075012207 31.0376491546630859
 13.1998128890991193  9.6756439208984375 33.0247955322265696
 15.0236186981201172  8.6626863479614258 34.3447341918945384
 14.3015499114990234 10.9632015228271484 34.8496170043945312
 12.7898950576782227  9.1000108718872053 35.4033775329589915
 11.9643526077270490 10.5653762817382795 32.9079742431640696
 11.5209732055664062 10.7093811035156250 31.4442176818847656
 14.7030878067016602  7.2145185470581055 34.0650596618652344
 15.3684120178222656 11.6159667968750000 33.9949607849121094
 13.3572444915771484  8.7835359573364258 36.7662315368652344
 10.6546058654785156  9.5429706573486328 30.9146537780761719
 17.9698295593261719  3.4762549400329590 35.2753868103027344
  0.6029472351074253 12.7789163589477521 35.6956176757812500
  9.6202144622802717  3.8436405658721919 35.0312957763671875
  8.6271553039550781 12.4852046966552734 35.1845588684082031
  7.7407145500183105  5.2312560081481934 34.8592643737793040
  8.6887655258178711 14.8028411865234375 35.0402221679687500
 18.0590076446533203  5.7897744178771973 35.1439628601074219
 17.6924953460693359 14.7963228225708008 35.0710487365722656
  4.2294030189514160  8.4248695373535156 35.3661842346191477
  3.6206673840060826 17.6414707005023956 35.1963615417480469
 12.8647779682651162 17.7254449129104614 35.3943214416503906
  5.9045142391696572 17.9681231826543808 35.1289978027343750
  5.4338250160217285 10.3257455825805664 34.7435340881347727
 14.9167871475219727  0.6317738890647888 34.8881454467773438
  0.9788127541542053  3.5069839954376221 40.9802818298339844
  1.1425808668136594 12.9340200424194336 41.1402053833007812
  9.9179220199584961  3.7153835296630859 41.0311279296875071
  9.7136287689208984 12.6916208267211914 41.1380996704101562
  3.7088530063629146  8.1172618865966797 41.0707473754882812
  3.6944929817691445 17.2560417056083679 41.1089668273925852
 12.7525005340576172  8.3841695785522461 40.9225387573242188
 12.7726482609286887 17.2802450656890905 41.2071495056152344
  8.1955490112304688  5.2979011535644531 41.0191841125488281
  8.2414770126342773 14.5115709304809570 41.1098327636718750
 17.4518746733665466  5.2115268707275391 41.1874771118164062
 17.0428438186645508 13.7646713256835938 41.2934379577636719
  5.3413786888122550  0.8542696833610534 40.9095458984375000
  5.3260164260864258  9.8079175949096680 41.1473770141601634
 14.4297895431518555  0.8713693618774414 41.1362533569336009
 14.5259189605712891  9.9108390808105469 40.9590988159179688
  0.8273094892501831  3.6869695186614990 47.0359649658203125
  0.8248501420021057 12.7183685302734375 47.0359649658203125
  9.8577098846435547  3.6869695186614990 47.0359649658203125
  9.8552503585815412 12.7183685302734375 47.0359649658203125
  3.6843190193176270  8.2023353576660156 47.0346527099609375
  3.6818594932556152 17.2337341308593750 47.0346527099609375
 12.7147188186645508  8.2023353576660156 47.0346527099609375
 12.7122592926025391 17.2337341308593750 47.0346527099609375
  8.2006769180297852  5.3445744514465332 47.0360260009765696
  8.1982173919677734 14.3759746551513672 47.0360260009765696
 17.2310771942138672  5.3445744514465332 47.0360260009765696
 17.2286186218261719 14.3759746551513672 47.0360260009765696
  5.3436489105224600  0.8290914893150328 47.0346527099609375
  5.3411893844604483  9.8604917526245117 47.0346527099609375
 14.3740482330322266  0.8290914893150328 47.0346527099609375
 14.3715896606445312  9.8604917526245117 47.0346527099609375
 13.8275432586669904  9.6030559539794922 34.4005393981933665
  9.3827905654907209  0.2779290974140167 34.5317535400390625
  8.7321510314941406  8.9473066329956055 34.6000480651855469
  0.2994190752506256  0.1066805869340897 34.2672500610351562
  0.6514090299606323  9.2008256912231445 34.5668907165527344
  4.2831745147705078  4.3437266349792480 34.5113754272460938
  4.5598859786987305 13.8353796005249023 34.5632667541503906
 13.3520097732543945  3.7598552703857417 34.6087646484375071
 12.6492824554443359 14.2836894989013672 34.6007385253906250
 18.0397312222048640 17.7793763577938080 40.8468284606933594
 18.0511394459754264  9.1289081573486328 40.9115257263183594
  8.9543590545654297  0.1517961174249649 40.9051742553711009
  9.1655073165893555  8.8532800674438477 40.9009971618652344
  4.6499590873718262  4.4750156402587891 40.8800773620605469
  4.6741394996643066 13.6090154647827148 40.8924942016601634
 13.4321413040161115  4.7985000610351562 40.8762283325195312
 13.4455490112304688 13.3906555175781250 40.8771400451660227
  2.4136095046997066  2.0299227237701416 37.9593391418457102
  2.6158256530761719 11.0105962753295898 38.0286941528320384
 11.6919612884521484  1.9173285961151123 38.1193618774414062
 11.1283235549926758 11.3448886871337891 37.9960899353027415
  6.4514031410217285  7.0018720626831055 37.8163337707519531
  6.7633733749389640 15.8894090652465820 37.9163589477539062
 16.0704250335693359  6.5791344642639160 38.0137634277343750
 15.6430273056030256 15.8962459564208984 37.8134346008300781
  2.1611773967742920  6.6339688301086417 38.0459442138671946
  2.2304182052612305 15.6808919906616211 37.9663887023925781
 10.7324752807617188  6.1342735290527344 37.5921630859375000
 11.1267595291137695 15.7263660430908203 38.3056678771972656
  6.9553537368774405  2.4310903549194336 37.8507881164550781
  6.9295625686645508 11.3653278350830078 38.0980529785156250
 15.9922990798950195  2.3962967395782471 38.1295814514160156
 16.1590614318847656 11.6626844406127930 38.0550842285156250
  0.0000000000000000  0.0000000000000000 47.1735610961914062
 -0.0024593239650130  9.0313997268676740 47.1735610961914062
  9.0304002761840803  0.0000000000000000 47.1735610961914062
  9.0279407501220685  9.0313997268676740 47.1735610961914062
  4.5139794349670410  4.5156998634338379 47.1742515563964844
  4.5115203857421875 13.5470991134643537 47.1742515563964844
 13.5443792343139648  4.5156998634338379 47.1742515563964844
 13.5419197082519531 13.5470991134643537 47.1742515563964844
  2.4519233703613277  2.0629522800445557 44.0401268005371165
  2.4494640827178955 11.0943517684936523 44.0401268005371165
 11.4823226928710920  2.0629522800445557 44.0401268005371165
 11.4798641204833984 11.0943517684936523 44.0401268005371165
  6.5760178565979004  6.9684472084045410 44.0401268005371165
  6.5735583305358887 15.9998464584350586 44.0401268005371165
 15.6064186096191406  6.9684472084045410 44.0401268005371165
 15.6039590835571289 15.9998464584350586 44.0401268005371165
  2.0610768795013428  6.5788145065307617 44.0400009155273509
  2.0586175918579102 15.6102142333984375 44.0400009155273509
 11.0914773941040039  6.5788145065307617 44.0400009155273509
 11.0890178680419922 15.6102142333984375 44.0400009155273509
  6.9668641090393066  2.4525938034057613 44.0400657653808665
  6.9644045829772949 11.4839935302734375 44.0400657653808665
 15.9972639083862305  2.4525938034057613 44.0400657653808665
 15.9948053359985352 11.4839935302734375 44.0400657653808665
  2.4316265583038330  2.0832188129425049 50.0684852600097656
  2.4291670322418213 11.1146183013915998 50.0684852600097656
 11.4620265960693359  2.0832188129425049 50.0684852600097656
 11.4595670700073224 11.1146183013915998 50.0684852600097656
  6.5963144302368164  6.9481806755065918 50.0684852600097656
  6.5938549041748047 15.9795799255371076 50.0684852600097656
 15.6267137527465803  6.9481806755065918 50.0684852600097656
 15.6242542266845703 15.9795799255371076 50.0684852600097656
  2.0811281204223633  6.5990090370178223 50.0690460205078125
  2.0786688327789307 15.6304082870483398 50.0690460205078125
 11.1115283966064453  6.5990090370178223 50.0690460205078125
 11.1090688705444336 15.6304082870483398 50.0690460205078125
  6.9468131065368652  2.4323906898498531 50.0690460205078125
  6.9443535804748535 11.4637899398803711 50.0690460205078125
 15.9772129058837891  2.4323906898498531 50.0690460205078125
 15.9747543334960938 11.4637899398803711 50.0690460205078125
 18.0481166061945260 18.0361024569720030 37.7827453613281250
  0.0715482607483864  9.1206293106079102 37.7417678833007812
  9.1317548751831055  0.1453545391559601 37.7429885864257812
  8.9992914199829102  8.8717470169067383 37.7443466186523438
  4.4520788192749023  4.4622082710266113 37.6561393737792969
  4.5424866676330566 13.4857416152954102 37.6930809020996094
 13.4775218963623029  4.4484672546386719 37.6422386169433594
 13.3323688507080060 13.6349077224731445 37.6512832641601562
  0.0000090280000222  0.0000090310004452 44.0429992675781250
 -0.0024502959568053  9.0314083099365234 44.0429992675781250
  9.0304088592529297  0.0000090310004452 44.0429992675781250
  9.0279493331909180  9.0314083099365234 44.0429992675781250
  4.5139703750610352  4.5156903266906738 44.0427513122558594
  4.5115113258361816 13.5470905303955078 44.0427513122558594
 13.5443706512451172  4.5156903266906738 44.0427513122558594
 13.5419111251831037 13.5470905303955078 44.0427513122558594
  0.0000000000000000  0.0000000000000000 50.4472808837890696
 -0.0024593239650130  9.0313997268676740 50.4472808837890696
  9.0304002761840803  0.0000000000000000 50.4472808837890696
  9.0279407501220685  9.0313997268676740 50.4472808837890696
  4.5139703750610352  4.5156998634338379 50.4472808837890696
  4.5115113258361816 13.5470991134643537 50.4472808837890696
 13.5443706512451172  4.5156998634338379 50.4472808837890696
 13.5419111251831055 13.5470991134643537 50.4472808837890696
