 H  C  N  I Pb 
 1.0000000000000000
    18.0608005523681641    0.0000000000000000    0.0000000000000000
    -0.0049186488613486   18.0627994537353516    0.0000000000000000
     0.0000000000000000    0.0000000000000000   62.4874992370605469
 H   C   N   I   Pb 
 143  39  47  72  24
Cartesian
  8.1655235290527344  5.4498062133789054 36.3127174377441406
  7.9453687667846680 14.3940467834472656 36.3879394531250000
 17.0599689483642578  5.3637356758117676 36.4012489318847656
 17.1748085021972656 14.4350166320800763 36.3162193298339915
  5.3704023361206055  0.9305559992790222 36.2933273315429688
  5.4514293670654297 10.1075105667114258 36.3021240234375000
 14.3825473785400373  1.0324100255966187 36.2912826538085938
  1.4150905609130882  3.1153681278228760 34.8473205566406250
  1.5967960357666016 12.2421522140502930 34.7635345458984375
 10.6065464019775391  3.2371103763580322 34.8189582824707031
 10.4534950256347656 12.3446874618530273 34.8533058166503906
  6.0118718147277832  1.3343803882598875 34.7364349365234375
  5.8766140937805176 10.5809497833251953 34.6928825378417969
 14.9769783020019531  1.5055912733078003 34.7354469299316477
  1.0202312469482440  3.6329336166381831 36.4003677368164062
  0.9211921691894526 12.7047328948974609 36.3152465820312500
 10.0197782516479492  3.7497677803039551 36.3140678405761790
  9.8754301071166992 12.6877031326293945 36.4036216735839844
  3.7503397464752197  8.1933155059814453 36.4813728332519531
  3.4470268944278359 17.2907230257987976 36.2963829040527344
 12.6723674992099387 17.1808778047561646 36.2921638488769602
  7.5376996994018555  5.9087114334106445 34.8221740722656250
  7.5302257537841788 14.9764041900634748 34.8361511230468750
 16.4860649108886719  5.7665762901306152 34.8617477416992188
 16.6738929748535156 15.0725870132446289 34.7627029418945384
  3.1849145889282227  7.5496468544006348 34.9774284362792969
  2.9669338921085000 16.6998243331909180 34.7413749694824219
 12.2679743031039834 16.5335842370986938 34.7367782592773509
  9.0344772338867188  4.6115841865539542 33.6698875427246165
  9.0536365509033203 13.6998081207275391 33.6947441101074219
 17.8848571777343750  4.3168764114379883 33.7655143737793040
  0.1339340209960941 13.7053937911987305 33.6104812622070312
  4.4925632476806641  9.0159311294555664 33.7533454895019602
  4.5509456852450967 17.9911339282989502 33.6604347229003906
 13.6784176090732217 17.9831567555665970 33.6581001281738281
  8.0895748138427734  5.4706950187683105 42.1307449340820312
  8.0783443450927734 14.4330310821533185 42.1772270202636719
 17.0521144866943395  5.4362859725952148 42.0221176147460938
 17.1091262102127075 14.5211830139160156 42.1365242004394602
  5.4587130546569815  0.9255202412605286 42.1930198669433594
  5.4838519096374512  9.9777231216430646 42.1898269653320312
 14.5585832595825195  1.0631074905395508 42.1037406921386719
 14.4249954223632812 10.0317916870117188 42.0825729370117188
  1.3930552005767822  3.0897314548492427 40.6584815979003906
  1.3339133262634277 12.0937156677246094 40.5761413574218750
 10.4891529083251935  3.1747176647186279 40.6331825256347656
 10.3195714950561523 12.1059789657592773 40.4370841979980469
  3.1690144538879395  7.5900816917419434 40.6114311218261790
  3.0704902866855264 16.6705658435821533 40.6114273071289062
 12.1197500228881836  7.4423336982727051 40.7614669799804688
 12.1796793201938272 16.6697065830230713 40.7321472167968821
  0.8009455204010010  3.6126267910003662 42.1829338073730469
  0.8846639990806580 12.5949401855468732 42.1550483703613281
  9.9562149047851562  3.6360008716583252 42.2007484436035156
  9.9067564010620117 12.5612945556640625 42.1145057678222656
  3.6332480907440181  8.0957765579223633 42.1933021545410156
  3.5724345901980996 17.1361154317855835 42.1939735412597656
 12.6745204925537109  8.0640106201171875 42.2978820800781321
 12.7076067188754678 17.2467715144157410 42.2688865661621165
  7.6334958076477051  5.9843902587890625 40.5298500061035156
  7.5664334297180176 14.9837760925292969 40.6255607604980469
 16.5796291828155518  5.8934130668640137 40.3164176940917969
 16.5853334665298462 14.9497365951538086 40.6000175476074219
  5.9312086105346680  1.4193506240844727 40.6099548339843750
  5.9791874885559082 10.4472093582153320 40.6062393188476634
 14.9423532485961914  1.4743428230285645 40.4663734436035227
 14.8059673309326172 10.4660472869873047 40.4912567138671946
  0.0105213597416878  4.4757375717163086 39.3700714111328125
 17.9007933735847509 13.4691982269287109 39.4563331604003906
  9.1433572769165039  4.6136479377746582 39.4745521545410227
  8.9499568939208984 13.5854816436767578 39.4292602539062500
  4.4853906631469727  0.0764031261205673 39.5011138916015625
  4.6381640434265137  8.9982242584228516 39.4993209838867188
 13.5428733825683594  0.0237843766808510 39.4960632324218821
 13.3492126464843750  8.8389873504638672 39.5623550415039062
  8.1032123565673828  5.4420318603515616 48.0459518432617259
  8.1007528305053711 14.4734306335449219 48.0459518432617259
 17.1336116790771484  5.4420318603515616 48.0459518432617259
 17.1311531066894531 14.4734306335449219 48.0459518432617259
  5.4410333633422852  0.9265221953392029 48.0449485778808594
  5.4385743141174316  9.9579219818115234 48.0449485778808594
 14.4714326858520490  0.9265221953392029 48.0449485778808594
 14.4689741134643555  9.9579219818115234 48.0449485778808594
  1.4218254089355467  3.0919990539550781 46.4558296203613281
  1.4193661212921143 12.1233978271484375 46.4558296203613281
 10.4522256851196289  3.0919990539550781 46.4558296203613281
 10.4497661590576172 12.1233978271484375 46.4558296203613281
  3.0899283885955806  7.6075901985168457 46.4545211791992188
  3.0874691009521484 16.6389904022216797 46.4545211791992188
 12.1203289031982422  7.6075901985168457 46.4545211791992188
 12.1178693771362305 16.6389904022216797 46.4545211791992188
  0.9247469902038573  3.5893490314483643 48.0459518432617259
  0.9222877025604248 12.6207475662231445 48.0459518432617259
  9.9551477432250977  3.5893490314483643 48.0459518432617259
  9.9526882171630859 12.6207475662231445 48.0459518432617259
  3.5868983268737793  8.1048498153686523 48.0448913574218821
  3.5844390392303462 17.1362495422363281 48.0448913574218821
 12.6172990798950195  8.1048498153686523 48.0448913574218821
 12.6148395538330078 17.1362495422363281 48.0448913574218821
  7.6061611175537109  5.9393639564514160 46.4558296203613281
  7.6037015914916992 14.9707632064819336 46.4558296203613281
 16.6365604400634766  5.9393639564514160 46.4558296203613281
 16.6341018676757812 14.9707632064819336 46.4558296203613281
  5.9380125999450684  1.4238001108169553 46.4545211791992188
  5.9355530738830566 10.4551992416381836 46.4545211791992188
 14.9684123992919904  1.4238001108169553 46.4545211791992188
 14.9659538269042951 10.4551992416381836 46.4545211791992188
 -0.0011664569610730  4.5157265663146973 45.3548011779785156
 -0.0036257810425013 13.5471258163452148 45.3548011779785156
  9.0292339324951172  4.5157265663146973 45.3548011779785156
  9.0267744064331037 13.5471258163452148 45.3548011779785156
  4.5152091979980469  0.0000000000000000 45.3536758422851562
  4.5127501487731934  9.0313997268676740 45.3536758422851562
 13.5456094741821289  0.0000000000000000 45.3536758422851562
 13.5431499481201172  9.0313997268676740 45.3536758422851562
 14.2690620422363281  9.7019929885864240 33.0047912597656321
 15.7919111251831037  9.5207300186157227 33.7140159606933594
 14.3622369766235352 11.5391082763671875 34.1857032775878906
 14.3044567108154297 11.5974836349487305 35.9185142517089844
 12.4715480804443359  8.6915998458862305 35.4739456176757812
 12.5313959121704102 10.4166498184204102 35.8599014282226634
 14.4988412857055646  8.0332498550415039 36.0262107849121094
 15.8093442916870117  9.1254310607910156 36.3143539428711009
 15.4009027481079102  7.2817168235778809 34.3585128784179688
 13.7153711318969727  7.2996964454650870 34.0125617980957031
 14.0814170837402326  7.5338902473449707 31.6067695617675781
 15.7756500244140625  8.0281152725219727 31.7705841064453161
 16.6469135284423828 11.5464763641357422 34.0937118530273509
 16.7174339294433594 10.8017721176147461 35.6946334838867259
 16.2740955352783203 12.3993463516235352 35.6175041198730469
 11.0317993164062500 10.1828126907348633 34.0092849731445312
 12.0971460342407227  9.2026653289794922 32.9868125915527344
 12.5624942779540998 10.9572572708129883 33.4141921997070312
 13.1861600875854492  8.7348308563232422 37.6789474487304688
 13.6557283401489258 10.3987350463867188 37.4784812927246094
 14.7184000015258789  9.3725814819335920 38.3187255859375000
 14.9431581497192365  5.2496638298034668 32.5964775085449290
 15.1385307312011719  5.5953474044799805 30.9235286712646520
 17.0069808959960938  3.6690096855163574 31.0505065917968750
 17.3570652008056641  7.4742484092712402 32.8486900329589844
  1.4265289306640634  3.3578710556030273 31.3332653045654297
  1.7582626342773429  7.2316274642944336 33.2286758422851562
  2.8024177551269522  5.0853548049926758 32.4439468383789134
 17.9387168884277344  4.3878774642944336 34.8579483032226562
  0.1329059600830091 13.6890544891357422 34.6867980957031250
  9.0334014892578107  4.5773744583129883 34.7583351135253977
  8.9929523468017578 13.6389226913452148 34.7801208496093750
  4.5360479354858398  9.0714664459228516 34.7979087829589844
  4.4816521862521768 18.0548840686678886 34.7033386230468750
 13.6126541355624795 18.0568454992026091 34.7009277343750071
 18.0184461995959282  4.4899682998657227 40.4595832824707102
 17.9802121520042419 13.5276660919189453 40.5272064208984375
  9.0556735992431623  4.5878362655639648 40.5451316833496165
  8.9574003219604492 13.5611352920532227 40.5035362243652415
  4.5820736885070801  9.0260362625122070 40.5727348327636790
  4.5107111930847168  0.0214845314621925 40.5746803283691477
 13.4522476196289062  8.9423618316650391 40.5983581542968821
 13.5926141738891602  0.0392285697162151 40.5700607299804759
  9.0289716720581055  4.5156092643737793 46.4455223083496165
  9.0265130996704102 13.5470085144042969 46.4455223083496165
 18.0593719482421875  4.5156092643737793 46.4455223083496165
 18.0569133758544922 13.5470085144042969 46.4455223083496165
  4.5152091979980469  0.0000180629995157 46.4442062377929759
  4.5127501487731934  9.0314178466796857 46.4442062377929759
 13.5456094741821289  0.0000180629995157 46.4442062377929759
 13.5431499481201172  9.0314178466796857 46.4442062377929759
 16.9893341064453125  5.6553201675415039 31.9913673400878906
 17.6266632080078125  4.4281582832336426 31.5215415954589879
 17.8115730285644531  6.5672159194946289 32.5684356689453125
  0.9341621398925770  4.2606072425842285 31.6760654449462926
  1.1740512847900382  6.4172902107238770 32.7040214538574290
  1.7329998016357435  5.2849965095520020 32.2458000183105469
 14.7901535034179688  9.1836452484130859 33.8356361389160156
 14.7741298675537109 11.1274671554565430 35.0839042663574290
 12.7770481109619141  9.6909961700439453 35.0808906555175781
 14.7352886199951172  9.0347557067871094 36.2670059204101562
 14.6427278518676758  7.7164688110351562 33.6871719360351634
 14.9998264312744141  7.3233966827392578 32.1937828063964844
 16.1851863861083984 11.4733610153198242 35.0677375793457031
 12.1071586608886719 10.0255146026611328 33.7611045837402344
 14.0319309234619123  9.4093809127807617 37.4974861145019531
 15.5104751586914062  5.9084882736206055 31.8797912597656250
  0.7759666442871125  3.6833887100219727 35.4099922180175852
  0.9064311981201186 12.8504590988159180 35.2868728637695384
  9.8651342391967773  3.7917752265930176 35.3459167480468750
  9.8300580978393555 12.8331871032714844 35.4321823120117259
  8.1863117218017578  5.3444986343383789 35.3468551635742188
  8.1029376983642578 14.3621692657470703 35.3603782653808594
 17.1411228179931641  5.1886954307556152 35.4152412414550781
 17.3172988891601562 14.4201183319091779 35.2871589660644602
  3.7926867008209224  8.2365226745605469 35.4758491516113281
  3.5938667515292764 17.3157092928886414 35.3005943298339915
 12.8161558369174600 17.2209696769714355 35.2969398498535227
  5.3269701004028320  0.7860777378082275 35.2980232238769531
  5.3219609260559082  9.9577493667602539 35.3151741027832031
 14.3588972091674805  0.8820278644561768 35.2960205078125071
  0.7746869325637816  3.6947309970855708 41.1619300842285156
  0.7742935419082642 12.7006101608276367 41.1437873840332102
  9.8704519271850586  3.7381358146667480 41.1844673156738281
  9.8041620254516602 12.7452602386474609 41.0609588623046946
  3.7395088672637939  8.1824808120727539 41.1660919189453125
  3.6610473850741978 17.2422109246254003 41.1668663024902344
 12.7273664474487305  8.1254730224609375 41.3222389221191477
 12.7716125706210732 17.2864186763763428 41.2353363037109375
  8.2023134231567383  5.3810753822326660 41.1063079833984446
  8.1673774719238281 14.3596878051757812 41.1443099975585938
 17.1644573211669957  5.3253016471862793 40.9720268249511790
 17.1928044557571447 14.3715085983276367 41.1712112426757812
  5.3510346412658691  0.8377422094345093 41.1659851074218750
  5.3824129104614249  9.8522300720214844 41.1629753112792969
 14.4152622222900391  0.8910444974899291 41.0886993408203125
 14.3223114013671875  9.8544397354125977 41.0827560424804759
  0.8273094892501831  3.6869695186614990 47.0359649658203125
  0.8248501420021057 12.7183685302734375 47.0359649658203125
  9.8577098846435547  3.6869695186614990 47.0359649658203125
  9.8552503585815412 12.7183685302734375 47.0359649658203125
  3.6843190193176270  8.2023353576660156 47.0346527099609375
  3.6818594932556152 17.2337341308593750 47.0346527099609375
 12.7147188186645508  8.2023353576660156 47.0346527099609375
 12.7122592926025391 17.2337341308593750 47.0346527099609375
  8.2006769180297852  5.3445744514465332 47.0360260009765696
  8.1982173919677734 14.3759746551513672 47.0360260009765696
 17.2310771942138672  5.3445744514465332 47.0360260009765696
 17.2286186218261719 14.3759746551513672 47.0360260009765696
  5.3436489105224600  0.8290914893150328 47.0346527099609375
  5.3411893844604483  9.8604917526245117 47.0346527099609375
 14.3740482330322266  0.8290914893150328 47.0346527099609375
 14.3715896606445312  9.8604917526245117 47.0346527099609375
 14.3202085494995117  9.7810363769531250 35.1285018920898438
  8.9390920856967568 18.0319656413048506 34.6044960021972656
  8.9080181121826172  8.9129619598388672 34.5574874877929688
 17.9386704051867163 18.0113898366689682 34.5840415954589915
  0.1157047525048256  9.0776071548461914 34.5983047485351634
  4.6277289390563965  4.4569158554077148 34.5978775024414134
  4.4893779754638672 13.5173292160034180 34.4723587036132812
 13.4313259124755859  4.4002690315246582 34.6028518676757812
 13.4246797561645508 13.6644849777221680 34.3721923828125000
  0.0106514412909746 17.9433225765824318 40.9052848815918040
 17.9835873246192968  9.0478744506835938 40.8344917297363281
  8.9102339008823037 17.9427808970212936 40.8898963928222656
  9.0443906784057599  9.0489683151245117 40.8920059204101634
  4.4975485801696777  4.5319008827209473 40.8866157531738281
  4.4952082633972168 13.5056982040405273 40.8931465148925781
 13.5251913070678711  4.4890422821044922 40.8976211547851634
 13.5187425613403320 13.5627622604370117 40.8367691040039062
  2.6048085689544678  1.8105427026748657 37.9352569580078125
  2.5512874126434326 10.9314813613891584 37.8939857482910227
 11.5964765548706037  1.9095060825347898 37.9353103637695384
 11.4945945739746094 11.0783147811889648 38.0743255615234375
  6.4252729415893555  7.0849313735961905 37.9270477294921946
  6.4239487648010254 16.1142272949218750 37.9269180297851562
 15.5928497314453125  6.9811835289001456 38.0749320983886719
 15.4470148086547852 16.1011409759521484 37.9051246643066406
  1.9091647863388062  6.4717316627502441 37.8855361938476634
  1.9425275325775146 15.4580917358398438 37.9174156188964844
 11.0739927291870117  6.5259437561035147 37.8897285461425852
 10.9793138504028320 15.4559402465820312 37.9066352844238281
  7.0822792053222656  2.5591762065887451 37.9364204406738352
  7.0750193595886230 11.6353836059570312 37.9251480102539062
 16.1459827423095703  2.5589616298675537 37.9390029907226562
 16.2407722473144531 11.7324085235595703 38.0772857666015625
  0.0000000000000000  0.0000000000000000 47.1735610961914062
 -0.0024593239650130  9.0313997268676740 47.1735610961914062
  9.0304002761840803  0.0000000000000000 47.1735610961914062
  9.0279407501220685  9.0313997268676740 47.1735610961914062
  4.5139794349670410  4.5156998634338379 47.1742515563964844
  4.5115203857421875 13.5470991134643537 47.1742515563964844
 13.5443792343139648  4.5156998634338379 47.1742515563964844
 13.5419197082519531 13.5470991134643537 47.1742515563964844
  2.4519233703613277  2.0629522800445557 44.0401268005371165
  2.4494640827178955 11.0943517684936523 44.0401268005371165
 11.4823226928710920  2.0629522800445557 44.0401268005371165
 11.4798641204833984 11.0943517684936523 44.0401268005371165
  6.5760178565979004  6.9684472084045410 44.0401268005371165
  6.5735583305358887 15.9998464584350586 44.0401268005371165
 15.6064186096191406  6.9684472084045410 44.0401268005371165
 15.6039590835571289 15.9998464584350586 44.0401268005371165
  2.0610768795013428  6.5788145065307617 44.0400009155273509
  2.0586175918579102 15.6102142333984375 44.0400009155273509
 11.0914773941040039  6.5788145065307617 44.0400009155273509
 11.0890178680419922 15.6102142333984375 44.0400009155273509
  6.9668641090393066  2.4525938034057613 44.0400657653808665
  6.9644045829772949 11.4839935302734375 44.0400657653808665
 15.9972639083862305  2.4525938034057613 44.0400657653808665
 15.9948053359985352 11.4839935302734375 44.0400657653808665
  2.4316265583038330  2.0832188129425049 50.0684852600097656
  2.4291670322418213 11.1146183013915998 50.0684852600097656
 11.4620265960693359  2.0832188129425049 50.0684852600097656
 11.4595670700073224 11.1146183013915998 50.0684852600097656
  6.5963144302368164  6.9481806755065918 50.0684852600097656
  6.5938549041748047 15.9795799255371076 50.0684852600097656
 15.6267137527465803  6.9481806755065918 50.0684852600097656
 15.6242542266845703 15.9795799255371076 50.0684852600097656
  2.0811281204223633  6.5990090370178223 50.0690460205078125
  2.0786688327789307 15.6304082870483398 50.0690460205078125
 11.1115283966064453  6.5990090370178223 50.0690460205078125
 11.1090688705444336 15.6304082870483398 50.0690460205078125
  6.9468131065368652  2.4323906898498531 50.0690460205078125
  6.9443535804748535 11.4637899398803711 50.0690460205078125
 15.9772129058837891  2.4323906898498531 50.0690460205078125
 15.9747543334960938 11.4637899398803711 50.0690460205078125
 18.0448225308209658  0.0236213039606810 37.6461181640625000
  0.1131537705659866  8.9752082824707031 37.7413330078125071
  9.0483551025390625  0.0204317923635244 37.6522979736328125
  9.0539445877075178  9.0078458786010742 37.6128845214843750
  4.5302462577819824  4.4966158866882324 37.6912345886230469
  4.5300779342651367 13.5640659332275391 37.6586418151855469
 13.5277748107910156  4.5712575912475586 37.6781272888183594
 13.4990539550781250 13.6416244506835938 37.7282066345214844
  0.0000090280000222  0.0000090310004452 44.0429992675781250
 -0.0024502959568053  9.0314083099365234 44.0429992675781250
  9.0304088592529297  0.0000090310004452 44.0429992675781250
  9.0279493331909180  9.0314083099365234 44.0429992675781250
  4.5139703750610352  4.5156903266906738 44.0427513122558594
  4.5115113258361816 13.5470905303955078 44.0427513122558594
 13.5443706512451172  4.5156903266906738 44.0427513122558594
 13.5419111251831037 13.5470905303955078 44.0427513122558594
  0.0000000000000000  0.0000000000000000 50.4472808837890696
 -0.0024593239650130  9.0313997268676740 50.4472808837890696
  9.0304002761840803  0.0000000000000000 50.4472808837890696
  9.0279407501220685  9.0313997268676740 50.4472808837890696
  4.5139703750610352  4.5156998634338379 50.4472808837890696
  4.5115113258361816 13.5470991134643537 50.4472808837890696
 13.5443706512451172  4.5156998634338379 50.4472808837890696
 13.5419111251831055 13.5470991134643537 50.4472808837890696
