 H  C  N  I Pb 
 1.0000000000000000
    18.0608005523681641    0.0000000000000000    0.0000000000000000
    -0.0049186488613486   18.0627994537353516    0.0000000000000000
     0.0000000000000000    0.0000000000000000   62.4874992370605469
 H   C   N   I   Pb 
 143  39  47  72  24
Cartesian
  8.1125316619873047  6.0176839828491202 35.3268928527832031
  7.6927523612976074 15.0160732269287109 35.5262908935546875
 17.3438262939453125  5.8962426185607901 36.0426597595214915
 17.0870513916015625 14.7159042358398438 35.8309936523437500
  5.8935608128085724 17.2110486030578613 35.8520660400390696
  6.3691539764404288  9.9247980117797852 35.0409278869628906
 14.5559072494506836  1.5689448118209837 35.4966392517089844
  0.2125110626220686  2.5630950927734375 35.0013122558593750
  1.2345371246337924 11.8750057220458967 35.5595512390136719
 10.0517406463623047  3.0040791034698482 34.7627372741699219
  8.9553813934326172 11.6675186157226562 35.0598297119140696
  6.5655007362365723  0.4099768400192261 34.8604393005371094
  5.3716974258422852 11.3417768478393555 34.6491546630859375
 15.8205089569091797  0.4311009645462036 35.0015640258789062
 17.2957839965820312  3.4242820739746094 36.1442985534667969
 17.9009513854980469 12.4656314849853516 36.4392013549804688
 10.1953516006469727  4.6140656471252441 35.4392967224121094
  7.7779746055603027 12.5608711242675781 35.9555282592773438
  5.0666971206665039  7.8774633407592773 35.7523574829101562
  3.4748396137729287 16.7740197181701696 35.6863670349121094
 12.2503461837768555  0.6162782907485962 35.6101875305175781
  6.6927628517150879  5.2201375961303711 34.6411972045898509
  8.9352293014526367 15.6979894638061523 34.5098609924316477
  0.3235015869140631  6.6536846160888663 34.8507537841796875
 17.9836654663085938 15.6065101623535156 34.6377830505371094
  3.3696517944335938  7.9246973991394043 35.4016532897949290
  2.5099510410800576 17.9100543111562729 34.8030700683593750
 12.0765680531039834 17.0126317739486694 35.1051635742187500
  7.8507089614868164  3.2818591594696045 34.1599426269531250
  9.9004936218261719 13.5903882980346680 34.0871734619140696
  1.1021366119384752  4.5459423065185547 34.0701980590820312
  1.4942893981933618 13.8474960327148438 34.3549194335937500
  3.3959109783172607 10.1110448837280273 34.6842994689941406
  4.3992466926574707  1.1095701456069946 34.1432113647460938
 14.3174995640292764 16.7504545450210571 34.6847839355468821
  8.7649393081665039  6.1207747459411612 41.4683494567871094
  8.1030120849609375 14.6600284576416016 42.0925064086914134
 17.4505584836006200  5.0991783142089844 42.3142242431640625
 16.7489652633666992 13.0954084396362305 42.0639572143554759
  5.5767679214477539  0.9846419095993042 41.9186134338378977
  5.3901987075805664  9.9193763732910156 42.1847991943359446
 14.4669713973999023  1.0250816345214844 42.1512947082519531
 13.6299867630004883 10.8086795806884766 41.1794853210449219
  1.5318098068237305  2.9259159564971924 40.2917556762695312
  2.0390517711639404 12.9727411270141602 40.6309547424316406
 10.4002332687377930  2.9851424694061275 40.6098670959472727
 10.1625080108642578 11.9736013412475586 40.6688690185546946
  3.2373535633087158  7.4609975814819336 40.5202751159667969
  3.1620117882266636 16.6434518098831177 40.5595169067382884
 12.7279739379882812  7.2784214019775391 41.3368453979492259
 12.1604141453281045 16.6958703994750977 40.6093215942382812
  1.1342535018920898  3.2326047420501709 41.9729537963867188
  1.0386857986450195 12.1850690841674805 41.8117561340332031
 10.7664070129394531  4.5877614021301270 41.1877708435058665
  9.5810337066650391 12.5572528839111310 42.2149467468261790
  3.6051368713378906  8.0358505249023438 42.1191558837890625
  3.7376748779788613 17.2120119333267212 42.0921821594238281
 12.0569686889648438  8.8680753707885742 41.5991935729980469
 12.5738548496738076 17.3568122386932373 42.1757659912109375
  7.2005953788757324  5.4024429321289062 41.1450042724609446
  7.8524632453918457 15.2607555389404279 40.4803161621093750
 16.9250230789184570  5.8906188011169434 40.8450660705566406
 16.3044177293777501 14.3811187744140625 40.9728507995605540
  6.0078496932983390  1.4139446020126343 40.2877807617187571
  5.9784841537475586 10.4004850387573242 40.6165199279785156
 15.1132936477661133  1.3778547048568726 40.5761795043945312
 15.1990127563476562 10.3798351287841797 40.6032905578613281
  0.1663711369037628  4.5775356292724600 39.4720802307128906
  0.3675341308116913 14.4415817260742188 39.9617881774902344
  8.1040534973144531  3.3599994182586670 40.5135040283203125
  9.1320333480834943 13.6138267517089844 39.4624977111816406
  4.5209960201755166 18.0059480294585228 39.3218650817871165
  4.6954450607299805  8.8854970932006836 39.4673576354980469
 13.7317251423373818 17.9345196485519409 39.4896583557128906
 14.7781991958618146  8.0880413055419922 40.6115074157714844
  8.1032123565673828  5.4420318603515616 48.0459518432617259
  8.1007528305053711 14.4734306335449219 48.0459518432617259
 17.1336116790771484  5.4420318603515616 48.0459518432617259
 17.1311531066894531 14.4734306335449219 48.0459518432617259
  5.4410333633422852  0.9265221953392029 48.0449485778808594
  5.4385743141174316  9.9579219818115234 48.0449485778808594
 14.4714326858520490  0.9265221953392029 48.0449485778808594
 14.4689741134643555  9.9579219818115234 48.0449485778808594
  1.4218254089355467  3.0919990539550781 46.4558296203613281
  1.4193661212921143 12.1233978271484375 46.4558296203613281
 10.4522256851196289  3.0919990539550781 46.4558296203613281
 10.4497661590576172 12.1233978271484375 46.4558296203613281
  3.0899283885955806  7.6075901985168457 46.4545211791992188
  3.0874691009521484 16.6389904022216797 46.4545211791992188
 12.1203289031982422  7.6075901985168457 46.4545211791992188
 12.1178693771362305 16.6389904022216797 46.4545211791992188
  0.9247469902038573  3.5893490314483643 48.0459518432617259
  0.9222877025604248 12.6207475662231445 48.0459518432617259
  9.9551477432250977  3.5893490314483643 48.0459518432617259
  9.9526882171630859 12.6207475662231445 48.0459518432617259
  3.5868983268737793  8.1048498153686523 48.0448913574218821
  3.5844390392303462 17.1362495422363281 48.0448913574218821
 12.6172990798950195  8.1048498153686523 48.0448913574218821
 12.6148395538330078 17.1362495422363281 48.0448913574218821
  7.6061611175537109  5.9393639564514160 46.4558296203613281
  7.6037015914916992 14.9707632064819336 46.4558296203613281
 16.6365604400634766  5.9393639564514160 46.4558296203613281
 16.6341018676757812 14.9707632064819336 46.4558296203613281
  5.9380125999450684  1.4238001108169553 46.4545211791992188
  5.9355530738830566 10.4551992416381836 46.4545211791992188
 14.9684123992919904  1.4238001108169553 46.4545211791992188
 14.9659538269042951 10.4551992416381836 46.4545211791992188
 -0.0011664569610730  4.5157265663146973 45.3548011779785156
 -0.0036257810425013 13.5471258163452148 45.3548011779785156
  9.0292339324951172  4.5157265663146973 45.3548011779785156
  9.0267744064331037 13.5471258163452148 45.3548011779785156
  4.5152091979980469  0.0000000000000000 45.3536758422851562
  4.5127501487731934  9.0313997268676740 45.3536758422851562
 13.5456094741821289  0.0000000000000000 45.3536758422851562
 13.5431499481201172  9.0313997268676740 45.3536758422851562
 14.0189895629882812 10.0611753463745117 32.4641151428222656
 13.0130977630615234  8.6362543106079102 32.8150901794433594
 15.6936693191528320  9.0519208908081055 33.7156715393066406
 15.4920806884765625  8.6892547607421875 35.4379920959472727
 13.4350891113281250 11.5953207015991211 35.0049095153808665
 14.6173286437988263 10.7577886581420898 36.0302162170410156
 12.0257883071899396  9.9074964523315430 35.5739860534667969
 12.2614507675170898  8.2247829437255859 35.0262947082519531
 11.1413469314575195 10.0667896270751953 33.5505714416503906
 12.1447954177856445 11.5114068984985352 33.4461135864257812
 10.9451150894165039 11.6658506393432617 31.4835853576660156
 12.4032707214355469 10.8722534179687482 30.9067325592041016
 14.1758804321289062  7.0710296630859375 33.1465606689453125
 14.0720062255859375  6.6877136230468750 34.8802452087402344
 15.6359424591064453  6.6509218215942374 34.0513458251953125
 15.5830259323120099 12.5557432174682617 34.6233558654785156
 15.2363986968994141 11.6926794052124006 33.1365165710449219
 16.3928680419921875 11.0144186019897443 34.3292274475097656
 13.8323507308959943  9.5556898117065430 37.3502044677734446
 13.9435281753540021  7.8499841690063477 36.8311805725097727
 12.4427595138549787  8.4666328430175781 37.5060653686523438
  9.6813125610351562  9.5795354843139648 31.4785900115966832
 10.4063386917114240  9.8961191177368164 29.8988151550292969
 12.6039180755615234  8.6510171890258789 29.3293800354003942
 10.0819692611694336  7.4903450012207022 32.6029014587402415
 13.7863531112670898  6.4808840751647940 29.4597415924072266
 11.2630243301391602  5.3165426254272461 32.7609367370605540
 13.1446294784545881  4.8090238571166992 31.2037467956542969
  0.3432922363281245  4.6021785736083975 34.8544769287109375
  0.6402721405029284 13.7381229400634766 35.0386466979980469
  8.3923311233520508  4.1176338195800781 34.6209831237793040
  8.9998254776000977 13.6680288314819336 34.7024841308593750
  4.3391056060791016  9.6274375915527344 34.9499855041503906
  4.5252289772033691  0.2185987085103988 34.7636985778808665
 13.9565462330356240 17.7257906794548035 35.0170402526855469
  0.1993350088596344  4.4048271179199219 40.5483245849609375
  0.1549223959445953 13.7162160873413086 40.7506980895996165
  8.7728776931762695  4.1707930564880371 40.8325576782226634
  9.0128431320190430 13.6142873764038086 40.5615997314453125
  4.6119503974914551  8.9265022277832031 40.5539245605468750
  4.5768121937289834 18.0552954114973545 40.4102859497070312
 14.0004892349243164  8.7836265563964844 40.9368743896484446
 13.6389774540439248 18.0541599914431572 40.5712738037109375
  9.0289716720581055  4.5156092643737793 46.4455223083496165
  9.0265130996704102 13.5470085144042969 46.4455223083496165
 18.0593719482421875  4.5156092643737793 46.4455223083496165
 18.0569133758544922 13.5470085144042969 46.4455223083496165
  4.5152091979980469  0.0000180629995157 46.4442062377929759
  4.5127501487731934  9.0314178466796857 46.4442062377929759
 13.5456094741821289  0.0000180629995157 46.4442062377929759
 13.5431499481201172  9.0314178466796857 46.4442062377929759
 11.2779264450073242  8.2342100143432617 30.9600467681884766
 12.3214387893676740  7.9284496307373047 30.0773639678955078
 10.9034166336059570  7.2676939964294434 31.9133033752441442
 12.9835567474365234  6.6964879035949707 30.1579933166503906
 11.5652608871459961  6.0409169197082520 32.0012702941894531
 12.6154508590698224  5.7573628425598136 31.1227436065673828
 13.2181615829467756  9.6695966720581055 33.1171226501464844
 15.0043334960937500  8.6295328140258789 34.4551162719726562
 14.3061161041259766 10.9267177581787109 34.9925727844238281
 12.7540292739868164  9.0870723724365234 35.4984550476074219
 11.9721813201904279 10.5320005416870117 33.0032844543457031
 11.5143938064575195 10.7226524353027344 31.5482254028320348
 14.6784477233886719  7.1894860267639160 34.1147994995117188
 15.4452476501464844 11.5512876510620117 34.2050399780273509
 13.2946081161499023  8.7246074676513672 36.8698539733886719
 10.6344957351684570  9.6044511795043945 30.9385471343994176
 17.9820289611816406  3.4722688198089600 35.3860855102539062
  0.5741462707519533 12.6319656372070312 35.7409324645996094
  9.6613416671752930  3.9337527751922603 34.8945922851562571
  8.5196409225463867 12.5733346939086914 35.2429199218750071
  7.7079591751098633  5.2260847091674805 34.8372840881347656
  8.4738273620605469 14.8600645065307617 34.8721694946289062
 17.9736042022705078  5.7864975929260254 35.2271804809570312
 17.8179435729980469 14.7103643417358398 35.1041641235351562
  4.2846250534057617  8.3554687500000000 35.2882232666015625
  3.4468642929568887 17.5995287895202637 35.0775375366210938
 12.6587042072787881 17.8371925503015518 35.2034034729003906
  5.7353595951572061 17.9647311270236969 35.1604881286621094
  5.4335184097290039 10.3473272323608398 34.8803482055664134
 14.8417024612426758  0.6048548221588135 35.2412414550781321
  0.9861817359924316  3.4652087688446045 40.9755821228027344
  1.1061435937881470 12.8812446594238281 41.0597496032714844
 10.0534973144531250  3.9070999622344971 40.8965911865234375
  9.6195259094238281 12.6469516754150391 41.2072601318359375
  3.7679197788238521  8.0965957641601562 41.1231079101562500
  3.7754105785861611 17.2635123729705811 41.0775794982910227
 12.8341054916381818  8.2934293746948242 41.2777900695800781
 12.7392191151157022 17.3234910964965820 41.1715469360351634
  8.2231597900390625  5.3238525390625000 41.1548576354980469
  8.2906942367553711 14.5724239349365234 41.0905418395996165
 17.4952611327171326  5.1750130653381339 41.2974929809570312
 17.0295971632003784 13.7565546035766602 41.3234901428222727
  5.4471120834350586  0.8430899381637573 40.9225311279296875
  5.3745031356811523  9.7938489913940412 41.1730384826660156
 14.4520416259765625  0.8551304340362549 41.1545906066894531
 14.2968482971191406 10.0662050247192383 40.9452743530273438
  0.8273094892501831  3.6869695186614990 47.0359649658203125
  0.8248501420021057 12.7183685302734375 47.0359649658203125
  9.8577098846435547  3.6869695186614990 47.0359649658203125
  9.8552503585815412 12.7183685302734375 47.0359649658203125
  3.6843190193176270  8.2023353576660156 47.0346527099609375
  3.6818594932556152 17.2337341308593750 47.0346527099609375
 12.7147188186645508  8.2023353576660156 47.0346527099609375
 12.7122592926025391 17.2337341308593750 47.0346527099609375
  8.2006769180297852  5.3445744514465332 47.0360260009765696
  8.1982173919677734 14.3759746551513672 47.0360260009765696
 17.2310771942138672  5.3445744514465332 47.0360260009765696
 17.2286186218261719 14.3759746551513672 47.0360260009765696
  5.3436489105224600  0.8290914893150328 47.0346527099609375
  5.3411893844604483  9.8604917526245117 47.0346527099609375
 14.3740482330322266  0.8290914893150328 47.0346527099609375
 14.3715896606445312  9.8604917526245117 47.0346527099609375
 13.8141508102416974  9.5798091888427734 34.5101852416992188
  9.2073373794555664  0.2997874319553375 34.4553031921386790
  8.6406641006469727  8.9911880493164062 34.6811370849609375
  0.1129368618130684  0.0844640210270882 34.2989387512207031
  0.7047970294952391  9.1285047531127930 34.5821762084961009
  4.2395086288452148  4.3829483985900879 34.4966430664062571
  4.6261444091796866 13.8127603530883789 34.5762634277343750
 13.2981872558593750  3.6479041576385498 34.6809120178222656
 12.6858158111572266 14.3128519058227521 34.6147727966308594
 18.0549354648101144 17.7691093981266022 40.8655815124511719
 17.9872046634554863  9.0857362747192383 40.9335479736328125
  9.0542879104614258  0.2373419851064682 40.8705024719238281
  9.2501525878906232  8.8386631011962891 40.9560089111328196
  4.7161622047424316  4.4434700012207031 40.8759574890136719
  4.7061600685119629 13.6049909591674805 40.8987541198730469
 13.5797796249389648  4.7439475059509277 40.8956375122070312
 13.4229602813720703 13.5714683532714844 40.9068527221679688
  2.4466588497161865  2.0075078010559082 37.9532623291015625
  2.7393646240234375 10.8962793350219727 38.0390853881835938
 11.7120094299316406  1.8937458992004395 38.1588592529296875
 11.1292390823364240 11.3706750869750977 38.1404533386230469
  6.5147557258605948  6.9535355567932129 37.8457756042480540
  6.7346396446228027 15.9142646789550763 37.9004554748535156
 16.0939331054687500  6.5903463363647461 38.1414794921875071
 15.7454233169555646 15.8149013519287109 37.8334083557128906
  2.2512686252593994  6.6549100875854492 38.0604248046875071
  2.2089333534240723 15.6361398696899396 37.9652786254882812
 10.6632165908813459  6.0755500793457031 37.5915298461914062
 11.1526937484741211 15.7466545104980469 38.2564239501953125
  6.9514031410217285  2.4104721546173091 37.7473564147949219
  6.9667792320251465 11.3749170303344727 38.1779327392578125
 16.0060863494873047  2.3882873058319092 38.2168235778808594
 16.2291336059570312 11.5943183898925763 38.2034683227539062
  0.0000000000000000  0.0000000000000000 47.1735610961914062
 -0.0024593239650130  9.0313997268676740 47.1735610961914062
  9.0304002761840803  0.0000000000000000 47.1735610961914062
  9.0279407501220685  9.0313997268676740 47.1735610961914062
  4.5139794349670410  4.5156998634338379 47.1742515563964844
  4.5115203857421875 13.5470991134643537 47.1742515563964844
 13.5443792343139648  4.5156998634338379 47.1742515563964844
 13.5419197082519531 13.5470991134643537 47.1742515563964844
  2.4519233703613277  2.0629522800445557 44.0401268005371165
  2.4494640827178955 11.0943517684936523 44.0401268005371165
 11.4823226928710920  2.0629522800445557 44.0401268005371165
 11.4798641204833984 11.0943517684936523 44.0401268005371165
  6.5760178565979004  6.9684472084045410 44.0401268005371165
  6.5735583305358887 15.9998464584350586 44.0401268005371165
 15.6064186096191406  6.9684472084045410 44.0401268005371165
 15.6039590835571289 15.9998464584350586 44.0401268005371165
  2.0610768795013428  6.5788145065307617 44.0400009155273509
  2.0586175918579102 15.6102142333984375 44.0400009155273509
 11.0914773941040039  6.5788145065307617 44.0400009155273509
 11.0890178680419922 15.6102142333984375 44.0400009155273509
  6.9668641090393066  2.4525938034057613 44.0400657653808665
  6.9644045829772949 11.4839935302734375 44.0400657653808665
 15.9972639083862305  2.4525938034057613 44.0400657653808665
 15.9948053359985352 11.4839935302734375 44.0400657653808665
  2.4316265583038330  2.0832188129425049 50.0684852600097656
  2.4291670322418213 11.1146183013915998 50.0684852600097656
 11.4620265960693359  2.0832188129425049 50.0684852600097656
 11.4595670700073224 11.1146183013915998 50.0684852600097656
  6.5963144302368164  6.9481806755065918 50.0684852600097656
  6.5938549041748047 15.9795799255371076 50.0684852600097656
 15.6267137527465803  6.9481806755065918 50.0684852600097656
 15.6242542266845703 15.9795799255371076 50.0684852600097656
  2.0811281204223633  6.5990090370178223 50.0690460205078125
  2.0786688327789307 15.6304082870483398 50.0690460205078125
 11.1115283966064453  6.5990090370178223 50.0690460205078125
 11.1090688705444336 15.6304082870483398 50.0690460205078125
  6.9468131065368652  2.4323906898498531 50.0690460205078125
  6.9443535804748535 11.4637899398803711 50.0690460205078125
 15.9772129058837891  2.4323906898498531 50.0690460205078125
 15.9747543334960938 11.4637899398803711 50.0690460205078125
 18.0511318803764880 18.0181173197925091 37.8169441223144531
  0.1252562403678894  9.0586805343627930 37.8117942810058665
  9.0833940505981445  0.1434037387371063 37.6931686401367259
  8.9832162857055664  8.8923921585083008 37.7969512939453125
  4.4591422080993652  4.4430866241455078 37.6453056335449290
  4.5348119735717773 13.4525861740112287 37.7260322570800781
 13.4091510772705078  4.4450631141662598 37.6725997924804688
 13.3313417434692383 13.6426839828491211 37.6972999572753977
  0.0000090280000222  0.0000090310004452 44.0429992675781250
 -0.0024502959568053  9.0314083099365234 44.0429992675781250
  9.0304088592529297  0.0000090310004452 44.0429992675781250
  9.0279493331909180  9.0314083099365234 44.0429992675781250
  4.5139703750610352  4.5156903266906738 44.0427513122558594
  4.5115113258361816 13.5470905303955078 44.0427513122558594
 13.5443706512451172  4.5156903266906738 44.0427513122558594
 13.5419111251831037 13.5470905303955078 44.0427513122558594
  0.0000000000000000  0.0000000000000000 50.4472808837890696
 -0.0024593239650130  9.0313997268676740 50.4472808837890696
  9.0304002761840803  0.0000000000000000 50.4472808837890696
  9.0279407501220685  9.0313997268676740 50.4472808837890696
  4.5139703750610352  4.5156998634338379 50.4472808837890696
  4.5115113258361816 13.5470991134643537 50.4472808837890696
 13.5443706512451172  4.5156998634338379 50.4472808837890696
 13.5419111251831055 13.5470991134643537 50.4472808837890696
