 H  C  N  I Pb 
 1.0000000000000000
    18.0608005523681641    0.0000000000000000    0.0000000000000000
    -0.0049186488613486   18.0627994537353516    0.0000000000000000
     0.0000000000000000    0.0000000000000000   62.4874992370605469
 H   C   N   I   Pb 
 143  39  47  72  24
Cartesian
  8.0455112457275391  5.4126739501953125 36.4216156005859446
  7.9988274574279794 15.0008211135864240 36.1950073242187500
 17.2971115112304688  4.8556499481201163 36.6358184814453125
 17.5089797973632812 14.5741653442382812 36.6292915344238281
  5.4054460525512695  0.8072924613952636 36.4689865112304759
  5.4472303390502921  9.9162731170654297 36.4159355163574219
 14.0450496673583967  1.1941430568695068 36.3354454040527344
  1.8131446838378891  3.4043624401092529 34.6159820556640696
  1.4389190673828118 12.2224206924438477 34.7526550292968750
 10.5602989196777344  3.2153215408325195 34.8012733459472727
  9.8078432083129883 11.8983802795410156 35.3791694641113281
  6.3210568428039551  0.9962584972381592 34.9642944335937571
  5.7150740623474121 10.7436408996582031 34.8833580017089844
 15.0114402770996076  1.4540770053863525 34.8829116821289134
  1.3413810729980480  3.6106827259063721 36.2749824523925781
  0.8676757812500000 12.5071039199829102 36.3637695312500000
 10.1775884628295898  3.9755983352661133 36.3375587463378906
  9.2409658432006836 12.8419322967529279 36.6967353820800781
  3.9033777713775635  7.8916568756103516 36.3662910461425781
  3.2766503551974893 17.4766913652420079 36.3240547180175852
 12.4789394596591592 17.2824338078498840 36.3160552978515625
  7.0955209732055655  5.3936381340026855 34.9366722106933594
  7.8740382194519034 15.3848304748535156 34.4873390197753977
 16.4138946533203125  5.3639073371887207 35.2675361633300781
 17.1971206665039062 15.5210056304931641 35.2376441955566406
  3.2457568645477290  7.4716768264770508 34.7860679626464844
  2.8586720684543252 16.8548020124435460 34.7259941101074219
 12.4917911747470498 16.2655572891235352 34.8409843444824290
  8.6265192031860352  4.0014929771423340 33.7679557800292969
  9.0552568435668945 13.4332790374755842 33.7598571777343750
 17.9629344940185547  4.5334830284118643 33.7653999328613281
  0.3817882537841816 14.1314954757690430 33.8250999450683594
  4.3660774230957031  9.2672414779663086 33.7092971801757884
  4.7899455288425088 17.8106019496917725 33.7343330383300781
 14.0570158222690225 17.6106063127517700 33.8043785095214844
  8.1637706756591797  5.5329866409301758 42.2114028930664134
  7.9367060661315918 14.5852479934692383 42.2156944274902415
 17.1163769960403478  5.2868313789367676 42.2785987854003906
 17.0907700061798096 14.5562896728515607 42.2037391662597656
  5.4090638160705566  0.8402011990547180 42.2070617675781250
  5.3162355422973633  9.9986696243286133 42.2532501220703196
 14.6407394409179688  0.9240365624427795 42.1418533325195312
 14.9986085891723615  9.7232246398925781 42.1707992553710938
  1.5435583591461182  3.1059393882751465 40.5587577819824290
  1.5453742742538452 12.3108654022216779 40.8066940307617259
 10.3337974548339844  2.9897363185882568 40.6432304382324290
 10.3112277984619141 12.0614709854125959 40.8604927062988352
  3.3612327575683594  7.4267673492431641 40.4691085815429688
  3.0539561966434121 16.6048730611801147 40.4845123291015696
 11.9045562744140607  8.0064001083374023 40.7877769470214844
 12.0111107090488076 16.8032474517822266 40.6930923461914062
  1.0833427906036377  3.5081691741943359 42.1699066162109446
  0.8003277778625488 12.7137031555175781 42.3261070251464844
  9.9910812377929688  3.6379423141479492 42.2071189880371094
  9.7746133804321289 12.6643686294555664 42.3998527526855469
  3.6983568668365479  7.9412627220153809 42.1061973571777415
  3.5313374260440469 17.0425404310226440 42.1209564208984375
 12.8574132919311506  8.0413455963134766 42.2703170776367188
 12.6190017918124795 17.2704387307167089 42.2641258239746165
  7.5347714424133292  5.8641872406005859 40.6311683654785227
  7.5678381919860840 15.0254001617431641 40.5775070190429688
 16.5797498226165807  5.7674798965454093 40.7082214355468750
 16.7439181804656982 15.1516151428222656 40.6034927368164062
  5.9334750175476074  1.3681608438491821 40.6400260925292969
  5.8715944290161133 10.5820293426513672 40.6960945129394602
 15.0793142318725586  1.3626430034637451 40.5092926025390625
 15.1836414337158203 10.4292306900024414 40.5665321350097727
 18.0188116133213079  4.5130753517150879 39.5303344726562500
  0.3122546374797821 13.7955055236816406 39.6227684020996094
  8.8079395294189453  4.2844438552856445 39.5356369018554688
  9.0426177978515625 13.4559555053710938 39.6157226562500000
  4.4945425251498818 18.0090729705989361 39.4417304992675781
  4.6927876472473136  9.0533733367919922 39.4595184326171946
 13.4692339161410928 18.0549011453986168 39.4859848022460938
 13.2672157287597656  9.4300422668457031 39.6281661987304688
  8.1032123565673828  5.4420318603515616 48.0459518432617259
  8.1007528305053711 14.4734306335449219 48.0459518432617259
 17.1336116790771484  5.4420318603515616 48.0459518432617259
 17.1311531066894531 14.4734306335449219 48.0459518432617259
  5.4410333633422852  0.9265221953392029 48.0449485778808594
  5.4385743141174316  9.9579219818115234 48.0449485778808594
 14.4714326858520490  0.9265221953392029 48.0449485778808594
 14.4689741134643555  9.9579219818115234 48.0449485778808594
  1.4218254089355467  3.0919990539550781 46.4558296203613281
  1.4193661212921143 12.1233978271484375 46.4558296203613281
 10.4522256851196289  3.0919990539550781 46.4558296203613281
 10.4497661590576172 12.1233978271484375 46.4558296203613281
  3.0899283885955806  7.6075901985168457 46.4545211791992188
  3.0874691009521484 16.6389904022216797 46.4545211791992188
 12.1203289031982422  7.6075901985168457 46.4545211791992188
 12.1178693771362305 16.6389904022216797 46.4545211791992188
  0.9247469902038573  3.5893490314483643 48.0459518432617259
  0.9222877025604248 12.6207475662231445 48.0459518432617259
  9.9551477432250977  3.5893490314483643 48.0459518432617259
  9.9526882171630859 12.6207475662231445 48.0459518432617259
  3.5868983268737793  8.1048498153686523 48.0448913574218821
  3.5844390392303462 17.1362495422363281 48.0448913574218821
 12.6172990798950195  8.1048498153686523 48.0448913574218821
 12.6148395538330078 17.1362495422363281 48.0448913574218821
  7.6061611175537109  5.9393639564514160 46.4558296203613281
  7.6037015914916992 14.9707632064819336 46.4558296203613281
 16.6365604400634766  5.9393639564514160 46.4558296203613281
 16.6341018676757812 14.9707632064819336 46.4558296203613281
  5.9380125999450684  1.4238001108169553 46.4545211791992188
  5.9355530738830566 10.4551992416381836 46.4545211791992188
 14.9684123992919904  1.4238001108169553 46.4545211791992188
 14.9659538269042951 10.4551992416381836 46.4545211791992188
 -0.0011664569610730  4.5157265663146973 45.3548011779785156
 -0.0036257810425013 13.5471258163452148 45.3548011779785156
  9.0292339324951172  4.5157265663146973 45.3548011779785156
  9.0267744064331037 13.5471258163452148 45.3548011779785156
  4.5152091979980469  0.0000000000000000 45.3536758422851562
  4.5127501487731934  9.0313997268676740 45.3536758422851562
 13.5456094741821289  0.0000000000000000 45.3536758422851562
 13.5431499481201172  9.0313997268676740 45.3536758422851562
 12.9827671051025391  8.1427955627441406 34.1481933593750000
 13.3710880279541016  9.2527360916137695 32.8147964477539062
 11.7761259078979474  9.8411598205566406 35.0685997009277415
 12.3758668899536133 11.5194530487060547 35.1992034912109446
 15.1284627914428711  9.2674646377563477 36.2278785705566406
 13.9795150756835920 10.4594020843505842 36.7244338989257812
 15.7685089111328125 10.1057357788085938 33.9274291992187571
 14.6448440551757812 11.2007694244384766 33.0441360473632884
 15.6985807418823224  8.6756534576416016 32.9024581909179688
 15.6095705032348615  8.1292333602905273 34.5506401062011719
 16.0362472534179688  6.3710684776306152 33.0206184387207102
 14.3770999908447266  6.1176943778991690 33.6662063598632812
 11.1718549728393555 10.0212078094482422 32.9424629211425852
 12.5086832046508789 11.0470561981201172 32.4441986083984375
 11.1660699844360352 11.7595214843750000 33.2699737548828125
 13.1184329986572248  8.2768383026123047 37.6440620422363281
 13.4083824157714844  7.4964714050292969 36.1244239807128977
 12.0750226974487305  8.6033582687377930 36.3292999267578125
 15.1451873779296857 12.2218532562255859 35.7955093383789062
 15.8088674545288086 12.8260211944580078 34.2974967956542969
 16.6364002227783203 11.4938707351684553 35.2056770324707102
 15.1868343353271484  7.2143898010253906 30.8993434906005895
 14.5199975967407227  5.5812296867370597 31.3095092773437500
 12.1344938278198242  5.7506561279296875 32.7019767761230469
 13.6046066284179688  8.8342790603637695 30.0547065734863281
  9.7987680435180664  6.6143336296081543 32.4803123474121094
 11.2605924606323242  9.7383136749267578 29.8146095275878942
  9.3663625717163086  8.7109184265136719 31.0707187652587891
  0.0613002777099629  4.4102530479431152 34.8644828796386719
  0.2965545654296915 13.8853654861450178 34.9134483337402344
  8.8051195144653320  4.3066687583923340 34.7997817993164062
  8.8769397735595703 13.6529045104980469 34.8541870117187500
  4.4583225250244141  9.0983676910400391 34.7921867370605469
  4.6093510845676064 17.9650493413209915 34.8075332641601562
 13.7354788044467551 17.8781348764896428 34.8217773437500000
  0.0168900601565838  4.4507074356079102 40.5990104675292969
  0.1187244504690170 13.7437353134155273 40.6682624816894531
  8.9174289703369141  4.4318294525146484 40.5887107849121094
  8.9327554702758789 13.5674352645874006 40.6812744140625000
  4.6151356697082520  8.9912652969360352 40.5390815734863281
  4.5093650082126260 18.0397519133985043 40.5181159973144602
 13.5560388565063477  9.2187538146972656 40.6913871765136719
 13.5677223205566406  0.0588327348232269 40.5562553405761719
  9.0289716720581055  4.5156092643737793 46.4455223083496165
  9.0265130996704102 13.5470085144042969 46.4455223083496165
 18.0593719482421875  4.5156092643737793 46.4455223083496165
 18.0569133758544922 13.5470085144042969 46.4455223083496165
  4.5152091979980469  0.0000180629995157 46.4442062377929759
  4.5127501487731934  9.0314178466796857 46.4442062377929759
 13.5456094741821289  0.0000180629995157 46.4442062377929759
 13.5431499481201172  9.0314178466796857 46.4442062377929759
 13.0173215866088867  7.1994018554687491 31.3889694213867188
 11.9119501113891602  6.5912985801696777 32.0610427856445312
 12.7527542114257812  8.3306951522827148 30.5544281005859411
 10.6245794296264648  7.1017966270446768 31.9539546966552734
 11.4380197525024414  8.8243856430053711 30.4603042602539062
 10.4017887115478516  8.2468605041503906 31.1304092407226598
 13.7449731826782227  8.7845516204833984 33.7105484008789134
 12.3885631561279297 10.6192131042480469 34.5979156494140625
 14.0615377426147461  9.5518274307250959 36.1266860961914062
 14.9821624755859375 10.8609828948974592 34.0726966857910156
 15.0517683029174805  8.1363744735717773 33.5900688171386790
 14.9989585876464844  6.7841706275939933 33.0403137207031250
 11.7937088012695312 10.8616781234741211 33.2259826660156250
 13.1292552947998047  8.4498329162597656 36.5640830993652344
 15.6859159469604474 11.9281702041625977 34.9056167602539062
 14.4815082550048810  6.6606221199035645 31.6001415252685582
  1.1356506347656277  3.7697675228118896 35.2814521789550781
  0.8848972320556661 12.8196544647216779 35.3461608886718821
  9.8863391876220703  3.7649841308593750 35.3564338684082102
  9.3843679428100586 12.7643384933471662 35.6940345764160156
  7.9487733840942374  5.0877480506896964 35.4017219543457031
  8.2301225662231445 14.7149229049682599 35.1805763244628977
 17.2396488189697266  4.9113154411315909 35.6249389648437500
 17.6796150207519531 14.7193555831909180 35.6255035400390625
  3.8587009906768799  8.1091346740722656 35.3847503662109446
  3.5172390202060342 17.4043576717376709 35.3549232482910156
 12.8432354191318154 17.1384770274162292 35.3928260803222656
  5.4648203849792480  0.6046769618988036 35.4874763488769531
  5.2471313476562500  9.9641361236572266 35.4392547607421875
 14.2953262329101562  0.8820613026618958 35.4211425781250000
  0.9536227583885193  3.6255681514739990 41.1571044921875000
  0.8949877619743347 12.8384933471679688 41.3423385620117259
  9.8293666839599609  3.6220021247863770 41.2011108398437571
  9.6912260055541992 12.7448654174804688 41.3848114013671875
  3.8757603168487549  8.0667381286621094 41.0619049072265625
  3.6322941044345498 17.1737162470817566 41.0765495300293040
 12.7246093750000000  8.3804702758789062 41.3059082031250000
 12.6680225590243936 17.3427172303199768 41.2111053466796875
  8.1793994903564453  5.3046078681945801 41.1699142456054759
  8.1149559020996094 14.4197092056274396 41.1753768920898509
 17.2487515211105382  5.1773834228515625 41.2529640197753977
 17.2758847475051880 14.5217828750610352 41.2212219238281250
  5.3152952194213867  0.7538015842437744 41.1474418640136790
  5.2988829612731934  9.9399299621582031 41.1962356567382884
 14.4652385711669922  0.8015131354331970 41.0925407409667969
 14.6043128967285156  9.7887744903564453 41.1789550781250071
  0.8273094892501831  3.6869695186614990 47.0359649658203125
  0.8248501420021057 12.7183685302734375 47.0359649658203125
  9.8577098846435547  3.6869695186614990 47.0359649658203125
  9.8552503585815412 12.7183685302734375 47.0359649658203125
  3.6843190193176270  8.2023353576660156 47.0346527099609375
  3.6818594932556152 17.2337341308593750 47.0346527099609375
 12.7147188186645508  8.2023353576660156 47.0346527099609375
 12.7122592926025391 17.2337341308593750 47.0346527099609375
  8.2006769180297852  5.3445744514465332 47.0360260009765696
  8.1982173919677734 14.3759746551513672 47.0360260009765696
 17.2310771942138672  5.3445744514465332 47.0360260009765696
 17.2286186218261719 14.3759746551513672 47.0360260009765696
  5.3436489105224600  0.8290914893150328 47.0346527099609375
  5.3411893844604483  9.8604917526245117 47.0346527099609375
 14.3740482330322266  0.8290914893150328 47.0346527099609375
 14.3715896606445312  9.8604917526245117 47.0346527099609375
 13.7740612030029297 10.0427112579345703 34.6691131591796875
  8.9212245941162109  0.2576956450939178 34.4735107421875000
  8.7373104095458984  9.3424177169799805 34.7305221557617188
 17.9248032420873642  0.0414092764258385 34.5419692993164062
  0.4383021593093872  9.2322921752929670 34.7659912109375000
  4.5277566909790039  4.4383463859558105 34.4391670227050781
  4.4828109741210938 13.6212606430053711 34.4858398437500000
 13.2150697708129883  4.0534987449645996 34.9015045166015625
 13.1049184799194318 14.0031995773315430 34.1342849731445312
  0.1100043505430222  0.0147016625851393 40.9289321899414062
  0.3114858567714691  9.0846424102783203 41.0048370361328196
  9.0649414062500000  0.0176629144698381 40.9083671569824290
  9.0789699554443359  8.9569892883300781 40.9667243957519602
  4.4973073005676270  4.4293632507324219 40.8778495788574219
  4.5258173942565918 13.6387643814086914 40.9159851074218750
 13.3697910308837873  4.6232051849365234 41.0153388977050781
 13.5769481658935529 13.6608524322509766 40.8502883911132812
  2.5668103694915767  1.9083858728408813 37.9286346435546875
  2.6534104347228999 10.9818849563598615 38.0616226196289062
 11.6088447570800763  1.8562588691711426 38.0778541564941477
 11.2246856689453125 11.3886613845825195 38.3754806518554688
  6.4356622695922852  7.1246285438537598 37.9765243530273509
  6.5008773803710938 16.1299953460693359 38.0348358154296946
 15.8297901153564435  6.7719197273254395 38.2957878112792969
 15.4420785903930664 16.1935291290283203 38.0744438171386719
  2.0575146675109863  6.4047250747680655 37.9991264343261790
  2.0813500881195068 15.6230926513671875 38.1490287780761790
 10.6613960266113281  6.2147374153137198 37.9945526123046946
 10.9354791641235352 15.5489788055419922 38.1617507934570312
  7.1088423728942871  2.5379586219787598 38.0343780517578125
  6.9996943473815918 11.5752029418945312 38.2127075195312500
 16.0615386962890625  2.4758377075195312 38.1005401611328125
 16.4895420074462891 11.7114982604980469 38.4013481140136790
  0.0000000000000000  0.0000000000000000 47.1735610961914062
 -0.0024593239650130  9.0313997268676740 47.1735610961914062
  9.0304002761840803  0.0000000000000000 47.1735610961914062
  9.0279407501220685  9.0313997268676740 47.1735610961914062
  4.5139794349670410  4.5156998634338379 47.1742515563964844
  4.5115203857421875 13.5470991134643537 47.1742515563964844
 13.5443792343139648  4.5156998634338379 47.1742515563964844
 13.5419197082519531 13.5470991134643537 47.1742515563964844
  2.4519233703613277  2.0629522800445557 44.0401268005371165
  2.4494640827178955 11.0943517684936523 44.0401268005371165
 11.4823226928710920  2.0629522800445557 44.0401268005371165
 11.4798641204833984 11.0943517684936523 44.0401268005371165
  6.5760178565979004  6.9684472084045410 44.0401268005371165
  6.5735583305358887 15.9998464584350586 44.0401268005371165
 15.6064186096191406  6.9684472084045410 44.0401268005371165
 15.6039590835571289 15.9998464584350586 44.0401268005371165
  2.0610768795013428  6.5788145065307617 44.0400009155273509
  2.0586175918579102 15.6102142333984375 44.0400009155273509
 11.0914773941040039  6.5788145065307617 44.0400009155273509
 11.0890178680419922 15.6102142333984375 44.0400009155273509
  6.9668641090393066  2.4525938034057613 44.0400657653808665
  6.9644045829772949 11.4839935302734375 44.0400657653808665
 15.9972639083862305  2.4525938034057613 44.0400657653808665
 15.9948053359985352 11.4839935302734375 44.0400657653808665
  2.4316265583038330  2.0832188129425049 50.0684852600097656
  2.4291670322418213 11.1146183013915998 50.0684852600097656
 11.4620265960693359  2.0832188129425049 50.0684852600097656
 11.4595670700073224 11.1146183013915998 50.0684852600097656
  6.5963144302368164  6.9481806755065918 50.0684852600097656
  6.5938549041748047 15.9795799255371076 50.0684852600097656
 15.6267137527465803  6.9481806755065918 50.0684852600097656
 15.6242542266845703 15.9795799255371076 50.0684852600097656
  2.0811281204223633  6.5990090370178223 50.0690460205078125
  2.0786688327789307 15.6304082870483398 50.0690460205078125
 11.1115283966064453  6.5990090370178223 50.0690460205078125
 11.1090688705444336 15.6304082870483398 50.0690460205078125
  6.9468131065368652  2.4323906898498531 50.0690460205078125
  6.9443535804748535 11.4637899398803711 50.0690460205078125
 15.9772129058837891  2.4323906898498531 50.0690460205078125
 15.9747543334960938 11.4637899398803711 50.0690460205078125
 18.0384307038038969  0.0697694271802902 37.7108078002929688
  0.1066939383745193  9.0740575790405273 37.9146270751953196
  8.9561738967895508  0.1255848109722137 37.6524543762207031
  8.9695043563842773  8.9791584014892578 37.8103904724121094
  4.4982004165649414  4.5185537338256836 37.6768722534179688
  4.5341129302978507 13.5501689910888672 37.7059097290039134
 13.4093399047851562  4.5535058975219718 37.9650611877441406
 13.4338493347167969 13.7744379043579102 37.8100967407226562
  0.0000090280000222  0.0000090310004452 44.0429992675781250
 -0.0024502959568053  9.0314083099365234 44.0429992675781250
  9.0304088592529297  0.0000090310004452 44.0429992675781250
  9.0279493331909180  9.0314083099365234 44.0429992675781250
  4.5139703750610352  4.5156903266906738 44.0427513122558594
  4.5115113258361816 13.5470905303955078 44.0427513122558594
 13.5443706512451172  4.5156903266906738 44.0427513122558594
 13.5419111251831037 13.5470905303955078 44.0427513122558594
  0.0000000000000000  0.0000000000000000 50.4472808837890696
 -0.0024593239650130  9.0313997268676740 50.4472808837890696
  9.0304002761840803  0.0000000000000000 50.4472808837890696
  9.0279407501220685  9.0313997268676740 50.4472808837890696
  4.5139703750610352  4.5156998634338379 50.4472808837890696
  4.5115113258361816 13.5470991134643537 50.4472808837890696
 13.5443706512451172  4.5156998634338379 50.4472808837890696
 13.5419111251831055 13.5470991134643537 50.4472808837890696
