 H  C  N  I Pb 
 1.0000000000000000
    18.0608005523681641    0.0000000000000000    0.0000000000000000
    -0.0049186488613486   18.0627994537353516    0.0000000000000000
     0.0000000000000000    0.0000000000000000   62.4874992370605469
 H   C   N   I   Pb 
 143  39  47  72  24
Cartesian
  8.5592203140258789  6.0297880172729492 35.6166381835937500
  8.1161975860595703 15.1030988693237305 35.8375205993652415
 16.6718101501464844  4.4415650367736816 36.2763786315917969
 17.0066184997558594 14.7431249618530273 35.9490623474121094
  5.7462434768676758  1.3395657539367674 35.6119461059570312
  6.1637682914733887 10.1792974472045898 35.4591255187988281
 14.4038763046264648  1.6287935972213745 35.7615966796875071
  1.8911533355712908  4.4527249336242676 34.8218460083007812
  1.5067501068115237 12.1803226470947266 35.8626976013183594
  9.9110927581787109  2.7320060729980469 34.9919319152832102
  8.9713630676269531 11.6519727706909180 35.0855712890625000
  6.6482434272766113  0.1733905375003815 34.7132453918457031
  5.1648902893066406 11.4377660751342773 34.7619857788085938
 15.7117481231689435  0.6217589378356934 35.1710166931152415
  1.0443897247314455  4.4751863479614258 36.3300476074218750
  0.0062332153320320 12.5560369491577148 36.6633911132812500
 10.3705530166625977  4.3145017623901367 35.6263923645019531
  8.1675806045532227 12.6382274627685547 36.2530212402343821
  5.0779008865356436  7.9651575088500977 35.8371734619140696
  3.2884931564331055  1.0667757987976074 35.7180786132812500
 12.1416988372802734  0.5382046699523926 35.8096733093261719
  7.0118069648742676  5.5158166885375977 34.9660224914550852
  9.0880823135375977 15.7038698196411133 34.5407524108886719
 15.8603715896606428  4.2845420837402344 34.7421417236328196
 17.8364181518554688 15.6540279388427734 34.7411079406738281
  3.4676482677459717  7.8019471168518066 35.2448844909668040
  2.5724381664767861 17.8466866314411163 34.8203353881835938
 12.0829853275790811 16.9627974033355748 35.2067565917968821
  7.7604050636291495  3.4065904617309570 34.4602928161621094
  9.7730207443237305 13.5391368865966797 33.8947639465332031
 17.9405212402343750  4.3150882720947266 33.5754852294921875
  1.4909896850585935 14.0448722839355469 34.5347175598144531
  3.3369977474212646  9.9817810058593750 34.5140037536621094
  4.6872429111972451 17.0259461402893066 34.1356544494628977
 14.3068012455478311 16.8873943090438843 34.7351303100586009
  8.3429794311523438  5.5695996284484863 42.0941162109375000
  7.9560079574584961 14.5900354385375959 42.0098838806152344
 17.0947295427322388  4.9994869232177734 42.2138290405273438
 16.6664706468582189 13.3147697448730469 42.0428314208984375
  5.5710091590881339  0.8806740045547485 41.9853553771972727
  5.3258414268493643  9.9675779342651367 42.2320632934570312
 14.3548269271850586  0.9572884440422058 42.1599922180175781
 15.2429904937744141  8.5376281738281250 41.5051727294921946
  1.6695380210876463  3.1395902633666992 40.5032119750976562
  1.9625306129455566 12.8823499679565412 40.7390785217285227
 10.4827928543090820  3.0409193038940430 40.5399665832519531
 10.3642711639404297 12.0979757308959943 40.7711563110351562
  3.3616282939910889  7.3883085250854483 40.5031280517578125
  3.0274585941806436 16.7627691030502319 40.4549369812011719
 11.6342744827270508  8.5941743850708008 41.1974754333496094
 12.2607864597812295 16.5102723836898804 40.4927253723144602
  1.0205079317092896  3.3271541595458984 42.0952072143554688
  0.8874406814575195 12.2038106918334961 41.9062004089355469
 10.1542043685913086  3.7568726539611816 42.1010818481445312
  9.7071380615234375 12.6693201065063477 42.2801475524902344
  3.6742465496063232  7.9319043159484863 42.1161651611328125
  3.5816497066989537 17.2275978922843933 42.0340919494628977
 12.9286642074584961  7.6252326965332031 41.8179054260253977
 12.6405348042026162 17.0610507726669312 42.1016197204589844
  7.6107759475708008  5.8686780929565430 40.5534973144531250
  7.6342396736145020 15.0248031616210938 40.3656196594238352
 16.7038162946701050  5.7715363502502441 40.6913337707519531
 16.4058051109313965 14.6610250473022461 40.9541587829589915
  6.0825276374816895  1.3083795309066772 40.3950691223144531
  5.8268842697143555 10.5610446929931641 40.6765785217285227
 14.9085559844970703  1.4800393581390381 40.6063041687011790
 15.3870105743408203 10.0122232437133789 40.5863227844238281
  0.2555812299251556  4.6682744026184082 39.5148582458496094
  0.4726467132568359 14.4971990585327148 40.0287895202636719
  8.9055013656616211  4.3395304679870605 39.4342308044433594
  9.1179466247558594 13.5049562454223633 39.4677810668945384
  4.5501751163974404 18.0436970442533493 39.3172492980957031
  4.6623234748840332  8.9691972732543945 39.4884948730468750
 13.6496147373691201 17.9974848702549934 39.4412193298339915
 13.0872735977172852 10.1805868148803711 40.2725639343261719
  8.1032123565673828  5.4420318603515616 48.0459518432617259
  8.1007528305053711 14.4734306335449219 48.0459518432617259
 17.1336116790771484  5.4420318603515616 48.0459518432617259
 17.1311531066894531 14.4734306335449219 48.0459518432617259
  5.4410333633422852  0.9265221953392029 48.0449485778808594
  5.4385743141174316  9.9579219818115234 48.0449485778808594
 14.4714326858520490  0.9265221953392029 48.0449485778808594
 14.4689741134643555  9.9579219818115234 48.0449485778808594
  1.4218254089355467  3.0919990539550781 46.4558296203613281
  1.4193661212921143 12.1233978271484375 46.4558296203613281
 10.4522256851196289  3.0919990539550781 46.4558296203613281
 10.4497661590576172 12.1233978271484375 46.4558296203613281
  3.0899283885955806  7.6075901985168457 46.4545211791992188
  3.0874691009521484 16.6389904022216797 46.4545211791992188
 12.1203289031982422  7.6075901985168457 46.4545211791992188
 12.1178693771362305 16.6389904022216797 46.4545211791992188
  0.9247469902038573  3.5893490314483643 48.0459518432617259
  0.9222877025604248 12.6207475662231445 48.0459518432617259
  9.9551477432250977  3.5893490314483643 48.0459518432617259
  9.9526882171630859 12.6207475662231445 48.0459518432617259
  3.5868983268737793  8.1048498153686523 48.0448913574218821
  3.5844390392303462 17.1362495422363281 48.0448913574218821
 12.6172990798950195  8.1048498153686523 48.0448913574218821
 12.6148395538330078 17.1362495422363281 48.0448913574218821
  7.6061611175537109  5.9393639564514160 46.4558296203613281
  7.6037015914916992 14.9707632064819336 46.4558296203613281
 16.6365604400634766  5.9393639564514160 46.4558296203613281
 16.6341018676757812 14.9707632064819336 46.4558296203613281
  5.9380125999450684  1.4238001108169553 46.4545211791992188
  5.9355530738830566 10.4551992416381836 46.4545211791992188
 14.9684123992919904  1.4238001108169553 46.4545211791992188
 14.9659538269042951 10.4551992416381836 46.4545211791992188
 -0.0011664569610730  4.5157265663146973 45.3548011779785156
 -0.0036257810425013 13.5471258163452148 45.3548011779785156
  9.0292339324951172  4.5157265663146973 45.3548011779785156
  9.0267744064331037 13.5471258163452148 45.3548011779785156
  4.5152091979980469  0.0000000000000000 45.3536758422851562
  4.5127501487731934  9.0313997268676740 45.3536758422851562
 13.5456094741821289  0.0000000000000000 45.3536758422851562
 13.5431499481201172  9.0313997268676740 45.3536758422851562
 12.9905691146850586  7.9751734733581543 33.8325309753417969
 13.3155069351196289  8.8961858749389648 32.3889427185058594
 11.9181785583496094  9.9860343933105469 34.9163703918457102
 12.7641792297363281 11.5308771133422852 34.7559394836425781
 15.3354930877685547  9.1623802185058594 35.5591049194336009
 14.2532644271850586 10.4117937088012695 36.1738243103027344
 15.7009544372558594 10.1569805145263672 33.1247329711914062
 14.3812417984008771 11.2800054550170898 32.7193298339843750
 15.7085247039794922  8.3619604110717773 32.4079475402832031
 15.5790615081787092  7.6546587944030762 34.0039787292480469
 15.7316274642944336  5.8883733749389648 32.4074478149414062
 14.1352567672729492  5.8172783851623535 33.1157112121582031
 11.4625720977783203  9.9496850967407227 32.4607391357421946
 12.4103078842163086 11.4569044113159180 32.2419357299804688
 10.9394645690917969 11.4363546371459961 33.2069816589355469
 13.6225767135620099  8.4433908462524414 37.3124008178710938
 13.6390342712402344  7.4041256904602051 35.8739814758300781
 12.3480854034423828  8.6106109619140625 36.0981636047363281
 14.7501096725463867 12.4807109832763672 34.9182434082031250
 16.2666702270507812 12.3834428787231445 33.9924697875976562
 16.0139293670654297 11.2926254272460938 35.3589401245117188
 14.8099231719970703  6.8768138885498047 30.3237323760986328
 14.1532621383666992  5.2847542762756348 30.7166481018066442
 11.9676818847656250  5.5730843544006348 32.4988403320312500
 13.1897087097167951  8.3163967132568359 29.3987598419189489
  9.6885528564453107  6.5404572486877441 32.4562339782714844
 10.8890981674194336  9.2577934265136719 29.3373355865478551
  9.1314363479614240  8.3869571685791016 30.8891601562500036
 17.9048500061035156  4.3756642341613770 34.6601676940917969
  0.6375160217285185 13.8868598937988281 35.2027816772461009
  8.4687204360961914  4.1159396171569824 34.8946762084960938
  9.0995759963989258 13.6762695312500000 34.7453575134277415
  4.2786135673522949  9.6231088638305664 34.9327392578125000
  4.6160964230075470 17.9486399292945862 34.7133369445800852
 13.8975433567538857 17.8114342689514160 35.1381797790527344
  0.1516203880310059  4.4658284187316895 40.5748939514160156
  0.1673386693000793 13.8030176162719727 40.8100700378417969
  9.0508613586425781  4.4599485397338867 40.5029983520507884
  8.9973421096801758 13.5554628372192383 40.5399780273437500
  4.6078853607177734  8.9635496139526367 40.5680885314941406
  4.5609998703002930  0.0059988535940647 40.4015235900878906
 13.4899797439575195  9.3488159179687500 40.8294372558593821
 13.5897907475009561 18.0248672403395176 40.5226745605468821
  9.0289716720581055  4.5156092643737793 46.4455223083496165
  9.0265130996704102 13.5470085144042969 46.4455223083496165
 18.0593719482421875  4.5156092643737793 46.4455223083496165
 18.0569133758544922 13.5470085144042969 46.4455223083496165
  4.5152091979980469  0.0000180629995157 46.4442062377929759
  4.5127501487731934  9.0314178466796857 46.4442062377929759
 13.5456094741821289  0.0000180629995157 46.4442062377929759
 13.5431499481201172  9.0314178466796857 46.4442062377929759
 12.7454957962036133  6.8840718269348145 30.9510631561279297
 11.7341537475585938  6.3779306411743164 31.8003311157226562
 12.4133787155151367  7.9131140708923340 30.0628662109375000
 10.4533729553222656  6.9095911979675293 31.7709007263183629
 11.1111984252929688  8.4398784637451172 30.0307579040527344
 10.1444435119628888  7.9597811698913574 30.8889102935791016
 13.7524547576904297  8.5837202072143555 33.3301887512207031
 12.5494470596313477 10.5799503326416016 34.2545356750488281
 14.2889137268066406  9.4807138442993164 35.5953674316406250
 14.9186325073242188 10.7888870239257812 33.5461997985839844
 15.0316419601440412  7.7950396537780753 33.0631027221679688
 14.7682380676269531  6.4165325164794922 32.4457206726074290
 11.8282604217529297 10.8534221649169922 32.9481048583984375
 13.4159402847290039  8.4190492630004883 36.2363777160644531
 15.5083351135253906 11.7895622253417969 34.5239028930664062
 14.1546449661254883  6.3458752632141113 31.0348873138427734
  0.9893360137939479  4.3953166007995605 35.3097419738769602
  0.7013893127441403 12.8051977157592773 35.9447822570800781
  9.6997518539428693  3.7247169017791748 35.1231842041015625
  8.7519760131835938 12.6059951782226562 35.4133186340332102
  8.0072946548461914  5.3314633369445792 35.1217803955078125
  8.7093658447265625 14.8867998123168945 35.0218963623046875
 16.7368717193603516  4.4304800033569336 35.2528839111328125
 17.7071189880371094 14.7504129409790021 35.2097854614257812
  4.2928609848022461  8.3639240264892578 35.3226814270019531
  3.4274299144744873  0.2916399836540222 35.0695037841796875
 12.5992626408115029 17.8207333087921143 35.3416328430175781
  5.7349162101745605  0.5255174636840820 34.9928894042968750
  5.2894167900085449 10.4500885009765625 35.0168266296386790
 14.7180957794189453  0.7370023131370544 35.3915672302246094
  0.9804545640945433  3.5928964614868164 41.1019897460937500
  1.0459090471267700 12.8958644866943359 41.1725845336914062
  9.9593753814697248  3.7140817642211914 41.0955734252929759
  9.7205610275268555 12.7280941009521484 41.2482452392578196
  3.8583276271820068  8.0333642959594727 41.1126213073730540
  3.6610986450687051 17.3130933642387390 41.0136451721191406
 12.6473646163940412  8.4534177780151367 41.2891578674316477
 12.7881130436435342 17.1422451734542847 41.0855140686035156
  8.3019962310791016  5.3531394004821777 41.0923767089843821
  8.1518955230712891 14.4331922531127930 41.0145454406738281
 17.2713826894760167  5.1242089271545401 41.2194023132324219
 17.0354690551757812 13.9535226821899414 41.3258399963378906
  5.4486021995544434  0.7638833522796631 40.9738540649414062
  5.2870445251464844  9.8653364181518555 41.2133598327636719
 14.3187818527221680  0.8473510146141052 41.1444702148437500
 14.7862787246704102  9.2991094589233398 40.9933052062988281
  0.8273094892501831  3.6869695186614990 47.0359649658203125
  0.8248501420021057 12.7183685302734375 47.0359649658203125
  9.8577098846435547  3.6869695186614990 47.0359649658203125
  9.8552503585815412 12.7183685302734375 47.0359649658203125
  3.6843190193176270  8.2023353576660156 47.0346527099609375
  3.6818594932556152 17.2337341308593750 47.0346527099609375
 12.7147188186645508  8.2023353576660156 47.0346527099609375
 12.7122592926025391 17.2337341308593750 47.0346527099609375
  8.2006769180297852  5.3445744514465332 47.0360260009765696
  8.1982173919677734 14.3759746551513672 47.0360260009765696
 17.2310771942138672  5.3445744514465332 47.0360260009765696
 17.2286186218261719 14.3759746551513672 47.0360260009765696
  5.3436489105224600  0.8290914893150328 47.0346527099609375
  5.3411893844604483  9.8604917526245117 47.0346527099609375
 14.3740482330322266  0.8290914893150328 47.0346527099609375
 14.3715896606445312  9.8604917526245117 47.0346527099609375
 13.8967304229736310  9.8376092910766584 34.1696090698242188
  9.1959953308105469  0.2635617256164551 34.4154205322265696
  8.7254753112792969  9.1384134292602521 34.6521148681640625
 18.0516924085095560  0.1596860587596893 34.4885368347167969
  0.5556674599647522  9.1297779083251953 34.6872215270996165
  4.5040712356567383  4.4843888282775879 34.5537643432617259
  4.3971781730651855 13.8363599777221680 34.5285034179687571
 13.2170276641845703  3.8028345108032222 34.7398452758789062
 12.6433963775634766 14.3692035675048810 34.6450347900390625
 18.0101419286802411 17.8547788560390472 40.9023056030273509
  0.2697543799877167  8.9389438629150391 40.9884414672851634
  9.0479984283447266  0.0907558873295784 40.8765296936035156
  9.0922641754150391  8.9485235214233398 40.9278755187988281
  4.6426129341125488  4.3853316307067871 40.9132270812988352
  4.5701265335083008 13.6682739257812500 40.8933181762695384
 13.4848852157592773  4.8563818931579590 40.9368400573730469
 13.4672355651855469 13.4402580261230469 40.8697128295898438
  2.3711836338043213  2.1726100444793701 37.9781913757324219
  2.7336583137512207 10.9553117752075195 38.0845298767089915
 11.5579710006713867  2.0600297451019287 38.1114273071289062
 11.3421220779418945 11.2190713882446289 38.1232795715332031
  6.5795707702636719  6.9959230422973633 38.0079078674316406
  6.7351922988891602 15.9399766921997070 37.8977546691894602
 16.0221214294433594  6.6989641189575195 38.1171379089355540
 15.6609106063842773 15.8995876312255859 37.9205055236816406
  2.2185618877410889  6.6037874221801758 38.0177421569824290
  2.2244906425476074 15.8417673110961914 37.9497184753417969
 10.7212686538696289  6.2498865127563477 37.6591148376464844
 11.1073608398437500 15.6451740264892578 38.2680168151855540
  6.9458498954772949  2.3930110931396484 37.8465003967285156
  6.9040112495422354 11.4188661575317383 38.2347717285156250
 15.9438886642456055  2.4679560661315918 38.2742843627929759
 16.3380451202392578 11.6344051361083984 38.4565467834472656
  0.0000000000000000  0.0000000000000000 47.1735610961914062
 -0.0024593239650130  9.0313997268676740 47.1735610961914062
  9.0304002761840803  0.0000000000000000 47.1735610961914062
  9.0279407501220685  9.0313997268676740 47.1735610961914062
  4.5139794349670410  4.5156998634338379 47.1742515563964844
  4.5115203857421875 13.5470991134643537 47.1742515563964844
 13.5443792343139648  4.5156998634338379 47.1742515563964844
 13.5419197082519531 13.5470991134643537 47.1742515563964844
  2.4519233703613277  2.0629522800445557 44.0401268005371165
  2.4494640827178955 11.0943517684936523 44.0401268005371165
 11.4823226928710920  2.0629522800445557 44.0401268005371165
 11.4798641204833984 11.0943517684936523 44.0401268005371165
  6.5760178565979004  6.9684472084045410 44.0401268005371165
  6.5735583305358887 15.9998464584350586 44.0401268005371165
 15.6064186096191406  6.9684472084045410 44.0401268005371165
 15.6039590835571289 15.9998464584350586 44.0401268005371165
  2.0610768795013428  6.5788145065307617 44.0400009155273509
  2.0586175918579102 15.6102142333984375 44.0400009155273509
 11.0914773941040039  6.5788145065307617 44.0400009155273509
 11.0890178680419922 15.6102142333984375 44.0400009155273509
  6.9668641090393066  2.4525938034057613 44.0400657653808665
  6.9644045829772949 11.4839935302734375 44.0400657653808665
 15.9972639083862305  2.4525938034057613 44.0400657653808665
 15.9948053359985352 11.4839935302734375 44.0400657653808665
  2.4316265583038330  2.0832188129425049 50.0684852600097656
  2.4291670322418213 11.1146183013915998 50.0684852600097656
 11.4620265960693359  2.0832188129425049 50.0684852600097656
 11.4595670700073224 11.1146183013915998 50.0684852600097656
  6.5963144302368164  6.9481806755065918 50.0684852600097656
  6.5938549041748047 15.9795799255371076 50.0684852600097656
 15.6267137527465803  6.9481806755065918 50.0684852600097656
 15.6242542266845703 15.9795799255371076 50.0684852600097656
  2.0811281204223633  6.5990090370178223 50.0690460205078125
  2.0786688327789307 15.6304082870483398 50.0690460205078125
 11.1115283966064453  6.5990090370178223 50.0690460205078125
 11.1090688705444336 15.6304082870483398 50.0690460205078125
  6.9468131065368652  2.4323906898498531 50.0690460205078125
  6.9443535804748535 11.4637899398803711 50.0690460205078125
 15.9772129058837891  2.4323906898498531 50.0690460205078125
 15.9747543334960938 11.4637899398803711 50.0690460205078125
 17.9978021755814588  0.0601095482707024 37.8056259155273438
  0.1061508953571320  9.1266241073608398 37.8063735961914062
  9.0691556930541992  0.0774051919579506 37.7554931640625000
  9.0770788192749023  9.0446281433105469 37.7734947204589844
  4.5512661933898917  4.5670151710510254 37.7621879577636719
  4.4627637863159180 13.5920705795288086 37.7311973571777344
 13.4776334762573242  4.6231880187988281 37.8176460266113281
 13.3924837112426758 13.6797504425048828 37.6906127929687500
  0.0000090280000222  0.0000090310004452 44.0429992675781250
 -0.0024502959568053  9.0314083099365234 44.0429992675781250
  9.0304088592529297  0.0000090310004452 44.0429992675781250
  9.0279493331909180  9.0314083099365234 44.0429992675781250
  4.5139703750610352  4.5156903266906738 44.0427513122558594
  4.5115113258361816 13.5470905303955078 44.0427513122558594
 13.5443706512451172  4.5156903266906738 44.0427513122558594
 13.5419111251831037 13.5470905303955078 44.0427513122558594
  0.0000000000000000  0.0000000000000000 50.4472808837890696
 -0.0024593239650130  9.0313997268676740 50.4472808837890696
  9.0304002761840803  0.0000000000000000 50.4472808837890696
  9.0279407501220685  9.0313997268676740 50.4472808837890696
  4.5139703750610352  4.5156998634338379 50.4472808837890696
  4.5115113258361816 13.5470991134643537 50.4472808837890696
 13.5443706512451172  4.5156998634338379 50.4472808837890696
 13.5419111251831055 13.5470991134643537 50.4472808837890696
