 H  C  N  I Pb 
 1.0000000000000000
    18.0608005523681641    0.0000000000000000    0.0000000000000000
    -0.0049186488613486   18.0627994537353516    0.0000000000000000
     0.0000000000000000    0.0000000000000000   62.4874992370605469
 H   C   N   I   Pb 
 143  39  47  72  24
Cartesian
  8.4652748107910156  5.9473853111267090 35.7737426757812500
  8.1432075500488281 15.1562318801879883 35.8596076965332031
 16.6115207672119141  4.3421626091003418 36.3146247863769531
 17.0019035339355469 14.6549654006958008 36.0657806396484375
  5.6955590248107910  1.2375218868255615 35.7277297973632884
  5.9809608459472656 10.2877998352050781 35.8027877807617188
 14.3336448669433594  1.5154824256896973 35.9647521972656250
  1.8836746215820299  4.4681253433227539 34.8754081726074290
  1.6343917846679710 12.2258081436157227 35.6707115173339844
 10.0914268493652344  2.8748779296875000 34.8807830810546875
  8.9016256332397461 11.6875534057617188 35.2232894897460938
  6.6135244369506836  0.0808876901865005 34.8130836486816406
  5.0190782546997070 11.4072904586791992 34.8517532348632812
 15.6481208801269531  0.5088244080543518 35.3491935729980469
  1.0232791900634781  4.3428802490234375 36.3714904785156321
  0.2207164764404278 12.5334863662719727 36.6323852539062500
 10.3448543548583984  4.3953566551208496 35.7124252319335938
  8.2204532623291016 12.7394056320190430 36.4382476806640696
  5.1416139602661133  7.9326286315917969 35.9759407043457031
  3.2122325897216797  0.9817467927932739 35.6903610229492259
 12.0451669692993164  0.5132017731666565 35.8431777954101562
  6.9774255752563477  5.4064621925354004 35.0176429748535156
  9.0123901367187500 15.6935195922851562 34.4437789916992188
 15.8579692840576154  4.2441473007202148 34.7664833068847656
 17.7558250427246094 15.6750545501708984 34.8638458251953125
  3.6331067085266113  7.5927300453186035 35.1684074401855469
  2.5344685772433877 17.7824829518795013 34.7071266174316406
 11.9671444157138449 16.9561872482299805 35.1564292907714844
  7.9141306877136230  3.3863265514373779 34.3659286499023438
  9.5851240158081037 13.4698886871337891 33.8743476867675781
 17.9464645385742188  4.4196386337280273 33.6236457824707031
  1.4198169708251975 14.1591320037841779 34.4320526123046946
  3.4110355377197266  9.7687301635742188 34.3515586853027344
  4.6904405811801553 16.9915329217910767 34.0835380554199219
 14.2319721439853293 16.8502752780914307 34.7344284057617188
  8.4300889968872070  5.6008257865905762 42.0862655639648438
  7.9710512161254883 14.6089057922363281 42.0613937377929759
 17.1777591705322266  5.0080304145812988 42.3057250976562500
 16.6603770256042516 13.6734972000122053 42.1174507141113352
  5.5559148788452148  0.9496655464172363 42.0030441284179688
  5.2873129844665518  9.8526096343994141 42.3024864196777344
 14.2726697921752912  0.9805072546005249 42.1431274414062500
 15.2848119735717773  8.6658782958984375 41.5816955566406321
  1.6449012756347656  3.1350696086883545 40.4092750549316406
  1.8275936841964722 12.6355485916137695 40.7706146240234375
 10.4596233367919922  3.0199806690216064 40.4817810058593750
 10.3833961486816406 12.1216688156127930 40.8564071655273509
  3.3090312480926509  7.3898682594299316 40.4436187744140625
  3.1127351978793740 16.6707208156585693 40.5425415039062500
 11.6785421371459943  8.6903572082519531 41.2429695129394531
 12.2396339634433389 16.4444211721420324 40.5301551818847656
  1.0575655698776245  3.3193147182464595 42.0400962829589844
  0.7150674462318419 12.2461109161376953 42.0633125305175781
 10.2848968505859375  3.8297855854034424 42.0127716064453196
  9.6869125366210938 12.7031803131103516 42.3416709899902344
  3.6683506965637207  7.8580093383789062 42.0920600891113281
  3.6506120422855020 17.2383741140365601 42.1083450317382812
 12.9796333312988281  7.7677526473999023 41.9552268981933594
 12.6203836658969504 17.0394387245178223 42.1243515014648509
  7.5418224334716797  5.7987470626831046 40.6118888854980469
  7.6794452667236319 15.0696477890014631 40.4031028747558594
 16.7092370986938477  5.7914404869079581 40.8090057373046946
 16.5427693128585851 14.8721170425415021 40.8692779541015625
  6.0690441131591797  1.3503676652908325 40.3822212219238352
  5.7708563804626465 10.5405588150024414 40.7803916931152344
 14.8468732833862305  1.4724093675613403 40.5698776245117188
 15.4381866455078125 10.0160579681396484 40.4949264526367259
  0.2040522992610931  4.6777429580688468 39.5185165405273438
  0.4982087314128876 14.3361129760742188 39.9143409729003906
  8.7709455490112305  4.1852884292602539 39.4652137756347727
  9.1623611450195312 13.5650482177734375 39.5193443298339915
  4.6029600361362100 17.9892980530858040 39.3496894836425852
  4.5761728286743164  9.0541334152221680 39.4969520568847656
 13.6258806446567178 17.9479057341814041 39.4327812194824219
 13.1153936386108398 10.1598501205444336 40.1382865905761719
  8.1032123565673828  5.4420318603515616 48.0459518432617259
  8.1007528305053711 14.4734306335449219 48.0459518432617259
 17.1336116790771484  5.4420318603515616 48.0459518432617259
 17.1311531066894531 14.4734306335449219 48.0459518432617259
  5.4410333633422852  0.9265221953392029 48.0449485778808594
  5.4385743141174316  9.9579219818115234 48.0449485778808594
 14.4714326858520490  0.9265221953392029 48.0449485778808594
 14.4689741134643555  9.9579219818115234 48.0449485778808594
  1.4218254089355467  3.0919990539550781 46.4558296203613281
  1.4193661212921143 12.1233978271484375 46.4558296203613281
 10.4522256851196289  3.0919990539550781 46.4558296203613281
 10.4497661590576172 12.1233978271484375 46.4558296203613281
  3.0899283885955806  7.6075901985168457 46.4545211791992188
  3.0874691009521484 16.6389904022216797 46.4545211791992188
 12.1203289031982422  7.6075901985168457 46.4545211791992188
 12.1178693771362305 16.6389904022216797 46.4545211791992188
  0.9247469902038573  3.5893490314483643 48.0459518432617259
  0.9222877025604248 12.6207475662231445 48.0459518432617259
  9.9551477432250977  3.5893490314483643 48.0459518432617259
  9.9526882171630859 12.6207475662231445 48.0459518432617259
  3.5868983268737793  8.1048498153686523 48.0448913574218821
  3.5844390392303462 17.1362495422363281 48.0448913574218821
 12.6172990798950195  8.1048498153686523 48.0448913574218821
 12.6148395538330078 17.1362495422363281 48.0448913574218821
  7.6061611175537109  5.9393639564514160 46.4558296203613281
  7.6037015914916992 14.9707632064819336 46.4558296203613281
 16.6365604400634766  5.9393639564514160 46.4558296203613281
 16.6341018676757812 14.9707632064819336 46.4558296203613281
  5.9380125999450684  1.4238001108169553 46.4545211791992188
  5.9355530738830566 10.4551992416381836 46.4545211791992188
 14.9684123992919904  1.4238001108169553 46.4545211791992188
 14.9659538269042951 10.4551992416381836 46.4545211791992188
 -0.0011664569610730  4.5157265663146973 45.3548011779785156
 -0.0036257810425013 13.5471258163452148 45.3548011779785156
  9.0292339324951172  4.5157265663146973 45.3548011779785156
  9.0267744064331037 13.5471258163452148 45.3548011779785156
  4.5152091979980469  0.0000000000000000 45.3536758422851562
  4.5127501487731934  9.0313997268676740 45.3536758422851562
 13.5456094741821289  0.0000000000000000 45.3536758422851562
 13.5431499481201172  9.0313997268676740 45.3536758422851562
 12.9810066223144531  7.9213352203369141 33.8492317199707031
 13.2839508056640625  8.9417161941528320 32.4325485229492188
 11.8652009963989258 10.0042037963867188 34.9735832214355469
 12.8200263977050781 11.4968652725219727 34.8432044982910156
 15.3136787414550781  9.0794286727905273 35.6815948486328125
 14.2029418945312500 10.3296756744384748 36.2749938964843750
 15.6668539047241211 10.1365833282470703 33.1393318176269531
 14.3467855453491211 11.2842588424682599 32.8759002685546875
 15.6522655487060547  8.3596296310424805 32.4167098999023509
 15.6075735092163086  7.6251688003540039 34.0185012817382884
 15.7218894958496094  5.8709487915039062 32.3884773254394531
 14.1421356201171875  5.8173503875732422 33.1515960693359375
 11.4996433258056641  9.9575672149658203 32.5016517639160156
 12.4303922653198242 11.4865894317626953 32.3265762329101562
 10.9558620452880859 11.4231729507446289 33.2975387573242188
 13.5861072540283203  8.2878093719482422 37.3542861938476562
 13.5932016372680664  7.3586816787719727 35.8751487731933594
 12.2930383682250977  8.5355854034423828 36.1845550537109375
 14.8137512207031250 12.4163665771484375 35.0164451599121165
 16.2697811126708984 12.2883148193359375 34.0332374572753906
 16.0852260589599609 11.2172470092773438 35.4021797180175781
 14.7796859741210938  6.9358782768249512 30.3303260803222692
 14.1239910125732404  5.3449020385742188 30.7188377380371094
 11.9501914978027344  5.6848092079162589 32.5353927612304688
 13.1530494689941388  8.3440198898315430 29.3514308929443359
  9.6908559799194318  6.7149734497070312 32.5294036865234375
 10.8777914047241211  9.3442907333374023 29.3291587829589879
  9.1561346054077148  8.5194902420043945 30.9360485076904332
 17.9074440002441406  4.3904986381530762 34.7227592468261719
  0.6506385803222653 13.9074773788452148 35.1704368591308594
  8.5202550888061523  4.1410579681396484 34.8714714050292969
  9.0330333709716797 13.6674852371215820 34.7832145690918040
  4.2968645095825195  9.5059709548950195 34.9413948059082102
  4.5827182987704873 17.8882230818271637 34.7041168212890625
 13.8058609226718527 17.7539878785610199 35.1959648132324219
  0.1466171890497208  4.4637818336486816 40.5953369140625071
  0.1571952700614929 13.7692070007324219 40.7954483032226562
  9.0050048828125000  4.4133734703063965 40.5104179382324219
  9.0309162139892560 13.5943241119384766 40.6134910583496165
  4.5443077087402344  8.9573488235473633 40.5970001220703125
  4.5858372906222939 18.0393242239952087 40.4521102905273438
 13.5258102416992170  9.3664178848266602 40.8055953979492188
 13.5406440952792764 17.9818028137087822 40.5311050415039062
  9.0289716720581055  4.5156092643737793 46.4455223083496165
  9.0265130996704102 13.5470085144042969 46.4455223083496165
 18.0593719482421875  4.5156092643737793 46.4455223083496165
 18.0569133758544922 13.5470085144042969 46.4455223083496165
  4.5152091979980469  0.0000180629995157 46.4442062377929759
  4.5127501487731934  9.0314178466796857 46.4442062377929759
 13.5456094741821289  0.0000180629995157 46.4442062377929759
 13.5431499481201172  9.0314178466796857 46.4442062377929759
 12.7175645828247070  6.9386224746704102 30.9465503692626989
 11.7294063568115234  6.4796314239501953 31.8202114105224609
 12.3986330032348633  7.9711961746215820 30.0383262634277344
 10.4466428756713867  7.0482325553894043 31.8184719085693359
 11.1241025924682617  8.5382089614868164 30.0226154327392578
 10.1393556594848633  8.0700178146362305 30.9258251190185547
 13.7236318588256836  8.5697250366210938 33.3711204528808594
 12.5533142089843732 10.5595493316650391 34.3368263244628906
 14.2588710784912109  9.4056215286254883 35.6856460571289062
 14.9015254974365234 10.7379751205444336 33.6405258178711009
 15.0143280029296857  7.7885246276855469 33.0993614196777344
 14.7572240829467773  6.4057073593139648 32.4531097412109375
 11.8543891906738281 10.8556394577026349 33.0216484069824219
 13.3664827346801740  8.3460807800292969 36.2849655151367188
 15.5381927490234375 11.7082138061523438 34.5996017456054759
 14.1315546035766602  6.3973703384399414 31.0431690216064489
  0.9861698150634784  4.3552246093750000 35.3576927185058594
  0.8368988037109391 12.8169755935668928 35.8615074157714844
  9.7668113708496094  3.8165779113769527 35.1046943664550781
  8.7610559463500977 12.6483421325683594 35.5680427551269531
  7.9777455329895020  5.2779636383056641 35.1876144409179688
  8.6849613189697266 14.9172019958496094 35.0274963378906250
 16.7255954742431641  4.4050464630126953 35.2963447570800781
 17.6950511932373047 14.7381067276000977 35.2960433959960938
  4.3818416595458984  8.2777185440063477 35.3785476684570312
  3.3767409324645996  0.2021318525075912 35.0396766662597656
 12.5081276157870871 17.8141803443431854 35.3494415283203125
  5.6766457557678223  0.4480327665805817 35.0723190307617259
  5.1888656616210938 10.4401712417602539 35.1700592041015625
 14.6470565795898438  0.6396748423576355 35.5298995971679688
  0.9970080852508545  3.5815317630767822 41.0589752197265625
  0.9374502897262573 12.8167104721069336 41.2489051818847656
  9.9766101837158203  3.7232830524444576 41.0446853637695312
  9.7440290451049805 12.7532310485839844 41.3414497375488281
  3.8057336807250977  7.9983854293823233 41.0963134765625000
  3.7370809772983189 17.2861956357955933 41.0972976684570312
 12.6850852966308594  8.5257091522216797 41.3449707031250000
 12.7620453098788857 17.1147630214691162 41.1233596801757812
  8.2907228469848633  5.3348760604858398 41.1210594177246165
  8.1727857589721680 14.4801044464111328 41.0749435424804688
 17.3162457942962646  5.1121420860290527 41.2951698303222656
 17.0789164900779724 14.1352510452270508 41.3246192932128906
  5.4589672088623047  0.8112087249755859 41.0003013610839844
  5.2581028938293457  9.8422756195068359 41.2879295349121094
 14.2666730880737305  0.8518120050430297 41.1360969543457031
 14.8301315307617170  9.3446865081787109 40.9799308776855469
  0.8273094892501831  3.6869695186614990 47.0359649658203125
  0.8248501420021057 12.7183685302734375 47.0359649658203125
  9.8577098846435547  3.6869695186614990 47.0359649658203125
  9.8552503585815412 12.7183685302734375 47.0359649658203125
  3.6843190193176270  8.2023353576660156 47.0346527099609375
  3.6818594932556152 17.2337341308593750 47.0346527099609375
 12.7147188186645508  8.2023353576660156 47.0346527099609375
 12.7122592926025391 17.2337341308593750 47.0346527099609375
  8.2006769180297852  5.3445744514465332 47.0360260009765696
  8.1982173919677734 14.3759746551513672 47.0360260009765696
 17.2310771942138672  5.3445744514465332 47.0360260009765696
 17.2286186218261719 14.3759746551513672 47.0360260009765696
  5.3436489105224600  0.8290914893150328 47.0346527099609375
  5.3411893844604483  9.8604917526245117 47.0346527099609375
 14.3740482330322266  0.8290914893150328 47.0346527099609375
 14.3715896606445312  9.8604917526245117 47.0346527099609375
 13.8691177368164062  9.7985439300537109 34.2624969482421875
  9.1636848449707013  0.3131295740604401 34.4914169311523438
  8.7116622924804688  9.2200765609741211 34.6768989562988281
 17.9610744789242744  0.1075398847460747 34.4826202392578196
  0.5994374155998230  9.1584587097167969 34.6630592346191406
  4.5131101608276367  4.4800415039062500 34.5897369384765625
  4.3153367042541504 13.8444633483886719 34.5383071899414062
 13.2590646743774414  3.8162002563476562 34.7513542175293040
 12.6813240051269531 14.3479881286621094 34.5331077575683594
  0.0192743903025985 17.9561088830232620 40.8911361694335938
  0.3156788051128387  8.9231510162353516 40.9574508666992259
  9.0795860290527326  0.0437822975218296 40.8938369750976562
  9.0976190567016602  8.9442605972290039 40.9495010375976562
  4.6489882469177237  4.4154601097106934 40.9309883117675852
  4.5244045257568359 13.6532182693481445 40.8969535827636719
 13.4965152740478516  4.7864570617675781 40.9568901062011719
 13.5184726715087891 13.4108438491821289 40.8579864501953125
  2.4493753910064693  2.1100847721099854 37.9380073547363281
  2.6895439624786377 11.0158376693725586 38.1729393005371094
 11.5795154571533203  2.0500607490539551 38.1566276550292969
 11.2891197204589844 11.2654476165771467 38.2510795593261719
  6.5366458892822266  7.0321455001831055 38.0321121215820384
  6.7412772178649893 15.9195528030395508 37.8584327697753906
 16.0042095184326172  6.6929907798767090 38.2150382995605469
 15.6630640029907227 15.8945302963256836 38.0561866760253977
  2.1682024002075195  6.5947465896606445 38.0361824035644531
  2.2013056278228760 15.8157892227172852 37.9745750427246094
 10.6972932815551740  6.2744998931884766 37.6888313293457102
 11.0638494491577148 15.6353816986083984 38.1570434570312500
  6.9216918945312491  2.3875839710235596 37.8674354553222656
  6.8694615364074707 11.4385061264038086 38.2522583007812500
 16.0000820159912109  2.5469441413879395 38.2798004150390625
 16.4074382781982422 11.6962690353393555 38.5177993774414062
  0.0000000000000000  0.0000000000000000 47.1735610961914062
 -0.0024593239650130  9.0313997268676740 47.1735610961914062
  9.0304002761840803  0.0000000000000000 47.1735610961914062
  9.0279407501220685  9.0313997268676740 47.1735610961914062
  4.5139794349670410  4.5156998634338379 47.1742515563964844
  4.5115203857421875 13.5470991134643537 47.1742515563964844
 13.5443792343139648  4.5156998634338379 47.1742515563964844
 13.5419197082519531 13.5470991134643537 47.1742515563964844
  2.4519233703613277  2.0629522800445557 44.0401268005371165
  2.4494640827178955 11.0943517684936523 44.0401268005371165
 11.4823226928710920  2.0629522800445557 44.0401268005371165
 11.4798641204833984 11.0943517684936523 44.0401268005371165
  6.5760178565979004  6.9684472084045410 44.0401268005371165
  6.5735583305358887 15.9998464584350586 44.0401268005371165
 15.6064186096191406  6.9684472084045410 44.0401268005371165
 15.6039590835571289 15.9998464584350586 44.0401268005371165
  2.0610768795013428  6.5788145065307617 44.0400009155273509
  2.0586175918579102 15.6102142333984375 44.0400009155273509
 11.0914773941040039  6.5788145065307617 44.0400009155273509
 11.0890178680419922 15.6102142333984375 44.0400009155273509
  6.9668641090393066  2.4525938034057613 44.0400657653808665
  6.9644045829772949 11.4839935302734375 44.0400657653808665
 15.9972639083862305  2.4525938034057613 44.0400657653808665
 15.9948053359985352 11.4839935302734375 44.0400657653808665
  2.4316265583038330  2.0832188129425049 50.0684852600097656
  2.4291670322418213 11.1146183013915998 50.0684852600097656
 11.4620265960693359  2.0832188129425049 50.0684852600097656
 11.4595670700073224 11.1146183013915998 50.0684852600097656
  6.5963144302368164  6.9481806755065918 50.0684852600097656
  6.5938549041748047 15.9795799255371076 50.0684852600097656
 15.6267137527465803  6.9481806755065918 50.0684852600097656
 15.6242542266845703 15.9795799255371076 50.0684852600097656
  2.0811281204223633  6.5990090370178223 50.0690460205078125
  2.0786688327789307 15.6304082870483398 50.0690460205078125
 11.1115283966064453  6.5990090370178223 50.0690460205078125
 11.1090688705444336 15.6304082870483398 50.0690460205078125
  6.9468131065368652  2.4323906898498531 50.0690460205078125
  6.9443535804748535 11.4637899398803711 50.0690460205078125
 15.9772129058837891  2.4323906898498531 50.0690460205078125
 15.9747543334960938 11.4637899398803711 50.0690460205078125
 18.0096305683255231  0.0529120862483978 37.8032264709472656
  0.1212132424116135  9.1513404846191406 37.7822799682617188
  9.0794420242309570  0.1159636527299881 37.7775459289550852
  9.0096483230590820  9.0707826614379883 37.7966384887695312
  4.5155086517333984  4.6028032302856445 37.8045578002929688
  4.4497900009155273 13.6230192184448242 37.7278289794921946
 13.4726905822753906  4.6462736129760742 37.8380928039550781
 13.3596239089965820 13.6723632812500000 37.6236839294433594
  0.0000090280000222  0.0000090310004452 44.0429992675781250
 -0.0024502959568053  9.0314083099365234 44.0429992675781250
  9.0304088592529297  0.0000090310004452 44.0429992675781250
  9.0279493331909180  9.0314083099365234 44.0429992675781250
  4.5139703750610352  4.5156903266906738 44.0427513122558594
  4.5115113258361816 13.5470905303955078 44.0427513122558594
 13.5443706512451172  4.5156903266906738 44.0427513122558594
 13.5419111251831037 13.5470905303955078 44.0427513122558594
  0.0000000000000000  0.0000000000000000 50.4472808837890696
 -0.0024593239650130  9.0313997268676740 50.4472808837890696
  9.0304002761840803  0.0000000000000000 50.4472808837890696
  9.0279407501220685  9.0313997268676740 50.4472808837890696
  4.5139703750610352  4.5156998634338379 50.4472808837890696
  4.5115113258361816 13.5470991134643537 50.4472808837890696
 13.5443706512451172  4.5156998634338379 50.4472808837890696
 13.5419111251831055 13.5470991134643537 50.4472808837890696
