 H  C  N  I Pb 
 1.0000000000000000
    18.0608005523681641    0.0000000000000000    0.0000000000000000
    -0.0049186488613486   18.0627994537353516    0.0000000000000000
     0.0000000000000000    0.0000000000000000   62.4874992370605469
 H   C   N   I   Pb 
 143  39  47  72  24
Cartesian
  7.9224157333374015  5.4314451217651367 35.9398536682128906
  7.9237766265869141 15.0072450637817365 36.0478172302246094
 17.7727813720703125  5.5524430274963379 36.3534622192382884
 17.4867477416992188 14.4222383499145508 36.4185905456543040
  5.7442125538364053 17.9050806611776352 36.1697273254394531
  5.7091236114501953 10.0747585296630859 36.2107543945312500
 14.1932611465454102  1.2173343896865845 36.4133987426757884
  0.9413070678710956  2.4680590629577637 35.0534095764160156
  0.9949932098388657 11.5950956344604492 34.8663749694824219
 10.6444520950317383  3.5172286033630371 34.6213188171386719
  9.8385019302368164 12.0968027114868164 35.1414260864257812
  6.2168588638305664  0.8189480304718018 34.8355903625488281
  5.2878346443176270 11.0494251251220703 34.8652496337890696
 15.3802728652954102  1.0722974538803101 35.1913986206054688
  0.5153923034667992  3.1905126571655273 36.5262413024902344
  0.4109630584716783 12.1578207015991211 36.3831977844238281
 10.2093667984008789  4.6897454261779785 35.8199043273925781
  8.7420864105224609 12.6686716079711896 36.3990097045898438
  4.5365600585937500  7.8273544311523429 36.3399162292480469
  3.3464202145114541 17.0887197852134705 36.1807098388671875
 12.2896970966830832 17.6542611420154572 36.3350028991699219
  6.7486257553100586  4.7260880470275879 34.8254470825195312
  8.5740919113159180 15.8901681900024414 34.7029647827148438
 17.9458580017089844  6.3607974052429199 34.8296279907226562
 17.5062961578369141 15.3439702987670881 34.9393196105957102
  3.3872671127319336  7.5099043846130371 35.0861511230468821
  2.3541483143344517 17.6834544837474823 34.8981246948242188
 12.3671879032626748 16.4721995592117310 35.0550651550293040
  8.3941249847412109  3.4564867019653316 33.7981567382812500
  9.8421363830566406 14.0604476928710938 33.9623107910156250
  0.6147003173828142  4.3373198509216309 33.8000717163085938
  0.4140682220458994 13.5861730575561506 33.7504615783691406
  3.7974619865417480  9.5115909576416016 33.9957923889160156
  4.0687036514282227  0.8116974830627441 33.9059562683105469
 14.3351921299472451 17.3012719750404358 34.1985893249511719
  8.3070793151855469  5.6330585479736328 42.1585769653320312
  7.8210678100585938 14.7492036819458008 41.9729385375976562
 17.5208386182785034  5.0517373085021973 42.5854301452636719
 16.7825604677200353 14.2129650115966797 42.1654968261718750
  5.3795318603515625  0.9716196060180664 42.1740760803222656
  5.4891729354858398  9.8431568145751953 42.2097015380859375
 14.3288574218749982  1.0409255027770996 42.1805076599121165
 14.4963159561157227 10.5344915390014631 41.8841972351074219
  1.4949347972869871  3.0137665271759033 40.3213272094726562
  1.7838501930236816 12.5449352264404297 40.9900093078613281
 10.3277759552001953  2.9287457466125488 40.7410125732421946
 10.3785209655761719 12.2661762237548828 41.0910644531250071
  3.1941869258880615  7.4702930450439444 40.5582580566406250
  3.1908277729526162 16.5183596611022949 40.6360702514648438
 12.5409479141235352  7.5447368621826163 41.2332344055175781
 12.1365455845370889 16.6587266921997070 40.5514831542968750
  1.2218660116195679  3.2295172214508057 42.0187759399414062
  0.7610449790954590 12.5794057846069336 42.3816947937011719
 10.2795143127441406  3.9657211303710938 42.1316261291503906
  9.6111640930175781 12.9881057739257812 42.4829864501953196
  3.7924311161041255  7.8888549804687500 42.1359405517578196
  3.6214217403903604 17.1233106851577759 42.1961021423339844
 12.7943134307861310  8.7410459518432617 42.4734382629394531
 12.4640726307407022 17.3181151151657140 42.1199455261230469
  7.2265195846557608  5.5274877548217773 40.8061294555664062
  7.5609622001647949 15.0233325958251935 40.2776756286621094
 16.8232693672180211  5.8412251472473145 41.1961288452148438
 16.7115279436111450 15.0649070739746094 40.6446495056152344
  5.9348068237304688  1.4484329223632812 40.5983772277832031
  5.8356919288635254 10.5595951080322248 40.6663017272949219
 15.0822134017944336  1.3859865665435791 40.6504096984863281
 15.1215324401855469 10.4489421844482404 40.2664375305175781
 18.0001251399517059  4.6790804862976074 39.6844329833984375
  0.5618745088577271 14.1474428176879883 39.8091468811035156
  8.4317770004272461  3.7999007701873779 39.8016433715820384
  9.1854286193847656 13.4613351821899414 39.6085510253906250
  4.5914897182956338 17.9489219635725021 39.5059127807617188
  4.4126896858215332  9.1042976379394531 39.5084266662597656
 13.7910036304965615 17.9539173990488052 39.5083580017089844
 13.9636335372924805  8.5322113037109375 39.7468948364257884
  8.1032123565673828  5.4420318603515616 48.0459518432617259
  8.1007528305053711 14.4734306335449219 48.0459518432617259
 17.1336116790771484  5.4420318603515616 48.0459518432617259
 17.1311531066894531 14.4734306335449219 48.0459518432617259
  5.4410333633422852  0.9265221953392029 48.0449485778808594
  5.4385743141174316  9.9579219818115234 48.0449485778808594
 14.4714326858520490  0.9265221953392029 48.0449485778808594
 14.4689741134643555  9.9579219818115234 48.0449485778808594
  1.4218254089355467  3.0919990539550781 46.4558296203613281
  1.4193661212921143 12.1233978271484375 46.4558296203613281
 10.4522256851196289  3.0919990539550781 46.4558296203613281
 10.4497661590576172 12.1233978271484375 46.4558296203613281
  3.0899283885955806  7.6075901985168457 46.4545211791992188
  3.0874691009521484 16.6389904022216797 46.4545211791992188
 12.1203289031982422  7.6075901985168457 46.4545211791992188
 12.1178693771362305 16.6389904022216797 46.4545211791992188
  0.9247469902038573  3.5893490314483643 48.0459518432617259
  0.9222877025604248 12.6207475662231445 48.0459518432617259
  9.9551477432250977  3.5893490314483643 48.0459518432617259
  9.9526882171630859 12.6207475662231445 48.0459518432617259
  3.5868983268737793  8.1048498153686523 48.0448913574218821
  3.5844390392303462 17.1362495422363281 48.0448913574218821
 12.6172990798950195  8.1048498153686523 48.0448913574218821
 12.6148395538330078 17.1362495422363281 48.0448913574218821
  7.6061611175537109  5.9393639564514160 46.4558296203613281
  7.6037015914916992 14.9707632064819336 46.4558296203613281
 16.6365604400634766  5.9393639564514160 46.4558296203613281
 16.6341018676757812 14.9707632064819336 46.4558296203613281
  5.9380125999450684  1.4238001108169553 46.4545211791992188
  5.9355530738830566 10.4551992416381836 46.4545211791992188
 14.9684123992919904  1.4238001108169553 46.4545211791992188
 14.9659538269042951 10.4551992416381836 46.4545211791992188
 -0.0011664569610730  4.5157265663146973 45.3548011779785156
 -0.0036257810425013 13.5471258163452148 45.3548011779785156
  9.0292339324951172  4.5157265663146973 45.3548011779785156
  9.0267744064331037 13.5471258163452148 45.3548011779785156
  4.5152091979980469  0.0000000000000000 45.3536758422851562
  4.5127501487731934  9.0313997268676740 45.3536758422851562
 13.5456094741821289  0.0000000000000000 45.3536758422851562
 13.5431499481201172  9.0313997268676740 45.3536758422851562
 14.0016117095947266 10.0718412399291992 32.7150344848632812
 13.1039905548095703  8.6030492782592773 32.9737243652343750
 15.7020616531372053  9.0814847946166974 34.0648269653320384
 15.3771934509277344  8.6898317337036133 35.7316093444824219
 13.3596477508544922 11.5141344070434553 35.1529617309570312
 14.4570312500000000 10.7111024856567365 36.3059539794921875
 11.9293317794799805  9.7651119232177734 35.6881561279296875
 12.1890668869018555  8.1611280441284180 35.0599403381347727
 11.1037006378173828  9.8879032135009748 33.6670989990234375
 12.0647535324096680 11.3609828948974592 33.7697563171386790
 11.0548124313354492 11.7289056777954102 31.7564697265625036
 12.4755773544311523 10.9185352325439453 31.1416072845459020
 14.9873533248901367  6.9968533515930176 33.2414474487304688
 13.6896572113037109  6.7694377899169922 34.4316329956054688
 15.3542194366455060  6.5074801445007324 34.9040260314941477
 15.5350790023803711 12.4887151718139648 34.9260597229003906
 15.3259305953979492 11.4654417037963867 33.4786605834961009
 16.3779220581054688 10.9071617126464844 34.8344116210937500
 13.6975021362304688  9.2703123092651367 37.5021514892578125
 13.7056741714477539  7.5821900367736816 36.9551582336425781
 12.2082118988037092  8.3142127990722656 37.5612068176269531
  9.7475461959838867  9.6876287460327148 31.6679840087890625
 10.3955030441284180 10.0345258712768555 30.0735683441162145
 12.7320642471313477  8.8495950698852539 29.5727081298828125
  9.9553632736206055  7.5558829307556143 32.5866889953613281
 13.9384250640869141  6.7046570777893058 29.7227096557617188
 11.1791868209838867  5.3660836219787598 32.7585983276367188
 13.1685438156127930  4.9509501457214355 31.3306961059570348
  0.3727073669433577  4.3863124847412109 34.8627853393554688
  0.2017898559570320 13.4537858963012695 34.8290939331054688
  8.7004013061523438  4.0976290702819824 34.6285400390625000
  9.2218198776245117 13.9671678543090820 34.8588447570800781
  4.3167262077331543  9.2649068832397443 34.9040565490722727
  4.2631525993347168  0.2462787181138992 34.7993621826171875
 13.8988394001498818 17.7891836166381836 35.0538978576660156
  0.1144146025180817  4.4389681816101074 40.7626724243164062
  0.2237890064716339 13.8047571182250959 40.8111152648925781
  8.7893686294555664  4.2131757736206055 40.7573394775390625
  8.9783535003662109 13.6424036026000977 40.6852951049804688
  4.5356879234313965  9.0292024612426758 40.6053085327148509
  4.5483097294345498 18.0005958490073681 40.6038551330566406
 13.8169879913330078  8.9803743362426758 40.7345962524414062
 13.5942815998569131 18.0394316241145134 40.5883064270019602
  9.0289716720581055  4.5156092643737793 46.4455223083496165
  9.0265130996704102 13.5470085144042969 46.4455223083496165
 18.0593719482421875  4.5156092643737793 46.4455223083496165
 18.0569133758544922 13.5470085144042969 46.4455223083496165
  4.5152091979980469  0.0000180629995157 46.4442062377929759
  4.5127501487731934  9.0314178466796857 46.4442062377929759
 13.5456094741821289  0.0000180629995157 46.4442062377929759
 13.5431499481201172  9.0314178466796857 46.4442062377929759
 11.2867794036865234  8.3622827529907227 31.0702781677246129
 12.3996057510375977  8.0998735427856445 30.2544441223144567
 10.8406915664672852  7.3647661209106445 31.9554100036621094
 13.0745830535888672  6.8559188842773438 30.3391151428222656
 11.5207281112670898  6.1217131614685059 32.0441970825195384
 12.6401624679565430  5.8837065696716309 31.2430877685546875
 13.2131385803222656  9.6208610534667969 33.3340187072753906
 14.9739103317260742  8.5976324081420898 34.7189292907714844
 14.2328472137451154 10.8542947769165039 35.2453498840332031
 12.6864271163940430  8.9735908508300781 35.6004447937011790
 11.9479799270629883 10.4350042343139648 33.2233200073242259
 11.5883722305297852 10.7881126403808576 31.7693595886230469
 14.7264585494995099  7.1621437072753906 34.2948226928710938
 15.4513273239135742 11.4472866058349609 34.5698394775390625
 13.1118993759155273  8.5082931518554688 36.9661369323730469
 10.6715269088745117  9.7450828552246094 31.0972957611084020
  0.6174392700195306  3.2948031425476070 35.5435905456542969
  0.5746994018554686 12.3377485275268555 35.4049911499023509
  9.9287395477294922  4.0801553726196289 35.0596160888671875
  9.2946252822875977 12.8478775024414062 35.5441780090332102
  7.7314763069152832  4.8600077629089355 35.1465187072753906
  8.4746112823486328 15.0071468353271484 35.2209472656250000
 17.9327774047851562  5.4863948822021475 35.3587379455566406
 17.6687126159667969 14.4538450241088867 35.4152107238769531
  4.0753746032714844  8.1222829818725586 35.4588890075683594
  3.2721499660983682 17.6395246386528015 35.3051795959472656
 12.7439092854037881 17.3068275451660192 35.4832458496093750
  5.4797310829162598  0.3315033316612243 35.3039512634277415
  5.1475920677185059 10.1844816207885724 35.3564491271972727
 14.5726690292358381  0.6793313026428223 35.6162223815918040
  0.9700758457183838  3.5299775600433350 41.0487937927246094
  0.9307310581207275 12.9447278976440430 41.4313201904296946
  9.8521890640258789  3.6917498111724854 41.2450637817382884
  9.7092514038085938 12.9144716262817383 41.4898986816406321
  3.8009850978851314  8.0776071548461914 41.1614379882812500
  3.7564768055453897 17.1904429197311401 41.2120895385742188
 12.9826211929321271  8.3756866455078125 41.5421676635742188
 12.6937832096591574 17.3142179846763611 41.1527023315429688
  8.0721712112426758  5.2040653228759757 41.2930603027343750
  8.0691757202148438 14.5253610610961914 41.0193824768066477
 17.4512154459953308  5.1606349945068359 41.5982398986816406
 17.1831975579261780 14.3766345977783185 41.2313385009765625
  5.3449239730834961  0.8476431369781493 41.1917648315429688
  5.3135428428649902  9.8418350219726562 41.2299690246582031
 14.3880739212036115  0.8661366105079651 41.2078590393066406
 14.5249300003051758 10.0782098770141602 40.9577636718750000
  0.8273094892501831  3.6869695186614990 47.0359649658203125
  0.8248501420021057 12.7183685302734375 47.0359649658203125
  9.8577098846435547  3.6869695186614990 47.0359649658203125
  9.8552503585815412 12.7183685302734375 47.0359649658203125
  3.6843190193176270  8.2023353576660156 47.0346527099609375
  3.6818594932556152 17.2337341308593750 47.0346527099609375
 12.7147188186645508  8.2023353576660156 47.0346527099609375
 12.7122592926025391 17.2337341308593750 47.0346527099609375
  8.2006769180297852  5.3445744514465332 47.0360260009765696
  8.1982173919677734 14.3759746551513672 47.0360260009765696
 17.2310771942138672  5.3445744514465332 47.0360260009765696
 17.2286186218261719 14.3759746551513672 47.0360260009765696
  5.3436489105224600  0.8290914893150328 47.0346527099609375
  5.3411893844604483  9.8604917526245117 47.0346527099609375
 14.3740482330322266  0.8290914893150328 47.0346527099609375
 14.3715896606445312  9.8604917526245117 47.0346527099609375
 13.7673597335815430  9.4920492172241211 34.7280044555664062
  8.9540891647338867  0.3726277351379394 34.4715309143066406
  8.4938707351684570  9.2651395797729492 34.8607826232910156
 17.9363054418936372 17.9780633300542831 34.4053916931152344
  0.6425034999847412  8.9020099639892578 34.5207290649414062
  4.1815233230590820  4.3102979660034180 34.4961090087890625
  4.6441683769226074 13.6599826812744141 34.5443916320800781
 13.4924888610839844  3.8261644840240479 34.7221298217773438
 12.9817161560058594 14.1916885375976562 34.1857528686523438
  0.0088649764657021 17.9714768528938293 40.8767127990722727
  0.2541388869285583  9.0296106338500977 40.9456138610839844
  8.9171676635742188  0.0078734671697021 40.8690681457519602
  9.1366872787475586  8.8285169601440430 41.0105438232421875
  4.5770211219787598  4.4563555717468262 40.8929939270019531
  4.4877085685729980 13.5716495513916016 40.8901100158691406
 13.3874807357788068  4.6564030647277823 40.9514389038085938
 13.5850954055786133 13.6656923294067383 40.8500099182128906
  2.5948452949523926  1.8991219997406006 38.1799774169921875
  2.6401746273040771 10.9591741561889648 37.9997291564941477
 11.7584848403930664  1.8853951692581177 38.0875892639160156
 11.1517639160156232 11.4812889099121094 38.4055938720703125
  6.3381376266479492  7.0613360404968262 37.9808044433593750
  6.4924592971801758 16.1212158203125000 37.9650344848632884
 16.1002979278564453  6.5515584945678711 38.3933792114257812
 15.5743799209594727 16.0596446990966797 37.9744987487793040
  2.0722413063049316  6.4378700256347656 38.1873588562011719
  1.9992046356201170 15.5794610977172852 37.9179306030273438
 10.4315996170043928  5.9283337593078613 37.9866943359375000
 11.0645723342895490 15.5937500000000000 38.1557884216308665
  6.9156150817871094  2.3686542510986328 38.0181159973144531
  6.9945378303527832 11.5385446548461914 38.2930603027343750
 16.0406665802001953  2.5584228038787842 38.2407569885253906
 16.5174789428710938 11.7587432861328125 38.4431533813476562
  0.0000000000000000  0.0000000000000000 47.1735610961914062
 -0.0024593239650130  9.0313997268676740 47.1735610961914062
  9.0304002761840803  0.0000000000000000 47.1735610961914062
  9.0279407501220685  9.0313997268676740 47.1735610961914062
  4.5139794349670410  4.5156998634338379 47.1742515563964844
  4.5115203857421875 13.5470991134643537 47.1742515563964844
 13.5443792343139648  4.5156998634338379 47.1742515563964844
 13.5419197082519531 13.5470991134643537 47.1742515563964844
  2.4519233703613277  2.0629522800445557 44.0401268005371165
  2.4494640827178955 11.0943517684936523 44.0401268005371165
 11.4823226928710920  2.0629522800445557 44.0401268005371165
 11.4798641204833984 11.0943517684936523 44.0401268005371165
  6.5760178565979004  6.9684472084045410 44.0401268005371165
  6.5735583305358887 15.9998464584350586 44.0401268005371165
 15.6064186096191406  6.9684472084045410 44.0401268005371165
 15.6039590835571289 15.9998464584350586 44.0401268005371165
  2.0610768795013428  6.5788145065307617 44.0400009155273509
  2.0586175918579102 15.6102142333984375 44.0400009155273509
 11.0914773941040039  6.5788145065307617 44.0400009155273509
 11.0890178680419922 15.6102142333984375 44.0400009155273509
  6.9668641090393066  2.4525938034057613 44.0400657653808665
  6.9644045829772949 11.4839935302734375 44.0400657653808665
 15.9972639083862305  2.4525938034057613 44.0400657653808665
 15.9948053359985352 11.4839935302734375 44.0400657653808665
  2.4316265583038330  2.0832188129425049 50.0684852600097656
  2.4291670322418213 11.1146183013915998 50.0684852600097656
 11.4620265960693359  2.0832188129425049 50.0684852600097656
 11.4595670700073224 11.1146183013915998 50.0684852600097656
  6.5963144302368164  6.9481806755065918 50.0684852600097656
  6.5938549041748047 15.9795799255371076 50.0684852600097656
 15.6267137527465803  6.9481806755065918 50.0684852600097656
 15.6242542266845703 15.9795799255371076 50.0684852600097656
  2.0811281204223633  6.5990090370178223 50.0690460205078125
  2.0786688327789307 15.6304082870483398 50.0690460205078125
 11.1115283966064453  6.5990090370178223 50.0690460205078125
 11.1090688705444336 15.6304082870483398 50.0690460205078125
  6.9468131065368652  2.4323906898498531 50.0690460205078125
  6.9443535804748535 11.4637899398803711 50.0690460205078125
 15.9772129058837891  2.4323906898498531 50.0690460205078125
 15.9747543334960938 11.4637899398803711 50.0690460205078125
 17.9839876294136083  0.0059648123569787 37.7745704650878977
  0.1139025092124939  9.0309743881225586 37.8514404296875071
  9.0314569473266602  0.1100713461637497 37.6667251586914062
  8.9583206176757812  8.9669160842895508 37.8390235900878906
  4.4133753776550293  4.4602236747741699 37.6658248901367188
  4.4777851104736328 13.4925880432128906 37.6290359497070384
 13.4830226898193342  4.5241231918334961 37.7344093322753906
 13.4365520477294922 13.6430206298828125 37.6938400268554688
  0.0000090280000222  0.0000090310004452 44.0429992675781250
 -0.0024502959568053  9.0314083099365234 44.0429992675781250
  9.0304088592529297  0.0000090310004452 44.0429992675781250
  9.0279493331909180  9.0314083099365234 44.0429992675781250
  4.5139703750610352  4.5156903266906738 44.0427513122558594
  4.5115113258361816 13.5470905303955078 44.0427513122558594
 13.5443706512451172  4.5156903266906738 44.0427513122558594
 13.5419111251831037 13.5470905303955078 44.0427513122558594
  0.0000000000000000  0.0000000000000000 50.4472808837890696
 -0.0024593239650130  9.0313997268676740 50.4472808837890696
  9.0304002761840803  0.0000000000000000 50.4472808837890696
  9.0279407501220685  9.0313997268676740 50.4472808837890696
  4.5139703750610352  4.5156998634338379 50.4472808837890696
  4.5115113258361816 13.5470991134643537 50.4472808837890696
 13.5443706512451172  4.5156998634338379 50.4472808837890696
 13.5419111251831055 13.5470991134643537 50.4472808837890696
