 H  C  N  I Pb 
 1.0000000000000000
    18.0608005523681641    0.0000000000000000    0.0000000000000000
    -0.0049186488613486   18.0627994537353516    0.0000000000000000
     0.0000000000000000    0.0000000000000000   62.4874992370605469
 H   C   N   I   Pb 
 143  39  47  72  24
Cartesian
  8.4069414138793945  5.9212121963500977 35.8343315124511719
  8.1371984481811523 15.1753273010253906 35.8846740722656250
 16.6013870239257812  4.3493909835815430 36.3174896240234375
 17.0003948211669922 14.6219921112060529 36.1311340332031321
  5.6158351898193359  1.2018023729324341 35.8065185546875000
  5.9014835357666016 10.3185319900512695 35.9069786071777344
 14.3282756805419904  1.4752300977706909 36.0387382507324219
  1.8912944793701159  4.4416174888610840 34.9034805297851562
  1.6773719787597654 12.2465963363647461 35.5778121948242259
 10.1510581970214844  2.9485707283020020 34.8255424499511719
  8.9040575027465820 11.7062015533447266 35.2639732360839844
  6.5851049423217773  0.0854991003870964 34.8787002563476634
  4.9646344184875479 11.3642568588256836 34.8609466552734375
 15.6513004302978516  0.4802844822406769 35.3987655639648438
  1.0269737243652375  4.2874813079833984 36.3965415954589844
  0.3050346374511738 12.5268812179565430 36.6125793457031250
 10.3373785018920898  4.4291338920593262 35.7298088073730469
  8.2798595428466797 12.7563819885253888 36.5166893005371165
  5.1388874053955078  7.9298057556152344 36.0584487915039062
  3.1394371986389160  0.8991898894309998 35.6885375976562571
 12.0662641525268555  0.4819257557392120 35.8959846496582031
  6.9337444305419922  5.3544745445251456 35.0377769470214844
  8.9442539215087891 15.6997146606445312 34.4109230041503977
 15.8618106842041016  4.2782392501831055 34.7546310424804759
 17.7086009979248047 15.6756315231323242 34.9351196289062500
  3.6748812198638916  7.5245537757873526 35.1755638122558594
  2.5354024628177285 17.7002061009407043 34.6514816284179688
 11.9790901402011514 16.9294663667678833 35.1631164550781250
  7.9513592720031729  3.3890943527221675 34.3025321960449219
  9.4973669052124023 13.4652605056762695 33.8548812866210938
 17.9589939117431641  4.4505033493041992 33.6511154174804759
  1.3551979064941420 14.2127695083618164 34.3862609863281250
  3.4352195262908936  9.6736030578613281 34.2911224365234375
  4.7109970310702920 16.9832193851470947 34.0520553588867259
 14.2161401966586709 16.8261831998825073 34.7241210937500000
  8.4084310531616211  5.6150012016296387 42.0893669128417969
  7.9320683479309082 14.6182384490966797 42.0883178710937500
 17.2103977203369141  5.0204553604125977 42.3404350280761719
 16.6566327810287476 13.8276357650756836 42.1280975341796875
  5.5464048385620108  0.9758695363998412 42.0354804992675852
  5.2886581420898438  9.8088598251342773 42.3288421630859446
 14.2768850326538068  0.9935779571533203 42.1350631713867188
 15.3131322860717773  8.7714138031005859 41.6194267272949219
  1.6255267858505247  3.1308820247650146 40.3756256103515625
  1.7783963680267334 12.5559549331665039 40.7822036743164062
 10.4493494033813477  3.0241200923919678 40.5121803283691477
 10.3624601364135742 12.1608257293701172 40.8757286071777344
  3.2643976211547852  7.4091653823852539 40.4277954101562500
  3.1318222740665078 16.6808199882507360 40.5714645385742188
 11.6993961334228498  8.7005081176757812 41.2219886779785227
 12.1937441090121865 16.4602382183074951 40.5894622802734446
  1.0764241218566895  3.3180873394012451 42.0340690612792969
  0.6618993282318115 12.2802600860595703 42.1154594421386790
 10.3004598617553711  3.8591027259826656 42.0201225280761719
  9.6703472137451172 12.7228965759277344 42.3641128540039062
  3.6434447765350342  7.8371319770812988 42.0886039733886719
  3.6617523888126016 17.2738443017005920 42.1353721618652344
 13.0226583480834961  7.8275923728942871 42.0035057067871094
 12.6099361637607217 17.0880821347236633 42.1670417785644602
  7.4875946044921875  5.7699999809265137 40.6178321838378906
  7.6399126052856445 15.0900669097900391 40.4221038818359446
 16.7054901123046911  5.7878127098083496 40.8624038696289062
 16.6083855628967285 14.9652605056762695 40.8150100708007812
  6.0776391029357910  1.3775293827056885 40.4072151184082031
  5.7792787551879883 10.5242156982421875 40.8122291564941406
 14.8542394638061523  1.4448606967926025 40.5381240844726562
 15.4451341629028320 10.0443944931030273 40.4526100158691406
  0.1418029367923737  4.6916084289550772 39.5258522033691406
  0.5137695670127869 14.2781505584716779 39.8670997619628906
  8.7142343521118164  4.1349415779113770 39.4963569641113281
  9.1435022354125977 13.5955743789672852 39.5422821044921875
  4.6069835880771270 17.9938117712736130 39.3791809082031250
  4.5509166717529288  9.0811491012573224 39.5107994079589915
 13.5856279591098428 17.9154291301965714 39.4484024047851562
 13.1149873733520508 10.1236925125122070 40.0681877136230469
  8.1032123565673828  5.4420318603515616 48.0459518432617259
  8.1007528305053711 14.4734306335449219 48.0459518432617259
 17.1336116790771484  5.4420318603515616 48.0459518432617259
 17.1311531066894531 14.4734306335449219 48.0459518432617259
  5.4410333633422852  0.9265221953392029 48.0449485778808594
  5.4385743141174316  9.9579219818115234 48.0449485778808594
 14.4714326858520490  0.9265221953392029 48.0449485778808594
 14.4689741134643555  9.9579219818115234 48.0449485778808594
  1.4218254089355467  3.0919990539550781 46.4558296203613281
  1.4193661212921143 12.1233978271484375 46.4558296203613281
 10.4522256851196289  3.0919990539550781 46.4558296203613281
 10.4497661590576172 12.1233978271484375 46.4558296203613281
  3.0899283885955806  7.6075901985168457 46.4545211791992188
  3.0874691009521484 16.6389904022216797 46.4545211791992188
 12.1203289031982422  7.6075901985168457 46.4545211791992188
 12.1178693771362305 16.6389904022216797 46.4545211791992188
  0.9247469902038573  3.5893490314483643 48.0459518432617259
  0.9222877025604248 12.6207475662231445 48.0459518432617259
  9.9551477432250977  3.5893490314483643 48.0459518432617259
  9.9526882171630859 12.6207475662231445 48.0459518432617259
  3.5868983268737793  8.1048498153686523 48.0448913574218821
  3.5844390392303462 17.1362495422363281 48.0448913574218821
 12.6172990798950195  8.1048498153686523 48.0448913574218821
 12.6148395538330078 17.1362495422363281 48.0448913574218821
  7.6061611175537109  5.9393639564514160 46.4558296203613281
  7.6037015914916992 14.9707632064819336 46.4558296203613281
 16.6365604400634766  5.9393639564514160 46.4558296203613281
 16.6341018676757812 14.9707632064819336 46.4558296203613281
  5.9380125999450684  1.4238001108169553 46.4545211791992188
  5.9355530738830566 10.4551992416381836 46.4545211791992188
 14.9684123992919904  1.4238001108169553 46.4545211791992188
 14.9659538269042951 10.4551992416381836 46.4545211791992188
 -0.0011664569610730  4.5157265663146973 45.3548011779785156
 -0.0036257810425013 13.5471258163452148 45.3548011779785156
  9.0292339324951172  4.5157265663146973 45.3548011779785156
  9.0267744064331037 13.5471258163452148 45.3548011779785156
  4.5152091979980469  0.0000000000000000 45.3536758422851562
  4.5127501487731934  9.0313997268676740 45.3536758422851562
 13.5456094741821289  0.0000000000000000 45.3536758422851562
 13.5431499481201172  9.0313997268676740 45.3536758422851562
 12.9735574722290039  7.9123015403747559 33.8628807067871094
 13.2751398086547834  8.9578609466552734 32.4496231079101562
 11.8346748352050763 10.0058059692382812 35.0024147033691406
 12.7960872650146484 11.4864025115966797 34.8644065856933594
 15.3011817932128906  9.0699863433837891 35.7222709655761719
 14.1688594818115234 10.3241863250732404 36.3155937194824219
 15.6524868011474609 10.1235084533691388 33.1808166503906250
 14.3392305374145508 11.2887706756591797 32.9179496765136719
 15.6500854492187500  8.3725967407226562 32.4222335815429759
 15.6112432479858398  7.6428112983703613 34.0219459533691406
 15.7403984069824219  5.8935923576354980 32.4223251342773438
 14.1531972885131836  5.8236212730407715 33.1634445190429759
 11.5247993469238281  9.9489841461181641 32.5260467529296875
 12.4417657852172852 11.4749546051025391 32.3705024719238281
 10.9481639862060547 11.4200267791748047 33.2862091064453125
 13.5861949920654297  8.2311248779296875 37.3703956604003906
 13.5399932861328125  7.3370146751403809 35.8619689941406250
 12.2686710357665998  8.5224761962890625 36.2516975402832031
 14.8474540710449201 12.4163360595703107 35.0649147033691406
 16.2359333038330078 12.3009529113769513 34.0040168762207102
 16.1502437591552734 11.2139282226562482 35.3838882446289062
 14.7642650604248029  6.9571089744567871 30.3607444763183594
 14.1438484191894513  5.3696575164794913 30.7412185668945312
 11.9592189788818359  5.7309665679931641 32.5896492004394531
 13.1618518829345703  8.3282947540283203 29.3631629943847656
  9.6930246353149396  6.7636914253234863 32.5683059692382812
 10.8973016738891602  9.3412208557128906 29.3227100372314489
  9.1734323501586914  8.5409412384033203 30.9393749237060547
 17.9194049835205078  4.3994297981262207 34.7341270446777344
  0.6441135406494134 13.9242467880249023 35.1582107543945384
  8.5264158248901367  4.1400747299194336 34.8513336181640625
  8.9995326995849609 13.6705350875854492 34.7971382141113281
  4.2872090339660645  9.4531660079956055 34.9459152221679688
  4.5704850414767861 17.8547402769327164 34.7022705078125000
 13.8178314426913857 17.7204293906688690 35.2180519104003906
  0.1388311982154846  4.4547348022460938 40.6081352233886719
  0.1694228202104568 13.7670898437500000 40.7785644531250000
  8.9799003601074219  4.3964834213256836 40.5358200073242188
  9.0064659118652344 13.6208305358886719 40.6315917968750000
  4.5253305435180664  8.9635610580444336 40.6049194335937500
  4.5956377247348428 18.0544544383883476 40.4816474914550852
 13.5433340072631836  9.3841609954833984 40.7676696777343750
 13.5152286747470498 17.9711244776844978 40.5476150512695384
  9.0289716720581055  4.5156092643737793 46.4455223083496165
  9.0265130996704102 13.5470085144042969 46.4455223083496165
 18.0593719482421875  4.5156092643737793 46.4455223083496165
 18.0569133758544922 13.5470085144042969 46.4455223083496165
  4.5152091979980469  0.0000180629995157 46.4442062377929759
  4.5127501487731934  9.0314178466796857 46.4442062377929759
 13.5456094741821289  0.0000180629995157 46.4442062377929759
 13.5431499481201172  9.0314178466796857 46.4442062377929759
 12.7272996902465820  6.9581341743469238 30.9813575744628906
 11.7322044372558594  6.5090026855468750 31.8571300506591832
 12.4128017425537092  7.9721674919128418 30.0546283721923828
 10.4523248672485352  7.0888028144836426 31.8487758636474645
 11.1398162841796875  8.5500221252441406 30.0248222351074219
 10.1475067138671857  8.1055755615234375 30.9316864013671911
 13.7128820419311523  8.5711994171142578 33.3875732421875071
 12.5301122665405256 10.5527915954589826 34.3670654296875071
 14.2459640502929670  9.3987751007080078 35.7250938415527344
 14.8942470550537092 10.7341537475585938 33.6709403991699219
 15.0181026458740234  7.7941555976867676 33.1074142456054759
 14.7645988464355469  6.4123349189758301 32.4701042175292969
 11.8479633331298828 10.8508567810058594 33.0460472106933594
 13.3514137268066388  8.3240299224853516 36.3066864013671875
 15.5508718490600568 11.7066364288330060 34.6178359985351634
 14.1366176605224609  6.4142012596130371 31.0612621307373047
  1.0000610351562511  4.3318266868591309 35.3808670043945312
  0.8842601776123051 12.8216085433959961 35.8237152099609375
  9.7813816070556641  3.8545708656311035 35.1025810241699290
  8.7806921005249023 12.6712799072265625 35.6185150146484375
  7.9414219856262207  5.2591037750244141 35.2127227783203196
  8.6568660736083984 14.9266901016235352 35.0369224548339844
 16.7235488891601562  4.4189424514770508 35.2969131469726562
 17.6845531463623047 14.7309131622314453 35.3527450561523509
  4.3740735054016113  8.2256746292114258 35.4178771972656321
  3.3500914573669434  0.1176612526178360 35.0290260314941406
 12.5098327854648215 17.7740503549575806 35.3746986389160227
  5.6535573005676261  0.4240418076515198 35.1245307922363352
  5.1345610618591309 10.4198350906372070 35.2152786254882812
 14.6561441421508789  0.5979959368705750 35.5829467773437500
  0.9920135736465454  3.5837347507476807 41.0440101623535227
  0.8981191515922546 12.8098754882812500 41.2651481628418040
  9.9618835449218750  3.7413020133972168 41.0726165771484375
  9.7182588577270508 12.7907142639160156 41.3525924682617188
  3.7732594013214111  8.0002164840698242 41.0888671875000000
  3.7489346722140908 17.3027396202087402 41.1248207092285156
 12.7098712921142578  8.5520286560058594 41.3483314514160156
 12.7311891773715615 17.1319554448127747 41.1613044738769602
  8.2519903182983398  5.3303241729736319 41.1360740661621094
  8.1347084045410156 14.5028867721557599 41.1002388000488281
 17.3217333555221558  5.1137933731079102 41.3262939453125000
 17.1126284003257751 14.2231464385986328 41.2971534729003977
  5.4649252891540527  0.8400132656097412 41.0349655151367188
  5.2513017654418945  9.8151006698608398 41.3140144348144531
 14.2671508789062500  0.8493233323097228 41.1325492858886790
 14.8546905517578125  9.3940134048461914 40.9661178588867188
  0.8273094892501831  3.6869695186614990 47.0359649658203125
  0.8248501420021057 12.7183685302734375 47.0359649658203125
  9.8577098846435547  3.6869695186614990 47.0359649658203125
  9.8552503585815412 12.7183685302734375 47.0359649658203125
  3.6843190193176270  8.2023353576660156 47.0346527099609375
  3.6818594932556152 17.2337341308593750 47.0346527099609375
 12.7147188186645508  8.2023353576660156 47.0346527099609375
 12.7122592926025391 17.2337341308593750 47.0346527099609375
  8.2006769180297852  5.3445744514465332 47.0360260009765696
  8.1982173919677734 14.3759746551513672 47.0360260009765696
 17.2310771942138672  5.3445744514465332 47.0360260009765696
 17.2286186218261719 14.3759746551513672 47.0360260009765696
  5.3436489105224600  0.8290914893150328 47.0346527099609375
  5.3411893844604483  9.8604917526245117 47.0346527099609375
 14.3740482330322266  0.8290914893150328 47.0346527099609375
 14.3715896606445312  9.8604917526245117 47.0346527099609375
 13.8525028228759766  9.7833900451660156 34.2913856506347656
  9.1283597946166974  0.3312537670135498 34.5331802368164062
  8.7123651504516602  9.2472019195556641 34.6971626281738352
 17.9684942439198529  0.0988402813673019 34.4803924560546875
  0.6130884885787964  9.1534233093261719 34.6395759582519531
  4.4915757179260254  4.4899024963378906 34.6034965515136790
  4.3506965637207031 13.8253517150878906 34.5395431518554688
 13.3130645751953125  3.8259277343750000 34.7648506164550781
 12.7019577026367188 14.3357830047607422 34.4688224792480469
  0.0493831122294068 17.9841124862432480 40.8939132690429688
  0.2807121872901917  8.9003925323486328 40.9666442871093821
  9.0764484405517578  0.0210039690136909 40.9084930419921875
  9.0812940597534162  8.9324092864990234 40.9414901733398438
  4.6543502807617188  4.4357819557189941 40.9120750427246165
  4.5303502082824707 13.6168432235717773 40.9017906188964844
 13.5008182525634766  4.7307224273681632 40.9505958557128977
 13.5340328216552734 13.4115190505981428 40.8678131103515625
  2.4832651615142822  2.0875701904296875 37.9358253479003906
  2.6700985431671143 11.0470762252807599 38.1699867248535156
 11.6118545532226562  2.0335261821746826 38.1497459411621094
 11.2659530639648420 11.2869205474853516 38.3024864196777344
  6.5169968605041504  7.0605773925781250 38.0536422729492188
  6.7560830116271973 15.9208564758300763 37.8513374328613281
 15.9957551956176758  6.6899013519287100 38.2524185180664062
 15.6714658737182599 15.9132156372070312 38.0998268127441406
  2.1267900466918945  6.5847282409667969 38.0430450439453125
  2.1736574172973633 15.8094530105590820 37.9910087585449290
 10.6877851486206055  6.2677049636840820 37.7219505310058594
 11.0512504577636719 15.6247653961181641 38.1169013977050781
  6.9119277000427246  2.3982679843902588 37.8948478698730469
  6.8643307685852051 11.4518985748290998 38.2961883544921875
 16.0265350341796875  2.5714645385742188 38.3255996704101634
 16.4334774017333984 11.7179450988769531 38.5388031005859375
  0.0000000000000000  0.0000000000000000 47.1735610961914062
 -0.0024593239650130  9.0313997268676740 47.1735610961914062
  9.0304002761840803  0.0000000000000000 47.1735610961914062
  9.0279407501220685  9.0313997268676740 47.1735610961914062
  4.5139794349670410  4.5156998634338379 47.1742515563964844
  4.5115203857421875 13.5470991134643537 47.1742515563964844
 13.5443792343139648  4.5156998634338379 47.1742515563964844
 13.5419197082519531 13.5470991134643537 47.1742515563964844
  2.4519233703613277  2.0629522800445557 44.0401268005371165
  2.4494640827178955 11.0943517684936523 44.0401268005371165
 11.4823226928710920  2.0629522800445557 44.0401268005371165
 11.4798641204833984 11.0943517684936523 44.0401268005371165
  6.5760178565979004  6.9684472084045410 44.0401268005371165
  6.5735583305358887 15.9998464584350586 44.0401268005371165
 15.6064186096191406  6.9684472084045410 44.0401268005371165
 15.6039590835571289 15.9998464584350586 44.0401268005371165
  2.0610768795013428  6.5788145065307617 44.0400009155273509
  2.0586175918579102 15.6102142333984375 44.0400009155273509
 11.0914773941040039  6.5788145065307617 44.0400009155273509
 11.0890178680419922 15.6102142333984375 44.0400009155273509
  6.9668641090393066  2.4525938034057613 44.0400657653808665
  6.9644045829772949 11.4839935302734375 44.0400657653808665
 15.9972639083862305  2.4525938034057613 44.0400657653808665
 15.9948053359985352 11.4839935302734375 44.0400657653808665
  2.4316265583038330  2.0832188129425049 50.0684852600097656
  2.4291670322418213 11.1146183013915998 50.0684852600097656
 11.4620265960693359  2.0832188129425049 50.0684852600097656
 11.4595670700073224 11.1146183013915998 50.0684852600097656
  6.5963144302368164  6.9481806755065918 50.0684852600097656
  6.5938549041748047 15.9795799255371076 50.0684852600097656
 15.6267137527465803  6.9481806755065918 50.0684852600097656
 15.6242542266845703 15.9795799255371076 50.0684852600097656
  2.0811281204223633  6.5990090370178223 50.0690460205078125
  2.0786688327789307 15.6304082870483398 50.0690460205078125
 11.1115283966064453  6.5990090370178223 50.0690460205078125
 11.1090688705444336 15.6304082870483398 50.0690460205078125
  6.9468131065368652  2.4323906898498531 50.0690460205078125
  6.9443535804748535 11.4637899398803711 50.0690460205078125
 15.9772129058837891  2.4323906898498531 50.0690460205078125
 15.9747543334960938 11.4637899398803711 50.0690460205078125
 18.0045947581529617  0.0600746050477028 37.8098297119140625
  0.1053091436624527  9.1590681076049805 37.7632942199707031
  9.0913877487182617  0.1137951314449310 37.8078193664550781
  8.9940738677978516  9.0858144760131836 37.7815246582031250
  4.5116081237792969  4.5721311569213867 37.8007278442382812
  4.4499621391296387 13.6370553970336914 37.7210693359375000
 13.4892015457153320  4.6581068038940430 37.8473320007324219
 13.3430719375610352 13.6669330596923828 37.6078376770019531
  0.0000090280000222  0.0000090310004452 44.0429992675781250
 -0.0024502959568053  9.0314083099365234 44.0429992675781250
  9.0304088592529297  0.0000090310004452 44.0429992675781250
  9.0279493331909180  9.0314083099365234 44.0429992675781250
  4.5139703750610352  4.5156903266906738 44.0427513122558594
  4.5115113258361816 13.5470905303955078 44.0427513122558594
 13.5443706512451172  4.5156903266906738 44.0427513122558594
 13.5419111251831037 13.5470905303955078 44.0427513122558594
  0.0000000000000000  0.0000000000000000 50.4472808837890696
 -0.0024593239650130  9.0313997268676740 50.4472808837890696
  9.0304002761840803  0.0000000000000000 50.4472808837890696
  9.0279407501220685  9.0313997268676740 50.4472808837890696
  4.5139703750610352  4.5156998634338379 50.4472808837890696
  4.5115113258361816 13.5470991134643537 50.4472808837890696
 13.5443706512451172  4.5156998634338379 50.4472808837890696
 13.5419111251831055 13.5470991134643537 50.4472808837890696
