 H  C  N  I Pb 
 1.0000000000000000
    18.0608005523681641    0.0000000000000000    0.0000000000000000
    -0.0049186488613486   18.0627994537353516    0.0000000000000000
     0.0000000000000000    0.0000000000000000   62.4874992370605469
 H   C   N   I   Pb 
 143  39  47  72  24
Cartesian
  7.3315663337707520  5.1487884521484375 34.9261894226074219
  7.5375604629516593 12.5976018905639648 35.6489868164062571
 16.6726779937744141  5.2848987579345703 36.1485214233398438
 16.6755084991455078 14.6769933700561523 35.8029098510742259
  5.8110237121582031  1.6430349349975586 35.1227455139160156
  5.8979363441467285 10.2607049942016602 35.4221000671386790
 14.3094205856323224  1.9315607547760010 35.2051734924316477
  1.9433765411376958  4.3497629165649414 35.0864982604980540
  1.4253807067871112 12.3861236572265607 35.5194549560546946
 10.4745321273803711  3.3428640365600586 35.2991676330566406
 10.8160552978515625 13.9500427246093750 34.9796333312988352
  6.8683729171752921  0.3312664628028870 34.6543350219726562
  4.6351304054260254 11.1985511779785156 34.6656990051269531
 15.7491416931152344  1.0138303041458130 34.7563171386718750
  1.1027145385742203  5.2543516159057617 36.3106155395507812
 17.9174919128417969 12.5264005661010742 36.2750205993652415
  8.7672529220581055  3.1226294040679932 35.5627784729003906
  9.9999465942382812 12.6824626922607422 35.8406867980957102
  5.4840307235717773  7.8270864486694336 35.7158699035644531
  3.4247007369995113  1.1211831569671631 35.5043334960937500
 12.2937364578247070  0.5086542367935181 35.8312110900878906
  8.2482089996337891  6.6115474700927734 34.5867347717285227
  6.7564773559570312 13.7269172668457031 34.5826988220214915
 15.9464359283447248  4.4191112518310547 34.8112983703613281
 17.4713706970214844 15.7870769500732422 34.7279853820800781
  4.0721526145935059  7.1828589439392090 34.9607429504394531
  2.8958272198215127 17.5807137489318848 35.1224479675292969
 12.4427799442782998 16.8774893283843994 35.4184226989746094
 10.2848224639892578  5.5330967903137198 34.6688613891601634
  8.8149642944335938 14.7662334442138672 34.0412101745605469
 18.0370235443115234  3.6902596950531006 34.0112838745117259
  1.2230529785156248 14.3789968490600586 34.3600425720214844
  3.3247690200805664  9.2852220535278320 34.2426338195800781
  5.0576600292697549 16.8623027801513672 34.5625572204589844
 14.6248192051425576 17.0472596883773804 34.7555160522461009
  8.2286357879638672  5.4519538879394531 42.0590515136718821
  7.9359197616577148 14.7109451293945312 41.9144325256347656
 17.2515896558761632  5.1244812011718750 42.2506904602050781
 16.4534950256347656 13.4363880157470685 41.2463760375976634
  5.3215799331665039  0.7508738040924071 42.1866645812988352
  5.4410943984985352 10.1580772399902344 42.0224418640136790
 14.4159851074218732  0.9484697580337524 42.1487121582031321
 15.0517339706420898  8.4098520278930664 41.4894599914550781
  1.6275398731231687  3.0713438987731929 40.4336967468261719
  1.9442033767700195 12.6314067840576172 40.9617462158203125
 10.3991899490356445  3.0137782096862793 40.3905982971191406
 10.3758678436279297 12.2402763366699219 40.7125244140625000
  3.3413758277893062  7.4445605278015137 40.7215309143066406
  2.9508599499240518 16.8458383083343506 40.1981010437011790
 11.4540967941284180  8.7685403823852539 40.9867858886718750
 12.1430830219760537 16.5649873018264771 40.5905303955078125
  1.1284874677658081  3.3989453315734863 42.0745277404785227
  0.3951811790466309 11.8385248184204102 41.1011962890625000
  9.9218921661376953  3.5048041343688965 41.9937324523925781
  9.8335628509521484 12.9345598220825195 42.2049522399902344
  3.8245537281036377  8.1412763595581055 42.2426033020019531
  3.2955064037814736 17.2373940944671631 41.8635559082031250
 12.6166696548461896  7.7440938949584961 41.7883529663086009
 12.6582082966342568 17.0842617750167882 42.1794891357421875
  7.8078103065490723  6.0971984863281250 40.5010986328125071
  7.4786195755004883 14.9773292541503906 40.2527389526367259
 16.6887181997299194  5.7275691032409668 40.7082443237304688
 16.8510446548461914 15.1346063613891584 41.0439987182617188
  6.1731910705566406  1.1485213041305542 40.7344512939453125
  5.8179955482482910 10.5947351455688477 40.3772659301757884
 14.8433589935302734  1.4858523607254028 40.5412292480468750
 15.3568973541259748  9.7716131210327148 40.4679412841796946
  0.1042729914188385  4.5030322074890137 39.4774131774902344
  1.0457946062088013 14.7600345611572266 40.8278388977050852
  9.1312799453735352  4.6235146522521973 39.3244743347167969
  8.9360189437866211 13.4296331405639648 39.3930892944336009
  4.7184809902682900 18.0357712171971798 39.3506927490234375
  4.5471405982971191  8.9270048141479492 39.4428253173828125
 13.4779281616210938  0.0001563737168908 39.4653167724609375
 13.0858383178710920 10.1343517303466797 40.0421142578125000
  8.1032123565673828  5.4420318603515616 48.0459518432617259
  8.1007528305053711 14.4734306335449219 48.0459518432617259
 17.1336116790771484  5.4420318603515616 48.0459518432617259
 17.1311531066894531 14.4734306335449219 48.0459518432617259
  5.4410333633422852  0.9265221953392029 48.0449485778808594
  5.4385743141174316  9.9579219818115234 48.0449485778808594
 14.4714326858520490  0.9265221953392029 48.0449485778808594
 14.4689741134643555  9.9579219818115234 48.0449485778808594
  1.4218254089355467  3.0919990539550781 46.4558296203613281
  1.4193661212921143 12.1233978271484375 46.4558296203613281
 10.4522256851196289  3.0919990539550781 46.4558296203613281
 10.4497661590576172 12.1233978271484375 46.4558296203613281
  3.0899283885955806  7.6075901985168457 46.4545211791992188
  3.0874691009521484 16.6389904022216797 46.4545211791992188
 12.1203289031982422  7.6075901985168457 46.4545211791992188
 12.1178693771362305 16.6389904022216797 46.4545211791992188
  0.9247469902038573  3.5893490314483643 48.0459518432617259
  0.9222877025604248 12.6207475662231445 48.0459518432617259
  9.9551477432250977  3.5893490314483643 48.0459518432617259
  9.9526882171630859 12.6207475662231445 48.0459518432617259
  3.5868983268737793  8.1048498153686523 48.0448913574218821
  3.5844390392303462 17.1362495422363281 48.0448913574218821
 12.6172990798950195  8.1048498153686523 48.0448913574218821
 12.6148395538330078 17.1362495422363281 48.0448913574218821
  7.6061611175537109  5.9393639564514160 46.4558296203613281
  7.6037015914916992 14.9707632064819336 46.4558296203613281
 16.6365604400634766  5.9393639564514160 46.4558296203613281
 16.6341018676757812 14.9707632064819336 46.4558296203613281
  5.9380125999450684  1.4238001108169553 46.4545211791992188
  5.9355530738830566 10.4551992416381836 46.4545211791992188
 14.9684123992919904  1.4238001108169553 46.4545211791992188
 14.9659538269042951 10.4551992416381836 46.4545211791992188
 -0.0011664569610730  4.5157265663146973 45.3548011779785156
 -0.0036257810425013 13.5471258163452148 45.3548011779785156
  9.0292339324951172  4.5157265663146973 45.3548011779785156
  9.0267744064331037 13.5471258163452148 45.3548011779785156
  4.5152091979980469  0.0000000000000000 45.3536758422851562
  4.5127501487731934  9.0313997268676740 45.3536758422851562
 13.5456094741821289  0.0000000000000000 45.3536758422851562
 13.5431499481201172  9.0313997268676740 45.3536758422851562
 14.4576606750488281  9.1514883041381836 32.0765113830566406
 15.8618183135986328  9.0200767517089844 33.1618003845214844
 13.6628141403198242 11.1544036865234375 33.2270927429199219
 13.5633630752563477 11.1414051055908203 34.9832801818847656
 12.3843898773193359  7.8948984146118164 34.2311248779296946
 11.9989814758300781  9.5503330230712891 34.7065620422363352
 14.3326635360717773  7.5692214965820312 35.3157882690429759
 15.5573825836181641  8.8463573455810547 35.4952468872070312
 15.5287084579467773  6.7391405105590820 33.5820274353027344
 13.8307723999023438  6.7513256072998047 33.1345977783203125
 14.2687397003173828  6.9339175224304199 30.8080520629882848
 15.9430103302001953  7.4008383750915518 31.0486488342285156
 16.1660175323486328 11.0786905288696271 33.3080406188964915
 16.1175041198730469 10.9364776611328125 35.0793838500976562
 15.4951725006103516 12.3927440643310529 34.2837409973144531
 10.8680124282836914  9.0533246994018555 32.6454200744628906
 12.3576450347900391  8.5729999542236328 31.7950496673583984
 12.0750961303710938 10.2843694686889648 32.2530593872070312
 12.6802272796630859  8.9277973175048828 36.6183433532714844
 13.8939914703369141 10.2248086929321289 36.8353881835937571
 14.1608476638793945  8.6243476867675781 37.5144577026367188
 14.8967638015747053  4.6580152511596680 31.9336681365966832
 15.3634948730468732  4.9602942466735840 30.2658710479736364
 16.7271099090576172  2.8438589572906494 31.2102413177490270
 17.6442546844482422  6.9507293701171875 32.1623191833496094
  1.0348434448242223  2.2356545925140381 31.5819377899169957
  1.9304370880126944  6.3420863151550293 32.5367317199707031
  2.7009296417236324  3.9986975193023682 32.2098541259765625
 17.9836883544921875  4.3244752883911133 34.8942184448242188
  0.3961677551269537 14.0461530685424805 34.9987792968750000
  9.3767414093017578  4.9653906822204590 34.8801727294921946
  8.8024215698242188 13.8835048675537109 34.6859016418457031
  4.2959508895874023  9.1952037811279279 34.7359504699707031
  4.8845595577731729 17.9056433141231537 34.8316917419433594
 14.0976089695468545 17.9528617113828659 35.0539894104003977
  0.1260176897048950  4.4007420539855957 40.5633354187011719
  0.3852715492248535 13.9027013778686506 40.9680137634277344
  9.1097545623779297  4.5535945892333984 40.4158859252929759
  8.9118824005126953 13.5926771163940412 40.4707107543945384
  4.5809011459350586  9.0159788131713867 40.5317878723144602
  4.5487541416659951 18.0444863531738520 40.4313888549804688
 13.3968029022216797  9.3008317947387695 40.6768608093261790
 13.4948763111606240 18.0547656808048487 40.5595970153808665
  9.0289716720581055  4.5156092643737793 46.4455223083496165
  9.0265130996704102 13.5470085144042969 46.4455223083496165
 18.0593719482421875  4.5156092643737793 46.4455223083496165
 18.0569133758544922 13.5470085144042969 46.4455223083496165
  4.5152091979980469  0.0000180629995157 46.4442062377929759
  4.5127501487731934  9.0314178466796857 46.4442062377929759
 13.5456094741821289  0.0000180629995157 46.4442062377929759
 13.5431499481201172  9.0314178466796857 46.4442062377929759
 17.0055713653564453  4.9492235183715820 31.6211261749267614
 17.4443321228027344  3.6243579387664795 31.4892177581787109
 17.9417781829833984  5.9150075912475586 32.0116577148437500
  0.7248840332031254  3.2756040096282959 31.6963367462158203
  1.2213764190673817  5.5776009559631348 32.2156677246093750
  1.6535129547119145  4.2572507858276367 32.0521354675292969
 14.8295946121215820  8.6888856887817383 32.9916381835937571
 14.1557455062866211 10.7845802307128906 34.1302833557128906
 12.5196847915649414  8.9524755477905273 33.9494400024414062
 14.4780864715576172  8.6532239913940430 35.4346809387207031
 14.8088665008544922  7.1725955009460449 32.8746643066406250
 15.1485328674316406  6.7508220672607422 31.4390583038330078
 15.5747766494750977 11.3010559082031250 34.2027626037597727
 11.9487552642822248  9.2370796203613281 32.5688667297363281
 13.7438001632690412  9.1567840576171875 36.6528549194335938
 15.5568695068359375  5.2786035537719727 31.3027305603027379
  1.0498676300048841  4.6401896476745605 35.4858551025390696
  0.5382022857666003 12.8846769332885742 35.5902061462402344
  9.5287904739379883  3.6988902091979980 35.1945381164550781
  9.9384784698486328 13.4587306976318359 35.1730422973632884
  8.2304849624633789  5.5978503227233878 34.7654037475585938
  7.6339998245239249 13.3332061767578125 34.9384765625000000
 16.7968196868896484  4.7009787559509277 35.3047370910644531
 17.4061222076416016 14.8324747085571289 35.1055641174316406
  4.6600074768066406  7.9948348999023438 35.1254959106445384
  3.6646714210510254  0.1889647245407104 35.1530151367187500
 12.8481191853061318 17.8155263513326645 35.4201698303222727
  5.9061255455017090  0.6663528084754944 34.8236541748046946
  5.0065436363220215 10.2832412719726562 34.9156837463378906
 14.7562427520751953  1.0222791433334351 35.0114364624023438
  1.0045695304870605  3.5725660324096680 41.0734863281250000
  0.9240633249282837 12.7115030288696289 41.0187454223632812
  9.8553400039672834  3.6431422233581543 40.9863052368164134
  9.7489995956420898 12.8807649612426758 41.1917991638183594
  3.8839695453643799  8.1461505889892578 41.2232131958007812
  3.5318443039432168 17.3369394540786743 40.8752555847167969
 12.4416284561157227  8.5435295104980469 41.1704101562500000
 12.7335085133090615 17.1756190061569214 41.1626319885253906
  8.3385372161865234  5.4160494804382315 41.0453948974609375
  8.0517559051513672 14.4683351516723633 40.9270324707031250
 17.3314204216003418  5.1280741691589355 41.2363357543945312
 17.1598190069198608 14.1619892120361328 41.0692672729492188
  5.3906106948852539  0.6837412118911743 41.1688919067382812
  5.3197469711303711  9.9841194152832031 41.0271873474121165
 14.2895889282226562  0.8676398992538452 41.1418113708496094
 14.6770067214965820  9.1439418792724609 40.8908576965332031
  0.8273094892501831  3.6869695186614990 47.0359649658203125
  0.8248501420021057 12.7183685302734375 47.0359649658203125
  9.8577098846435547  3.6869695186614990 47.0359649658203125
  9.8552503585815412 12.7183685302734375 47.0359649658203125
  3.6843190193176270  8.2023353576660156 47.0346527099609375
  3.6818594932556152 17.2337341308593750 47.0346527099609375
 12.7147188186645508  8.2023353576660156 47.0346527099609375
 12.7122592926025391 17.2337341308593750 47.0346527099609375
  8.2006769180297852  5.3445744514465332 47.0360260009765696
  8.1982173919677734 14.3759746551513672 47.0360260009765696
 17.2310771942138672  5.3445744514465332 47.0360260009765696
 17.2286186218261719 14.3759746551513672 47.0360260009765696
  5.3436489105224600  0.8290914893150328 47.0346527099609375
  5.3411893844604483  9.8604917526245117 47.0346527099609375
 14.3740482330322266  0.8290914893150328 47.0346527099609375
 14.3715896606445312  9.8604917526245117 47.0346527099609375
 14.0034942626953107  9.2670516967773438 34.1229743957519531
  9.3009103992953897 17.7788898944854736 34.5766830444336009
  8.5792961120605469  9.2086610794067383 34.5640869140625071
  0.0906558111310005  0.2288929522037506 34.4756240844726562
  0.5272521972656250  8.7418537139892578 34.6132850646972656
  4.6836581230163574  4.2794213294982910 34.5944328308105469
  4.1303067207336426 13.8034868240356428 34.4118385314941406
 13.2398300170898438  4.2132101058959961 34.6379661560058665
 13.3088502883911133 14.3459081649780273 34.6041107177734446
 17.9646059582009912 17.8319790214300156 40.8906402587890625
  0.1737223863601685  9.1116666793823242 40.9265785217285156
  8.9720449447631836  0.0684241726994514 40.9169387817382812
  8.9484405517578125  9.1563749313354492 40.8776054382324219
  4.7337541580200195  4.3788986206054688 40.9242095947265625
  4.4300012588500977 13.6173467636108398 40.8430862426757812
 13.4702091217041016  4.9293050765991202 40.9367485046386790
 13.5774917602539062 13.2646102905273438 40.8702850341796875
  2.4409828186035152  2.1049599647521973 37.9952812194824290
  2.6416828632354732 10.9949245452880859 37.8587150573730469
 11.4854154586791992  2.0747284889221191 37.9678001403808594
 11.1860303878784162 11.4079227447509766 37.8841094970703196
  6.6457700729370117  6.9360184669494629 37.9569435119628906
  6.5831494331359863 15.9701595306396484 37.7669105529785156
 16.0397968292236328  6.6514773368835449 38.1603927612304759
 15.5641574859619141 16.0991306304931641 37.9321365356445312
  2.2738764286041255  6.6291155815124512 38.2210960388183594
  2.0721611976623535 15.7735767364501953 37.8339500427246094
 11.0248432159423810  6.5812754631042480 37.6520996093750000
 11.1592864990234375 15.6196575164794904 38.2646484375000071
  7.1204271316528320  2.4635047912597652 37.7477378845214844
  6.8561120033264160 11.4688596725463867 37.9154510498046875
 15.9176769256591779  2.4651732444763184 38.2607421875000000
 16.2820224761962891 11.6654872894287109 38.0747642517089844
  0.0000000000000000  0.0000000000000000 47.1735610961914062
 -0.0024593239650130  9.0313997268676740 47.1735610961914062
  9.0304002761840803  0.0000000000000000 47.1735610961914062
  9.0279407501220685  9.0313997268676740 47.1735610961914062
  4.5139794349670410  4.5156998634338379 47.1742515563964844
  4.5115203857421875 13.5470991134643537 47.1742515563964844
 13.5443792343139648  4.5156998634338379 47.1742515563964844
 13.5419197082519531 13.5470991134643537 47.1742515563964844
  2.4519233703613277  2.0629522800445557 44.0401268005371165
  2.4494640827178955 11.0943517684936523 44.0401268005371165
 11.4823226928710920  2.0629522800445557 44.0401268005371165
 11.4798641204833984 11.0943517684936523 44.0401268005371165
  6.5760178565979004  6.9684472084045410 44.0401268005371165
  6.5735583305358887 15.9998464584350586 44.0401268005371165
 15.6064186096191406  6.9684472084045410 44.0401268005371165
 15.6039590835571289 15.9998464584350586 44.0401268005371165
  2.0610768795013428  6.5788145065307617 44.0400009155273509
  2.0586175918579102 15.6102142333984375 44.0400009155273509
 11.0914773941040039  6.5788145065307617 44.0400009155273509
 11.0890178680419922 15.6102142333984375 44.0400009155273509
  6.9668641090393066  2.4525938034057613 44.0400657653808665
  6.9644045829772949 11.4839935302734375 44.0400657653808665
 15.9972639083862305  2.4525938034057613 44.0400657653808665
 15.9948053359985352 11.4839935302734375 44.0400657653808665
  2.4316265583038330  2.0832188129425049 50.0684852600097656
  2.4291670322418213 11.1146183013915998 50.0684852600097656
 11.4620265960693359  2.0832188129425049 50.0684852600097656
 11.4595670700073224 11.1146183013915998 50.0684852600097656
  6.5963144302368164  6.9481806755065918 50.0684852600097656
  6.5938549041748047 15.9795799255371076 50.0684852600097656
 15.6267137527465803  6.9481806755065918 50.0684852600097656
 15.6242542266845703 15.9795799255371076 50.0684852600097656
  2.0811281204223633  6.5990090370178223 50.0690460205078125
  2.0786688327789307 15.6304082870483398 50.0690460205078125
 11.1115283966064453  6.5990090370178223 50.0690460205078125
 11.1090688705444336 15.6304082870483398 50.0690460205078125
  6.9468131065368652  2.4323906898498531 50.0690460205078125
  6.9443535804748535 11.4637899398803711 50.0690460205078125
 15.9772129058837891  2.4323906898498531 50.0690460205078125
 15.9747543334960938 11.4637899398803711 50.0690460205078125
 17.9843608289957047  0.1247491389513016 37.7406272888183594
  0.1900460720062256  9.0420112609863281 37.7099990844726562
  9.0564932087436318 17.9325081557035446 37.7220420837402344
  9.0294170379638672  9.0499973297119141 37.6767349243164062
  4.6298084259033203  4.4520421028137207 37.8218955993652344
  4.3762855529785156 13.6363782882690430 37.6798591613769602
 13.4899063110351562  4.5674796104431152 37.8463897705078125
 13.5865507125854492 13.6716251373291016 37.7268486022949290
  0.0000090280000222  0.0000090310004452 44.0429992675781250
 -0.0024502959568053  9.0314083099365234 44.0429992675781250
  9.0304088592529297  0.0000090310004452 44.0429992675781250
  9.0279493331909180  9.0314083099365234 44.0429992675781250
  4.5139703750610352  4.5156903266906738 44.0427513122558594
  4.5115113258361816 13.5470905303955078 44.0427513122558594
 13.5443706512451172  4.5156903266906738 44.0427513122558594
 13.5419111251831037 13.5470905303955078 44.0427513122558594
  0.0000000000000000  0.0000000000000000 50.4472808837890696
 -0.0024593239650130  9.0313997268676740 50.4472808837890696
  9.0304002761840803  0.0000000000000000 50.4472808837890696
  9.0279407501220685  9.0313997268676740 50.4472808837890696
  4.5139703750610352  4.5156998634338379 50.4472808837890696
  4.5115113258361816 13.5470991134643537 50.4472808837890696
 13.5443706512451172  4.5156998634338379 50.4472808837890696
 13.5419111251831055 13.5470991134643537 50.4472808837890696
