 H  C  N  I Pb 
 1.0000000000000000
    18.0608005523681641    0.0000000000000000    0.0000000000000000
    -0.0049186488613486   18.0627994537353516    0.0000000000000000
     0.0000000000000000    0.0000000000000000   62.4874992370605469
 H   C   N   I   Pb 
 143  39  47  72  24
Cartesian
  8.2100496292114258  5.8045020103454590 36.0781402587890625
  8.1163377761840820 15.2758607864379883 35.9094772338867188
 16.7013435363769531  4.5046515464782715 36.3189506530761719
 17.1500663757324219 14.5607318878173828 36.3770141601562571
  5.3928279876708984  1.0817630290985107 36.1120834350585938
  5.6652140617370605 10.1851739883422852 36.1768646240234375
 14.3376712799072248  1.3396015167236328 36.2627449035644531
  1.9598178863525382  4.1873936653137207 34.8777618408203125
  1.6965637207031219 12.2821369171142578 35.2694587707519531
 10.3069849014282227  3.1349067687988281 34.7577743530273438
  9.0319080352783203 11.7870702743530273 35.4000244140625071
  6.5117683410644531  0.2808811068534851 35.0408554077148438
  5.0368232727050781 11.2072830200195312 34.9010658264160227
 15.6852827072143555  0.6480558514595032 35.3901367187500000
  1.1339645385742192  4.0754003524780273 36.4053688049316406
  0.5324764251708990 12.4932012557983398 36.5412178039550781
 10.3043489456176758  4.5306839942932120 35.8598976135253906
  8.5638017654418945 12.8975696563720685 36.6512908935546875
  4.8149080276489258  7.8525080680847168 36.2750053405761790
  3.0031011104583736  0.4266378283500671 35.8917541503906250
 12.1858673095703107  0.1663918495178223 36.1375694274902344
  6.8251261711120605  5.2112607955932617 35.1460418701171946
  8.6462678909301758 15.6689023971557617 34.3158569335937500
 15.9277372360229492  4.5840339660644531 34.7838249206542969
 17.5781440734863281 15.6739892959594727 35.1037216186523438
  3.5944194793701172  7.4111199378967276 35.1041297912597727
  2.5730993011966348 17.3645808100700378 34.6246528625488281
 12.1746076801791769 16.7239841222763062 35.1953048706054688
  8.0361728668212891  3.4943666458129883 34.1429176330566477
  9.2687349319458008 13.4351177215576154 33.8045578002929688
 18.0178813934326172  4.4897747039794922 33.6684722900390625
  1.1191005706787105 14.2856264114379883 34.2014427185058594
  3.6292989253997798  9.5312538146972656 34.0897750854492188
  4.8333167294040313 17.1275642514228821 33.9668426513671875
 14.3542055347934365 16.9101006984710693 34.5901260375976562
  8.3415937423706055  5.5907130241394043 42.2463912963867188
  7.7673583030700684 14.6436681747436523 42.0189018249511719
 17.3437354564666748  5.0455818176269531 42.4625854492187571
 16.8172485828399694 14.1224088668823224 42.1328468322753906
  5.4952955245971680  1.0190931558609009 42.1214981079101562
  5.3445863723754883  9.7526550292968750 42.3476104736328125
 14.2753906250000000  0.9106255769729614 42.3023757934570312
 15.2624034881591797  9.1648845672607422 41.7710227966308665
  1.5891146659851074  3.2003998756408691 40.3064346313476562
  1.7288775444030762 12.4739189147949219 40.8486747741699219
 10.3564291000366211  2.9909720420837402 40.6071739196777415
 10.4050264358520490 12.2807750701904297 41.0017814636230540
  3.1354866027832031  7.5416707992553702 40.4261207580566406
  3.1716381767764688 16.6462881565093994 40.6395454406738281
 11.7220067977905273  8.5689859390258789 41.1173324584960938
 12.1324133137241006 16.6058673858642578 40.4640007019043040
  1.2125521898269653  3.3227317333221436 41.9917221069336009
  0.7022852897644043 12.4523248672485352 42.2302589416503906
 10.1813154220581055  3.7672228813171387 42.1547622680664062
  9.6279315948486328 12.8682594299316406 42.4369926452636790
  3.5720312595367432  7.8580574989318848 42.0685043334960938
  3.6269356468692422 17.2318274974822998 42.1923370361328125
 12.9999456405639648  8.0444507598876953 42.1612434387207031
 12.4561342457309365 17.0935941934585571 42.0906066894531250
  7.5162420272827148  5.8171000480651855 40.7397232055664062
  7.5590267181396484 15.0222187042236328 40.3304939270019531
 16.6981679201126099  5.8041577339172363 41.0435256958007812
 16.7559177875518799 15.0916786193847638 40.6703987121582031
  5.9941577911376953  1.4167466163635254 40.5139045715332102
  5.8482213020324707 10.4749450683593750 40.8511810302734375
 14.9543695449829102  1.3714698553085327 40.7795372009277344
 15.3607463836669922 10.1962614059448242 40.3419952392578125
  0.0243081897497177  4.7346954345703125 39.6039276123046946
  0.5875972509384155 14.1117954254150373 39.7716178894043040
  8.6914863586425781  4.2235860824584961 39.5958862304687571
  9.2016696929931623 13.5844631195068359 39.5823860168457102
  4.5573734501376748 17.9843568652868271 39.4675865173339844
  4.5264897346496573  9.1671600341796875 39.5414237976074290
 13.6476949909701943 18.0076131187379360 39.5172843933105469
 13.0887575149536133  9.9349403381347656 39.8496513366699219
  8.1032123565673828  5.4420318603515616 48.0459518432617259
  8.1007528305053711 14.4734306335449219 48.0459518432617259
 17.1336116790771484  5.4420318603515616 48.0459518432617259
 17.1311531066894531 14.4734306335449219 48.0459518432617259
  5.4410333633422852  0.9265221953392029 48.0449485778808594
  5.4385743141174316  9.9579219818115234 48.0449485778808594
 14.4714326858520490  0.9265221953392029 48.0449485778808594
 14.4689741134643555  9.9579219818115234 48.0449485778808594
  1.4218254089355467  3.0919990539550781 46.4558296203613281
  1.4193661212921143 12.1233978271484375 46.4558296203613281
 10.4522256851196289  3.0919990539550781 46.4558296203613281
 10.4497661590576172 12.1233978271484375 46.4558296203613281
  3.0899283885955806  7.6075901985168457 46.4545211791992188
  3.0874691009521484 16.6389904022216797 46.4545211791992188
 12.1203289031982422  7.6075901985168457 46.4545211791992188
 12.1178693771362305 16.6389904022216797 46.4545211791992188
  0.9247469902038573  3.5893490314483643 48.0459518432617259
  0.9222877025604248 12.6207475662231445 48.0459518432617259
  9.9551477432250977  3.5893490314483643 48.0459518432617259
  9.9526882171630859 12.6207475662231445 48.0459518432617259
  3.5868983268737793  8.1048498153686523 48.0448913574218821
  3.5844390392303462 17.1362495422363281 48.0448913574218821
 12.6172990798950195  8.1048498153686523 48.0448913574218821
 12.6148395538330078 17.1362495422363281 48.0448913574218821
  7.6061611175537109  5.9393639564514160 46.4558296203613281
  7.6037015914916992 14.9707632064819336 46.4558296203613281
 16.6365604400634766  5.9393639564514160 46.4558296203613281
 16.6341018676757812 14.9707632064819336 46.4558296203613281
  5.9380125999450684  1.4238001108169553 46.4545211791992188
  5.9355530738830566 10.4551992416381836 46.4545211791992188
 14.9684123992919904  1.4238001108169553 46.4545211791992188
 14.9659538269042951 10.4551992416381836 46.4545211791992188
 -0.0011664569610730  4.5157265663146973 45.3548011779785156
 -0.0036257810425013 13.5471258163452148 45.3548011779785156
  9.0292339324951172  4.5157265663146973 45.3548011779785156
  9.0267744064331037 13.5471258163452148 45.3548011779785156
  4.5152091979980469  0.0000000000000000 45.3536758422851562
  4.5127501487731934  9.0313997268676740 45.3536758422851562
 13.5456094741821289  0.0000000000000000 45.3536758422851562
 13.5431499481201172  9.0313997268676740 45.3536758422851562
 12.9505243301391602  7.9243464469909659 33.8690910339355540
 13.2995471954345703  8.9880399703979492 32.5391960144043040
 11.8020105361938477  9.9048728942871094 35.1011009216308594
 12.6376419067382812 11.4630451202392560 35.0071983337402344
 15.2068510055541992  9.1153020858764648 35.8123779296875000
 14.0210466384887695 10.2686672210693359 36.4154090881347727
 15.6243619918823242 10.0700159072875977 33.4032440185546946
 14.3158330917358398 11.2518320083618164 32.9988098144531250
 15.6353187561035156  8.4652719497680664 32.4842720031738281
 15.6121921539306641  7.7933382987976074 34.0940437316894602
 15.8177804946899414  6.0365777015686035 32.4701271057128977
 14.2277383804321289  5.8646740913391113 33.2193908691406250
 11.4694156646728516  9.8911714553833008 32.5970573425292969
 12.4829072952270508 11.3821802139282227 32.4527854919433594
 10.9459972381591797 11.4310178756713867 33.3078041076660227
 13.6050138473510742  8.0742549896240234 37.4194107055664062
 13.3959817886352539  7.3012728691101074 35.8407058715820312
 12.2383537292480469  8.5144119262695312 36.4104499816894531
 14.9445858001708967 12.3548345565795898 35.3048706054687500
 16.0602073669433594 12.4356241226196289 33.9638671875000000
 16.3944931030273438 11.2606229782104474 35.2747154235839844
 14.8312425613403320  7.0812225341796875 30.4603710174560582
 14.1853847503662109  5.4370970726013184 30.7467594146728551
 11.9612607955932617  5.7771763801574707 32.6514282226562571
 13.2677421569824219  8.3808088302612305 29.4934577941894531
  9.7210683822631836  6.8065629005432129 32.5597839355468750
 11.0235567092895508  9.4298419952392578 29.4023895263671875
  9.2025594711303693  8.6361150741577148 30.9224090576171875
 17.9742946624755859  4.4149742126464844 34.7653961181640625
  0.5751266479492206 13.9700326919555664 35.1066436767578125
  8.5331077575683594  4.1523799896240234 34.8587455749511719
  8.9109411239624023 13.7244510650634766 34.8099822998046875
  4.2913146018981934  9.3046226501464826 34.9389381408691406
  4.5641173580661407 17.8291208744049072 34.7705116271972656
 13.9117912510409933 17.7008821666240692 35.2232894897460938
  0.1064912378787994  4.5104093551635742 40.6500205993652415
  0.2149645239114761 13.7942008972167969 40.7365493774414134
  8.9282712936401367  4.4108433723449707 40.6306152343750071
  8.9792804718017578 13.6659469604492188 40.6376304626464844
  4.4911189079284668  9.0163927078247070 40.6107292175292969
  4.5960888862609863  0.0081774815917015 40.5448722839355469
 13.5388278961181641  9.3789596557617188 40.6792793273925781
 13.5567840794101357 18.0331417284905946 40.5923576354980469
  9.0289716720581055  4.5156092643737793 46.4455223083496165
  9.0265130996704102 13.5470085144042969 46.4455223083496165
 18.0593719482421875  4.5156092643737793 46.4455223083496165
 18.0569133758544922 13.5470085144042969 46.4455223083496165
  4.5152091979980469  0.0000180629995157 46.4442062377929759
  4.5127501487731934  9.0314178466796857 46.4442062377929759
 13.5456094741821289  0.0000180629995157 46.4442062377929759
 13.5431499481201172  9.0314178466796857 46.4442062377929759
 12.7773618698120117  7.0194935798645020 31.0854949951171875
 11.7443990707397461  6.5627732276916495 31.9285316467285121
 12.4756088256835920  8.0452699661254883 30.1760883331298864
 10.4876184463500977  7.1431894302368164 31.8695869445800817
 11.2019901275634766  8.6095962524414062 30.1165065765380895
 10.2205505371093750  8.1639814376831055 30.9599323272705114
 13.7126426696777344  8.5892667770385742 33.4493484497070384
 12.4500675201416016 10.5142488479614258 34.4698944091796875
 14.1377420425415021  9.3584270477294922 35.8116302490234446
 14.8590641021728516 10.7334299087524414 33.8129653930664134
 15.0118837356567383  7.8902926445007324 33.1770629882812500
 14.8211965560913086  6.5047640800476065 32.5544204711914062
 11.8165979385375959 10.7956981658935547 33.1162338256835938
 13.2841672897338867  8.2439460754394531 36.3844108581542969
 15.5929880142211914 11.7362318038940430 34.6794090270996094
 14.1938066482543928  6.4767661094665527 31.1591491699218786
  1.0427742004394516  4.1905550956726074 35.3886451721191406
  0.9573631286621066 12.8523197174072248 35.6681365966796946
  9.7916984558105469  3.9051244258880615 35.1911621093750000
  8.9069175720214844 12.7649993896484375 35.6983871459960938
  7.8369851112365723  5.1656627655029288 35.3389205932617188
  8.5453519821166992 14.9525394439697266 35.0134086608886790
 16.8050231933593750  4.5492310523986816 35.3076896667480469
 17.6581993103027344 14.7318944931030273 35.5218658447265625
  4.2394328117370605  8.1192512512207031 35.4794425964355540
  3.2974118450656533 17.8899841457605397 35.1346893310546875
 12.6477779606357199 17.5969830751419067 35.4947471618652344
  5.5218501091003418  0.4431148171424866 35.3354606628417969
  5.0731110572814941 10.2747888565063477 35.3646469116211009
 14.6849327087402344  0.6107993721961974 35.6725692749023509
  1.0309085845947266  3.6251125335693359 41.0197982788085938
  0.9257289171218872 12.8317222595214844 41.3260650634765625
  9.8973274230957031  3.6720681190490718 41.1821670532226634
  9.7142505645751953 12.8948602676391602 41.4228172302246094
  3.6971139907836914  8.0834827423095703 41.0687828063964844
  3.7481972435489297 17.2678773403167725 41.1719779968261719
 12.7265892028808594  8.5844821929931641 41.3409385681152344
 12.6641363361850381 17.1940338611602783 41.0834579467773438
  8.2366371154785156  5.3167743682861328 41.2445983886718750
  8.0622844696044922 14.4844408035278303 41.0299530029296946
 17.3587639331817662  5.1432638168334961 41.4509124755859375
 17.2134823799133301 14.3704166412353516 41.2397460937500071
  5.3957362174987793  0.8510218858718871 41.0971832275390625
  5.2731552124023438  9.7824306488037109 41.3227157592773509
 14.2901830673217756  0.7873995304107665 41.2715301513671875
 14.7872619628906250  9.5752677917480469 40.9462242126464844
  0.8273094892501831  3.6869695186614990 47.0359649658203125
  0.8248501420021057 12.7183685302734375 47.0359649658203125
  9.8577098846435547  3.6869695186614990 47.0359649658203125
  9.8552503585815412 12.7183685302734375 47.0359649658203125
  3.6843190193176270  8.2023353576660156 47.0346527099609375
  3.6818594932556152 17.2337341308593750 47.0346527099609375
 12.7147188186645508  8.2023353576660156 47.0346527099609375
 12.7122592926025391 17.2337341308593750 47.0346527099609375
  8.2006769180297852  5.3445744514465332 47.0360260009765696
  8.1982173919677734 14.3759746551513672 47.0360260009765696
 17.2310771942138672  5.3445744514465332 47.0360260009765696
 17.2286186218261719 14.3759746551513672 47.0360260009765696
  5.3436489105224600  0.8290914893150328 47.0346527099609375
  5.3411893844604483  9.8604917526245117 47.0346527099609375
 14.3740482330322266  0.8290914893150328 47.0346527099609375
 14.3715896606445312  9.8604917526245117 47.0346527099609375
 13.7977886199951154  9.7965822219848633 34.4081115722656250
  9.0359029769897443  0.3302992582321167 34.5014495849609375
  8.7086782455444336  9.3151540756225586 34.7200431823730469
 17.9482098594307899  0.0609951652586460 34.5310211181640696
  0.6238623857498169  9.1066160202026367 34.5842781066894531
  4.4584860801696777  4.4335222244262695 34.4952278137207031
  4.5726041793823242 13.7646875381469727 34.5019531250000000
 13.4520788192749023  3.8545086383819580 34.8353843688964844
 12.7888193130493146 14.2790203094482422 34.2640380859375000
  0.1274223634973168 18.0393125470727682 40.9299697875976562
  0.2257936447858810  8.8506908416748047 40.9458236694335938
  9.0321998596191406  0.0859058722853661 40.9032058715820312
  9.1652784347534180  8.9010620117187500 40.9666557312011719
  4.5666866302490225  4.4361042976379395 40.9189910888671946
  4.4634785652160645 13.6467571258544922 40.9089622497558594
 13.4242992401123047  4.6205296516418448 40.9910964965820312
 13.5104331970214844 13.5888814926147443 40.8065834045410227
  2.5567982196807861  1.9820660352706909 37.9368553161621094
  2.5807430744171143 11.0365657806396484 38.2001533508300781
 11.6666679382324219  1.9387841224670410 38.1103553771972656
 11.2083921432495117 11.3698225021362305 38.4271965026855469
  6.4517927169799805  7.1220393180847168 38.1726570129394602
  6.6676001548767090 15.9947395324707031 38.0016632080078125
 15.9688282012939435  6.6942749023437500 38.3366432189941406
 15.5976791381835938 15.9593610763549787 38.1342697143554688
  2.0545628070831299  6.4269466400146484 38.0807189941406321
  2.2151381969451904 15.8212547302246076 38.0574798583984375
 10.5855436325073242  6.1853170394897452 37.8430595397949219
 11.0448722839355469 15.5844259262084961 38.1664657592773438
  6.9646706581115723  2.4040789604187012 37.9936485290527344
  6.8824853897094727 11.4396753311157227 38.3215446472168040
 16.0482826232910156  2.5609011650085449 38.3217124938964844
 16.4993476867675781 11.7720499038696289 38.5729598999023438
  0.0000000000000000  0.0000000000000000 47.1735610961914062
 -0.0024593239650130  9.0313997268676740 47.1735610961914062
  9.0304002761840803  0.0000000000000000 47.1735610961914062
  9.0279407501220685  9.0313997268676740 47.1735610961914062
  4.5139794349670410  4.5156998634338379 47.1742515563964844
  4.5115203857421875 13.5470991134643537 47.1742515563964844
 13.5443792343139648  4.5156998634338379 47.1742515563964844
 13.5419197082519531 13.5470991134643537 47.1742515563964844
  2.4519233703613277  2.0629522800445557 44.0401268005371165
  2.4494640827178955 11.0943517684936523 44.0401268005371165
 11.4823226928710920  2.0629522800445557 44.0401268005371165
 11.4798641204833984 11.0943517684936523 44.0401268005371165
  6.5760178565979004  6.9684472084045410 44.0401268005371165
  6.5735583305358887 15.9998464584350586 44.0401268005371165
 15.6064186096191406  6.9684472084045410 44.0401268005371165
 15.6039590835571289 15.9998464584350586 44.0401268005371165
  2.0610768795013428  6.5788145065307617 44.0400009155273509
  2.0586175918579102 15.6102142333984375 44.0400009155273509
 11.0914773941040039  6.5788145065307617 44.0400009155273509
 11.0890178680419922 15.6102142333984375 44.0400009155273509
  6.9668641090393066  2.4525938034057613 44.0400657653808665
  6.9644045829772949 11.4839935302734375 44.0400657653808665
 15.9972639083862305  2.4525938034057613 44.0400657653808665
 15.9948053359985352 11.4839935302734375 44.0400657653808665
  2.4316265583038330  2.0832188129425049 50.0684852600097656
  2.4291670322418213 11.1146183013915998 50.0684852600097656
 11.4620265960693359  2.0832188129425049 50.0684852600097656
 11.4595670700073224 11.1146183013915998 50.0684852600097656
  6.5963144302368164  6.9481806755065918 50.0684852600097656
  6.5938549041748047 15.9795799255371076 50.0684852600097656
 15.6267137527465803  6.9481806755065918 50.0684852600097656
 15.6242542266845703 15.9795799255371076 50.0684852600097656
  2.0811281204223633  6.5990090370178223 50.0690460205078125
  2.0786688327789307 15.6304082870483398 50.0690460205078125
 11.1115283966064453  6.5990090370178223 50.0690460205078125
 11.1090688705444336 15.6304082870483398 50.0690460205078125
  6.9468131065368652  2.4323906898498531 50.0690460205078125
  6.9443535804748535 11.4637899398803711 50.0690460205078125
 15.9772129058837891  2.4323906898498531 50.0690460205078125
 15.9747543334960938 11.4637899398803711 50.0690460205078125
 17.9370779618620872  0.0962241142988205 37.8444595336914062
  0.1166127771139145  9.1453161239624023 37.7589225769042969
  9.0922651290893555  0.1469164490699768 37.7371139526367188
  9.0057134628295898  9.0792217254638672 37.8064498901367188
  4.4947156906127930  4.5825109481811523 37.7765045166015625
  4.4548330307006836 13.6629562377929688 37.7303276062011719
 13.4604501724243164  4.6859207153320312 37.8947830200195312
 13.3585081100463849 13.6690044403076172 37.6296615600585938
  0.0000090280000222  0.0000090310004452 44.0429992675781250
 -0.0024502959568053  9.0314083099365234 44.0429992675781250
  9.0304088592529297  0.0000090310004452 44.0429992675781250
  9.0279493331909180  9.0314083099365234 44.0429992675781250
  4.5139703750610352  4.5156903266906738 44.0427513122558594
  4.5115113258361816 13.5470905303955078 44.0427513122558594
 13.5443706512451172  4.5156903266906738 44.0427513122558594
 13.5419111251831037 13.5470905303955078 44.0427513122558594
  0.0000000000000000  0.0000000000000000 50.4472808837890696
 -0.0024593239650130  9.0313997268676740 50.4472808837890696
  9.0304002761840803  0.0000000000000000 50.4472808837890696
  9.0279407501220685  9.0313997268676740 50.4472808837890696
  4.5139703750610352  4.5156998634338379 50.4472808837890696
  4.5115113258361816 13.5470991134643537 50.4472808837890696
 13.5443706512451172  4.5156998634338379 50.4472808837890696
 13.5419111251831055 13.5470991134643537 50.4472808837890696
