 H  C  N  I Pb 
 1.0000000000000000
    18.0608005523681641    0.0000000000000000    0.0000000000000000
    -0.0049186488613486   18.0627994537353516    0.0000000000000000
     0.0000000000000000    0.0000000000000000   62.4874992370605469
 H   C   N   I   Pb 
 143  39  47  72  24
Cartesian
  7.8465523719787589  5.0201950073242188 36.4902877807617188
  7.7309088706970215 14.0091934204101545 36.3117179870605469
 16.9922237396240234  5.3329977989196777 36.4897460937500000
 17.1638240814208984 14.5575132369995117 36.3481903076171946
  5.4910340309143066  0.9058185815811157 36.3798027038574219
  5.5258979797363272 10.2269659042358398 36.1128311157226562
 14.0362453460693359  1.1943879127502441 36.3701667785644531
  1.6336288452148453  3.1908745765686035 35.0152320861816406
  1.5927371978759750 12.2673807144165039 34.8949661254882812
 10.7816429138183594  3.3295338153839111 34.9599533081054688
 11.0088100433349609 12.9384584426879883 34.9398384094238281
  6.4787354469299316  0.8228444457054137 34.9074859619140625
  5.5231513977050781 10.7957286834716797 34.4430618286132812
 14.9811439514160156  1.4597760438919067 34.9020500183105469
  1.1848926544189458  3.9586315155029297 36.5549621582031321
  0.6588973999023445 12.5031499862670898 36.3435058593750071
  9.8410739898681641  3.4030025005340576 36.4667053222656321
  9.9968271255493164 12.7878189086914062 36.3573951721191406
  4.2917327880859375  8.0485906600952148 36.5276107788086009
  3.2913269260898228 17.7446278631687164 36.3335418701171875
 12.4624666431918740 17.2879013419151342 36.3564872741699290
  7.5060615539550781  5.7765741348266602 34.9475784301757812
  7.3843007087707520 14.8584671020507795 34.8339195251464844
 16.2307682037353516  5.2635884284973145 34.8960800170898509
 17.1411991119384766 15.4836883544921875 34.8667144775390625
  3.5512206554412842  7.2614154815673828 35.1299018859863281
  2.8727053860202432 16.9158487319946289 34.8238868713378906
 12.4564565876498818 16.2834039926528966 34.8839263916015625
  9.3303089141845703  4.7410445213317871 33.8323936462402344
  9.4064779281616211 14.2339448928832990 33.8174362182617188
 17.7805423736572266  3.8699116706848145 33.9147262573242188
  0.7310810089111344 14.1827850341796875 33.8293571472167969
  4.2949581146240234  8.9762125015258789 33.6692276000976562
  4.8948420742526650 17.5865729451179504 33.7978401184082031
 14.0351108768954873 17.6355515718460083 33.8389587402343750
  7.9221849441528311  5.2899909019470206 42.1235198974609375
  7.9205632209777823 14.6625947952270508 42.0403709411621094
 17.1493596434593236  5.3263764381408691 42.2766265869140696
 17.0150940418243408 14.4255971908569336 42.2645301818847656
  5.4391388893127433  0.9944550991058350 42.1212043762207102
  5.4177713394165039 10.0413246154785156 42.1877708435058594
 14.6155290603637695  0.8856192827224731 42.1773872375488281
 14.5528926849365234 10.0109758377075195 42.1345596313476634
  1.4916757345199585  3.0873222351074219 40.5030403137207031
  1.6027512550354004 12.4141712188720703 40.7361297607421875
 10.4676446914672852  3.1443302631378174 40.4679183959960938
 10.3102998733520508 12.0110940933227539 40.9847908020019531
  3.1348955631256104  7.5431342124938965 40.6693611145019602
  3.1138464668765664 16.5981254577636719 40.6420555114746094
 12.0047521591186506  7.4943928718566895 41.0353126525878906
 11.9720167377963662 16.8473840951919591 40.6215629577636790
  1.0297727584838867  3.4815008640289307 42.1241264343261719
  0.8904917240142822 12.6575288772583008 42.2958259582519602
  9.7836751937866211  3.4114921092987061 42.0502395629882812
  9.6967763900756836 12.7212371826171875 42.4500617980957031
  3.5925269126892085  8.1167774200439453 42.2582015991210938
  3.5783955315127969 17.1931962966918981 42.2213439941406321
 12.7065315246582013  8.0917739868164062 42.5213356018066477
 12.5384048679843527 17.2863795757293737 42.2171592712402344
  7.6272978782653800  5.9883913993835440 40.5786895751953125
  7.6685538291931143 15.0302677154540998 40.3572845458984375
 16.6226720809936559  5.8526611328124991 40.7113647460937571
 16.7030752897262573 15.1145191192626953 40.7134094238281321
  5.9474229812622070  1.4002192020416260 40.4884033203125000
  5.8979568481445312 10.4761219024658203 40.5771293640136719
 15.1237401962280273  1.3258818387985229 40.5601005554199219
 14.6995544433593750 10.4551954269409180 40.4597091674804759
 18.0428525283932686  4.5418367385864258 39.4950599670410156
  0.3146297633647919 13.9313974380493164 39.6492118835449219
  9.1799154281616211  4.7508769035339355 39.4225883483886719
  9.1687173843383789 13.3822765350341779 39.5790100097656250
  4.5349749783053994 17.9232418984174728 39.4661941528320312
  4.4844379425048828  8.9450492858886719 39.5049133300781250
 13.5156831741333008  0.0010770224034786 39.4774398803710938
 13.1831970214843750  8.9605436325073242 39.6689109802246094
  8.1032123565673828  5.4420318603515616 48.0459518432617259
  8.1007528305053711 14.4734306335449219 48.0459518432617259
 17.1336116790771484  5.4420318603515616 48.0459518432617259
 17.1311531066894531 14.4734306335449219 48.0459518432617259
  5.4410333633422852  0.9265221953392029 48.0449485778808594
  5.4385743141174316  9.9579219818115234 48.0449485778808594
 14.4714326858520490  0.9265221953392029 48.0449485778808594
 14.4689741134643555  9.9579219818115234 48.0449485778808594
  1.4218254089355467  3.0919990539550781 46.4558296203613281
  1.4193661212921143 12.1233978271484375 46.4558296203613281
 10.4522256851196289  3.0919990539550781 46.4558296203613281
 10.4497661590576172 12.1233978271484375 46.4558296203613281
  3.0899283885955806  7.6075901985168457 46.4545211791992188
  3.0874691009521484 16.6389904022216797 46.4545211791992188
 12.1203289031982422  7.6075901985168457 46.4545211791992188
 12.1178693771362305 16.6389904022216797 46.4545211791992188
  0.9247469902038573  3.5893490314483643 48.0459518432617259
  0.9222877025604248 12.6207475662231445 48.0459518432617259
  9.9551477432250977  3.5893490314483643 48.0459518432617259
  9.9526882171630859 12.6207475662231445 48.0459518432617259
  3.5868983268737793  8.1048498153686523 48.0448913574218821
  3.5844390392303462 17.1362495422363281 48.0448913574218821
 12.6172990798950195  8.1048498153686523 48.0448913574218821
 12.6148395538330078 17.1362495422363281 48.0448913574218821
  7.6061611175537109  5.9393639564514160 46.4558296203613281
  7.6037015914916992 14.9707632064819336 46.4558296203613281
 16.6365604400634766  5.9393639564514160 46.4558296203613281
 16.6341018676757812 14.9707632064819336 46.4558296203613281
  5.9380125999450684  1.4238001108169553 46.4545211791992188
  5.9355530738830566 10.4551992416381836 46.4545211791992188
 14.9684123992919904  1.4238001108169553 46.4545211791992188
 14.9659538269042951 10.4551992416381836 46.4545211791992188
 -0.0011664569610730  4.5157265663146973 45.3548011779785156
 -0.0036257810425013 13.5471258163452148 45.3548011779785156
  9.0292339324951172  4.5157265663146973 45.3548011779785156
  9.0267744064331037 13.5471258163452148 45.3548011779785156
  4.5152091979980469  0.0000000000000000 45.3536758422851562
  4.5127501487731934  9.0313997268676740 45.3536758422851562
 13.5456094741821289  0.0000000000000000 45.3536758422851562
 13.5431499481201172  9.0313997268676740 45.3536758422851562
 14.0171442031860352  9.3426094055175763 32.6634902954101634
 15.7079257965087891  9.3184490203857422 33.4422531127929688
 13.8330926895141584 11.3797559738159180 33.7879676818847656
 13.9220771789550781 11.4525737762451172 35.5241699218750000
 12.3066749572753906  8.3952856063842773 35.1621627807617188
 12.2003536224365234 10.1340732574462891 35.5479545593261719
 14.6158266067504883  7.7854285240173340 35.8549308776855540
 15.7552700042724609  9.1228752136230469 35.9317283630371165
 15.4884319305419904  7.0982542037963867 34.0953979492187500
 13.7388229370117188  6.9753360748291016 33.7859306335449219
 13.9907236099243164  7.0966434478759757 31.4746932983398473
 15.6379041671752912  7.7830705642700195 31.5417232513427770
 16.1773910522460938 11.4393901824951172 33.4679374694824219
 16.5774402618408203 11.0426235198974592 35.1430015563964915
 15.7934217453002930 12.6087675094604492 34.7254257202148438
 10.7606582641601562  9.6873664855957031 33.6051750183105469
 12.0652599334716797  8.8284826278686523 32.7280654907226634
 12.0974979400634766 10.6146392822265625 32.9317665100097656
 13.2225332260131836  8.6738252639770508 37.5863647460937571
 13.5822219848632812 10.3286952972412109 37.0274772644042969
 14.7182369232177734  9.5309429168701172 38.0832176208496165
 15.1350011825561523  4.9124979972839347 32.5591545104980540
 15.2148361206054688  5.2538585662841788 30.8113899230957031
 16.9529781341552734  3.3368039131164551 31.4730758666992188
 17.5209140777587891  7.5744848251342773 32.2245407104492188
  1.3389110565185538  3.0234990119934082 31.5934886932373047
  1.8289279937744121  7.2525663375854492 32.3897781372070312
  2.8631076812744123  4.9498038291931152 32.0548934936523438
 17.9293537139892578  4.2069244384765625 34.9897766113281321
  0.3625888824462907 13.8937034606933594 34.7995338439941477
  9.1174135208129883  4.5478076934814453 34.8853797912597727
  9.1659755706787109 13.8891010284423828 34.8208198547363352
  4.5405478477478027  9.0458669662475586 34.7367515563964844
  4.6654953220859170 17.9088566303253174 34.8184928894043040
 13.7067903736606223 17.9152867943048477 34.8469429016113281
  0.0154540520161390  4.4886465072631836 40.5828590393066406
  0.1087707281112671 13.7893915176391584 40.6823844909668040
  9.0361986160278320  4.5854792594909668 40.4672088623046875
  8.9913387298583984 13.5486183166503906 40.6315231323242188
  4.5360798835754395  9.0264787673950195 40.5767593383789062
  4.5292867878451935 18.0422483291476965 40.5247077941894531
 13.3448524475097656  8.9639968872070312 40.7448310852050781
 13.5686702728271467  0.0568507462739944 40.5485458374023438
  9.0289716720581055  4.5156092643737793 46.4455223083496165
  9.0265130996704102 13.5470085144042969 46.4455223083496165
 18.0593719482421875  4.5156092643737793 46.4455223083496165
 18.0569133758544922 13.5470085144042969 46.4455223083496165
  4.5152091979980469  0.0000180629995157 46.4442062377929759
  4.5127501487731934  9.0314178466796857 46.4442062377929759
 13.5456094741821289  0.0000180629995157 46.4442062377929759
 13.5431499481201172  9.0314178466796857 46.4442062377929759
 17.0183467864990234  5.5054769515991211 31.8284797668457067
 17.6086425781250000  4.1995797157287598 31.6264667510986293
 17.8895053863525391  6.5765032768249512 32.0027008056640625
  0.9255924224853519  4.0347309112548828 31.6870861053466797
  1.2294769287109404  6.3695640563964844 32.1176376342773438
  1.7854137420654295  5.1234817504882812 31.9854393005371129
 14.6710004806518555  8.9036960601806641 33.4704933166503977
 14.4047269821166992 11.0319242477416992 34.6581764221191406
 12.5481433868408203  9.4227809906005859 34.7786483764648438
 14.6870632171630859  8.8837184906005859 35.9510841369628977
 14.6658554077148438  7.4392638206481934 33.4487838745117188
 14.9726381301879883  6.9705386161804199 31.9853935241699254
 15.8270168304443359 11.5237131118774414 34.5009880065917969
 11.8537263870239240  9.6575212478637695 33.4376831054687571
 14.0076026916503888  9.3353900909423810 37.2465782165527344
 15.5464048385620117  5.6302862167358398 31.7911567687988281
  0.9555549621582036  3.7453639507293697 35.5709037780761719
  0.8877487182617231 12.8535890579223633 35.3822479248046946
  9.9224443435668945  3.6868028640747070 35.4850616455078196
 10.0918369293212891 13.1169042587280256 35.4067382812500000
  8.1137495040893555  5.1386647224426270 35.4577369689941406
  8.0408449172973633 14.2641506195068359 35.3236961364746094
 17.0004119873046875  4.9698863029479980 35.5151290893554688
 17.5363483428955078 14.6593046188354492 35.3683624267578125
  4.1042351722717285  8.0705108642578125 35.5485687255859375
  3.5519835213199258 17.5067948698997533 35.3985633850097656
 12.8145488956943154 17.1497322916984558 35.4317131042480469
  5.5768518447875968  0.5692703723907471 35.4425582885742188
  5.2211074829101562 10.0630464553833008 35.1631278991699219
 14.2668476104736328  0.8864584565162659 35.4478149414062500
  0.9172868132591248  3.6175408363342281 41.1116104125976634
  0.9285198450088501 12.8781108856201172 41.2963371276855469
  9.8297843933105451  3.6327698230743408 41.0413284301757812
  9.6874055862426740 12.7265453338623047 41.4175643920898438
  3.6986296176910400  8.1677799224853516 41.2062835693359375
  3.6812700489535928 17.2256913185119629 41.1704368591308665
 12.6811962127685547  8.1768026351928711 41.5150871276855469
 12.6246513584628683 17.3644479513168335 41.1670227050781250
  8.1683931350708008  5.3040914535522461 41.0854835510253906
  8.1596403121948242 14.4435663223266602 41.0231285095214844
 17.2723729610443151  5.2295866012573242 41.2467765808105469
 17.2406530380249023 14.4750490188598633 41.2874488830566477
  5.3611845970153800  0.8592622280120850 41.0790405273437500
  5.3090901374816886  9.8788528442382812 41.1372261047363281
 14.4738702774047852  0.7716249227523804 41.1179771423339844
 14.2648038864135742  9.8776321411132812 41.1567764282226562
  0.8273094892501831  3.6869695186614990 47.0359649658203125
  0.8248501420021057 12.7183685302734375 47.0359649658203125
  9.8577098846435547  3.6869695186614990 47.0359649658203125
  9.8552503585815412 12.7183685302734375 47.0359649658203125
  3.6843190193176270  8.2023353576660156 47.0346527099609375
  3.6818594932556152 17.2337341308593750 47.0346527099609375
 12.7147188186645508  8.2023353576660156 47.0346527099609375
 12.7122592926025391 17.2337341308593750 47.0346527099609375
  8.2006769180297852  5.3445744514465332 47.0360260009765696
  8.1982173919677734 14.3759746551513672 47.0360260009765696
 17.2310771942138672  5.3445744514465332 47.0360260009765696
 17.2286186218261719 14.3759746551513672 47.0360260009765696
  5.3436489105224600  0.8290914893150328 47.0346527099609375
  5.3411893844604483  9.8604917526245117 47.0346527099609375
 14.3740482330322266  0.8290914893150328 47.0346527099609375
 14.3715896606445312  9.8604917526245117 47.0346527099609375
 14.1140508651733398  9.5632438659667951 34.7322006225585938
  8.9589290618896484  0.0271946322172880 34.5103645324707031
  8.5180301666259766  8.6863870620727539 34.7138519287109375
 17.9640931934118271  0.0728482678532600 34.4294548034667969
  0.4394727349281310  8.9495973587036133 34.8920440673828196
  4.6719608306884766  4.4358773231506348 34.6362457275390625
  4.4311895370483398 13.7073841094970703 34.4578628540039062
 13.2958564758300781  4.1348381042480469 34.7082023620605469
 13.0766334533691406 14.0144109725952148 34.1522636413574219
  0.0881127715110779  0.0610245056450367 40.8869247436523509
  0.0842060744762421  9.0680303573608398 41.0295104980468821
  9.1158351898193359  0.0789587721228600 40.8768119812011719
  9.0535373687744141  9.0306472778320312 40.9612846374511719
  4.4664311408996582  4.4801545143127441 40.9458312988281321
  4.4677567481994629 13.5747957229614258 40.9037551879882812
 13.3868122100830060  4.5007357597351074 40.9857063293457031
 13.5160007476806641 13.7078943252563477 40.8144989013671946
  2.6307377815246578  1.8538246154785154 38.0593948364257812
  2.6887223720550537 10.9295349121093750 38.0593795776367188
 11.5749120712280273  1.9024276733398438 38.0685157775878977
 11.1567707061767578 11.4404211044311523 38.3857498168945312
  6.4391293525695801  7.0250878334045410 38.1855735778808665
  6.4409489631652832 16.1063594818115234 38.0221977233886719
 15.9311485290527326  6.6881604194641104 38.3757133483886719
 15.4452972412109375 16.1736145019531250 37.9775276184082031
  2.0134909152984619  6.3959693908691397 38.1253967285156321
  1.9537552595138550 15.5040721893310547 37.9821662902832031
 11.1113548278808594  6.5932526588439933 37.9169807434082031
 11.0019674301147461 15.5767688751220703 38.1263046264648438
  7.1139717102050781  2.5292103290557861 38.1247406005859375
  7.0021753311157227 11.6624135971069336 37.8805618286132812
 16.0960006713867188  2.4418163299560547 38.1108474731445312
 16.4573764801025391 11.9605875015258789 38.3426208496093750
  0.0000000000000000  0.0000000000000000 47.1735610961914062
 -0.0024593239650130  9.0313997268676740 47.1735610961914062
  9.0304002761840803  0.0000000000000000 47.1735610961914062
  9.0279407501220685  9.0313997268676740 47.1735610961914062
  4.5139794349670410  4.5156998634338379 47.1742515563964844
  4.5115203857421875 13.5470991134643537 47.1742515563964844
 13.5443792343139648  4.5156998634338379 47.1742515563964844
 13.5419197082519531 13.5470991134643537 47.1742515563964844
  2.4519233703613277  2.0629522800445557 44.0401268005371165
  2.4494640827178955 11.0943517684936523 44.0401268005371165
 11.4823226928710920  2.0629522800445557 44.0401268005371165
 11.4798641204833984 11.0943517684936523 44.0401268005371165
  6.5760178565979004  6.9684472084045410 44.0401268005371165
  6.5735583305358887 15.9998464584350586 44.0401268005371165
 15.6064186096191406  6.9684472084045410 44.0401268005371165
 15.6039590835571289 15.9998464584350586 44.0401268005371165
  2.0610768795013428  6.5788145065307617 44.0400009155273509
  2.0586175918579102 15.6102142333984375 44.0400009155273509
 11.0914773941040039  6.5788145065307617 44.0400009155273509
 11.0890178680419922 15.6102142333984375 44.0400009155273509
  6.9668641090393066  2.4525938034057613 44.0400657653808665
  6.9644045829772949 11.4839935302734375 44.0400657653808665
 15.9972639083862305  2.4525938034057613 44.0400657653808665
 15.9948053359985352 11.4839935302734375 44.0400657653808665
  2.4316265583038330  2.0832188129425049 50.0684852600097656
  2.4291670322418213 11.1146183013915998 50.0684852600097656
 11.4620265960693359  2.0832188129425049 50.0684852600097656
 11.4595670700073224 11.1146183013915998 50.0684852600097656
  6.5963144302368164  6.9481806755065918 50.0684852600097656
  6.5938549041748047 15.9795799255371076 50.0684852600097656
 15.6267137527465803  6.9481806755065918 50.0684852600097656
 15.6242542266845703 15.9795799255371076 50.0684852600097656
  2.0811281204223633  6.5990090370178223 50.0690460205078125
  2.0786688327789307 15.6304082870483398 50.0690460205078125
 11.1115283966064453  6.5990090370178223 50.0690460205078125
 11.1090688705444336 15.6304082870483398 50.0690460205078125
  6.9468131065368652  2.4323906898498531 50.0690460205078125
  6.9443535804748535 11.4637899398803711 50.0690460205078125
 15.9772129058837891  2.4323906898498531 50.0690460205078125
 15.9747543334960938 11.4637899398803711 50.0690460205078125
 18.0467869229614735  0.0510829649865627 37.6607437133789062
  0.1833772063255310  9.0857324600219727 37.9426460266113281
  9.0411329269409180  0.0284086354076862 37.6287689208984446
  9.0267086029052734  8.9719810485839844 37.7211761474609375
  4.6198363304138184  4.4766197204589844 37.7695007324218750
  4.5138139724731445 13.6538343429565430 37.7021026611328125
 13.5183372497558594  4.5375628471374512 37.8665924072265625
 13.5252008438110352 13.6946506500244123 37.7907447814941477
  0.0000090280000222  0.0000090310004452 44.0429992675781250
 -0.0024502959568053  9.0314083099365234 44.0429992675781250
  9.0304088592529297  0.0000090310004452 44.0429992675781250
  9.0279493331909180  9.0314083099365234 44.0429992675781250
  4.5139703750610352  4.5156903266906738 44.0427513122558594
  4.5115113258361816 13.5470905303955078 44.0427513122558594
 13.5443706512451172  4.5156903266906738 44.0427513122558594
 13.5419111251831037 13.5470905303955078 44.0427513122558594
  0.0000000000000000  0.0000000000000000 50.4472808837890696
 -0.0024593239650130  9.0313997268676740 50.4472808837890696
  9.0304002761840803  0.0000000000000000 50.4472808837890696
  9.0279407501220685  9.0313997268676740 50.4472808837890696
  4.5139703750610352  4.5156998634338379 50.4472808837890696
  4.5115113258361816 13.5470991134643537 50.4472808837890696
 13.5443706512451172  4.5156998634338379 50.4472808837890696
 13.5419111251831055 13.5470991134643537 50.4472808837890696
