 H  C  N  I Pb 
 1.0000000000000000
    18.0608005523681641    0.0000000000000000    0.0000000000000000
    -0.0049186488613486   18.0627994537353516    0.0000000000000000
     0.0000000000000000    0.0000000000000000   62.4874992370605469
 H   C   N   I   Pb 
 143  39  47  72  24
Cartesian
  7.6154074668884268  4.6549019813537598 36.2022209167480469
  7.4210190773010254 13.1689281463623029 35.9793243408203125
 16.7842979431152344  5.1391706466674805 36.3229866027832031
 16.9980392456054688 14.7080707550048828 36.1146583557128977
  5.7009587287902832  1.2005481719970703 36.0072402954101634
  5.5233569145202628 10.5064373016357422 35.8795585632324290
 14.3357267379760742  1.3846638202667234 36.2177124023437571
  1.9356822967529312  3.8289461135864258 35.3083190917968821
  1.4791431427001989 12.1708841323852539 35.4665985107421875
 10.9650564193725586  3.6024482250213623 35.2668800354003906
 10.9277162551879865 13.4653186798095703 35.1563606262207102
  6.7389659881591797  0.2309509813785553 35.0057678222656250
  4.7127795219421387 11.1771821975707990 34.4949378967285156
 15.6525144577026367  0.7935180664062500 35.2326927185058594
  1.1556644439697263  4.8103117942810059 36.5427780151367188
  0.0440349578857446 12.4654684066772443 36.4333152770996094
  9.5965032577514648  3.1813390254974365 36.3113975524902344
  9.7852811813354492 12.5149736404418928 36.2068405151367188
  5.0777535438537598  8.0930747985839844 36.3821105957031321
  3.2553710937500000  0.7019551992416382 35.8853111267089844
 12.2032279968261719  0.1643435508012771 36.0971946716308594
  7.7043523788452148  6.0137391090393066 35.0884628295898509
  7.0421304702758789 14.4267559051513672 34.8227043151855540
 15.9860134124755859  4.3526382446289062 34.9598884582519531
 17.7442455291748047 15.7576856613159180 34.9393653869628906
  3.9435756206512451  7.2628216743469238 35.3596229553222656
  2.7399532059207559 17.5338752269744873 34.7573623657226562
 12.1904367664828897 16.7774305343627930 35.0938415527343821
  9.8216152191162109  5.3822183609008789 34.2922058105468750
  9.3256435394287109 14.6625308990478516 34.1863517761230469
 17.9943199157714844  3.5200829505920410 34.1375007629394531
  1.3413352966308578 14.2089290618896467 34.3850593566894531
  3.5789542198181152  9.1720228195190430 34.0378303527832031
  4.9545063236728311 17.0861480236053467 34.0909957885742188
 14.3588651875033975 17.0734452009201050 34.4078521728515696
  7.9059882164001465  5.0839338302612296 42.2405204772949219
  7.7762279510498038 14.8349542617797852 41.9827575683593750
 17.6003980338573456  4.9329805374145499 42.6633186340332031
 16.8247157335281372 14.0157604217529297 42.1310806274414134
  5.3080615997314453  0.8272863626480103 42.3028869628906321
  5.4170727729797354  9.9689674377441406 42.1449851989746094
 14.3301048278808594  1.0258194208145142 42.2186546325683665
 14.6237468719482404  9.9058876037597656 42.2744712829589844
  1.5224298238754270  2.9956176280975342 40.2503776550293040
  1.8132057189941406 12.4736604690551758 40.8623847961425781
 10.5066795349121076  3.1498553752899165 40.5395202636718750
 10.1451530456542951 12.2209386825561523 40.9379158020019531
  3.2752156257629395  7.3606543540954590 40.6632118225097656
  3.0818833569064736 16.6639025211334229 40.3628768920898438
 12.0743217468261719  7.7832069396972656 40.6756019592285156
 12.0692276218906045 16.6748133897781408 40.5858154296875000
  1.3275457620620725  3.1626698970794678 41.9768524169921875
  0.6737091541290283 12.2839460372924805 42.1683197021484446
  9.6960697174072266  3.2368822097778320 42.0594940185546946
  9.4709186553955060 12.9433059692382812 42.3807983398437500
  3.8514986038208008  7.8685235977172843 42.2148666381835938
  3.3453129986301060 17.1286512613296509 42.0117645263671875
 12.8176403045654297  8.0198888778686523 42.2104454040527344
 12.4139026859775186 17.3023514151573181 42.1645698547363352
  7.7250943183898926  6.0247154235839844 40.7892761230468750
  7.5129060745239258 15.1772394180297852 40.2956466674804759
 16.8425385951995885  5.7275710105895996 41.3010406494140625
 16.8946915864944494 15.1348161697387695 40.7914161682128906
  6.0917272567749023  1.2466213703155515 40.8335952758789062
  5.6310377120971680 10.6081571578979492 40.5663452148437500
 15.0222015380859375  1.3276784420013428 40.6709403991699219
 14.8378190994262695 10.7472381591796875 40.7374954223632884
 18.0326376855373418  4.5693964958190909 39.7005653381347656
  0.7385205030441284 14.2299270629882812 39.8966865539550852
  9.3361692428588867  4.8922343254089355 39.6188240051269531
  8.9741668701171875 13.5752077102661133 39.5191650390625000
  4.7452725628390908 17.9699175059795380 39.5172500610351562
  4.3268966674804688  9.0201530456542969 39.5086288452148509
 13.6585745075717568 17.9119119197130203 39.5331459045410227
 13.2413692474365234  9.4797134399414062 39.6236686706542969
  8.1032123565673828  5.4420318603515616 48.0459518432617259
  8.1007528305053711 14.4734306335449219 48.0459518432617259
 17.1336116790771484  5.4420318603515616 48.0459518432617259
 17.1311531066894531 14.4734306335449219 48.0459518432617259
  5.4410333633422852  0.9265221953392029 48.0449485778808594
  5.4385743141174316  9.9579219818115234 48.0449485778808594
 14.4714326858520490  0.9265221953392029 48.0449485778808594
 14.4689741134643555  9.9579219818115234 48.0449485778808594
  1.4218254089355467  3.0919990539550781 46.4558296203613281
  1.4193661212921143 12.1233978271484375 46.4558296203613281
 10.4522256851196289  3.0919990539550781 46.4558296203613281
 10.4497661590576172 12.1233978271484375 46.4558296203613281
  3.0899283885955806  7.6075901985168457 46.4545211791992188
  3.0874691009521484 16.6389904022216797 46.4545211791992188
 12.1203289031982422  7.6075901985168457 46.4545211791992188
 12.1178693771362305 16.6389904022216797 46.4545211791992188
  0.9247469902038573  3.5893490314483643 48.0459518432617259
  0.9222877025604248 12.6207475662231445 48.0459518432617259
  9.9551477432250977  3.5893490314483643 48.0459518432617259
  9.9526882171630859 12.6207475662231445 48.0459518432617259
  3.5868983268737793  8.1048498153686523 48.0448913574218821
  3.5844390392303462 17.1362495422363281 48.0448913574218821
 12.6172990798950195  8.1048498153686523 48.0448913574218821
 12.6148395538330078 17.1362495422363281 48.0448913574218821
  7.6061611175537109  5.9393639564514160 46.4558296203613281
  7.6037015914916992 14.9707632064819336 46.4558296203613281
 16.6365604400634766  5.9393639564514160 46.4558296203613281
 16.6341018676757812 14.9707632064819336 46.4558296203613281
  5.9380125999450684  1.4238001108169553 46.4545211791992188
  5.9355530738830566 10.4551992416381836 46.4545211791992188
 14.9684123992919904  1.4238001108169553 46.4545211791992188
 14.9659538269042951 10.4551992416381836 46.4545211791992188
 -0.0011664569610730  4.5157265663146973 45.3548011779785156
 -0.0036257810425013 13.5471258163452148 45.3548011779785156
  9.0292339324951172  4.5157265663146973 45.3548011779785156
  9.0267744064331037 13.5471258163452148 45.3548011779785156
  4.5152091979980469  0.0000000000000000 45.3536758422851562
  4.5127501487731934  9.0313997268676740 45.3536758422851562
 13.5456094741821289  0.0000000000000000 45.3536758422851562
 13.5431499481201172  9.0313997268676740 45.3536758422851562
 14.2511739730834961  9.1913919448852539 32.3298683166503906
 15.7490501403808594  9.1224431991577148 33.2512359619140696
 13.5861768722534180 11.3143329620361328 33.6022987365722656
 13.8594369888305664 11.2893075942993164 35.3327636718750000
 12.2932920455932617  8.1856727600097656 34.7384643554687500
 12.0798254013061523  9.8940973281860352 35.1414985656738352
 14.4165925979614240  7.7537336349487305 35.6206932067871094
 15.5987596511840820  9.0462427139282209 35.6554832458496094
 15.5554485321044922  6.8507065773010254 33.8071784973144531
 13.8316545486450195  6.7691388130187988 33.5111808776855469
 14.0603027343750000  6.8400392532348633 31.1799507141113281
 15.6721668243408203  7.5573873519897461 31.1730537414550817
 16.1263561248779297 11.0328397750854492 33.2743034362792969
 16.2937297821044922 11.0172681808471680 35.0571861267089915
 15.6703748703002930 12.4446077346801758 34.2294616699218821
 10.7632722854614258  9.4194650650024414 33.1849021911621094
 12.1242647171020508  8.7536935806274414 32.2634391784667969
 12.0415973663330078 10.4843378067016602 32.6571426391601634
 12.9758176803588849  8.7477741241455078 37.2282295227050781
 13.6335830688476562 10.3951492309570312 37.0125274658203196
 14.6118698120117188  9.1361284255981445 37.8188362121582102
 15.0468397140502930  4.7274470329284668 32.2683753967285227
 15.3148756027221680  5.0238161087036133 30.5797615051269531
 16.9169750213623047  3.0992608070373531 31.3434352874755895
 17.5831031799316406  7.2638354301452637 32.1918601989746094
  1.2830429077148469  2.6785449981689453 31.4858188629150426
  1.9505481719970699  6.8334221839904785 32.3444137573242188
  2.8448333740234388  4.5629005432128906 32.0016822814941477
 18.0024166107177734  4.1041073799133301 35.0633010864257812
  0.5835189819335934 13.9454603195190430 35.0921211242675781
  9.3206300735473633  4.7901329994201651 35.0619430541992188
  9.0022602081298828 13.9188833236694336 34.9192695617675781
  4.2821903228759766  9.2228584289550781 34.8765792846679759
  4.7524298885837197 17.8835459649562836 34.8218765258789062
 13.9176849583163840 17.8009653091430664 35.1060752868652415
  0.1409507095813751  4.3733949661254883 40.7602882385253977
  0.3053257763385773 13.8086643218994141 40.7998886108398509
  9.1171588897705078  4.6071157455444336 40.6247901916503977
  8.8262510299682617 13.7137708663940430 40.5892257690429759
  4.4615898132324219  8.9948072433471680 40.5816192626953125
  4.5853971699252725 17.9847405403852463 40.5818939208984375
 13.4457817077636701  9.2626628875732422 40.6858749389648438
 13.5630287388339639 18.0374778211116791 40.6030006408691406
  9.0289716720581055  4.5156092643737793 46.4455223083496165
  9.0265130996704102 13.5470085144042969 46.4455223083496165
 18.0593719482421875  4.5156092643737793 46.4455223083496165
 18.0569133758544922 13.5470085144042969 46.4455223083496165
  4.5152091979980469  0.0000180629995157 46.4442062377929759
  4.5127501487731934  9.0314178466796857 46.4442062377929759
 13.5456094741821289  0.0000180629995157 46.4442062377929759
 13.5431499481201172  9.0314178466796857 46.4442062377929759
 17.0516853332519531  5.2277202606201172 31.7450733184814489
 17.5987758636474609  3.9226999282836914 31.5675163269042969
 17.9402084350585938  6.2475919723510742 32.0428581237792969
  0.9126300811767600  3.6870613098144531 31.6270370483398438
  1.2682495117187496  6.0112833976745605 32.1332473754882812
  1.7751007080078114  4.7412490844726562 31.9114704132080078
 14.7146949768066406  8.7517042160034180 33.2394447326660227
 14.2469358444213849 10.9153938293457013 34.3752365112304688
 12.4823045730590820  9.2121515274047852 34.3779602050781250
 14.5280933380126935  8.8460950851440430 35.7025527954101562
 14.7608804702758789  7.2576742172241211 33.1748275756835938
 15.0156602859497053  6.8166303634643555 31.7235546112060547
 15.6771841049194336 11.3494253158569336 34.2145309448242188
 11.8423414230346680  9.4757089614868146 33.0317077636718750
 13.8852758407592756  9.3213138580322266 37.0010261535644531
 15.5730772018432617  5.4072332382202148 31.5761013031005895
  1.0790195465087904  4.1911578178405762 35.7116012573242259
  0.6990203857421888 12.7808437347412109 35.6874198913574219
  9.9724130630493164  3.7450397014617920 35.5428581237792969
  9.9524288177490234 13.1538486480712891 35.4048614501953125
  8.1416578292846680  5.1675124168395996 35.4575309753417969
  7.7514786720275879 13.8561277389526367 35.2738418579101562
 16.8528785705566406  4.5985522270202637 35.4541740417480469
 17.6934490203857422 14.8160610198974609 35.3519821166992188
  4.4342923164367676  8.1376380920410156 35.6092643737792969
  3.5143787860870361  0.0112740322947502 35.1948547363281250
 12.6549944141879678 17.6445206999778748 35.4174766540527344
  5.7707715034484863  0.4999445974826813 35.2892913818359375
  4.8783745765686035 10.3492002487182617 35.1145324707031250
 14.6658773422241211  0.7089931964874268 35.5598030090332031
  1.0571238994598389  3.4453608989715576 41.0239868164062571
  0.9738763570785522 12.7810792922973633 41.3277816772460938
  9.8184480667114258  3.5941326618194580 41.1160507202148438
  9.5352191925048828 12.9277276992797852 41.3670234680175781
  3.8320374488830566  8.0215568542480469 41.2028884887695312
  3.6241549709811807 17.2286083698272741 41.0292778015136719
 12.7587642669677717  8.3142127990722656 41.2476692199707031
 12.6365503529086709 17.2948797345161438 41.1657638549804688
  8.2015876770019531  5.2664613723754874 41.2586746215820384
  8.0030422210693359 14.6236581802368164 40.9943428039550852
 17.5207067728042603  5.0391359329223633 41.6417655944824219
 17.2674540281295812 14.3270111083984375 41.2846031188964915
  5.3697757720947257  0.7001062631607056 41.2965507507324290
  5.2049336433410645  9.8940238952636719 41.1365966796875000
 14.3466453552246076  0.8109186291694641 41.2084999084472656
 14.3636178970336896 10.0120382308959943 41.2834243774414062
  0.8273094892501831  3.6869695186614990 47.0359649658203125
  0.8248501420021057 12.7183685302734375 47.0359649658203125
  9.8577098846435547  3.6869695186614990 47.0359649658203125
  9.8552503585815412 12.7183685302734375 47.0359649658203125
  3.6843190193176270  8.2023353576660156 47.0346527099609375
  3.6818594932556152 17.2337341308593750 47.0346527099609375
 12.7147188186645508  8.2023353576660156 47.0346527099609375
 12.7122592926025391 17.2337341308593750 47.0346527099609375
  8.2006769180297852  5.3445744514465332 47.0360260009765696
  8.1982173919677734 14.3759746551513672 47.0360260009765696
 17.2310771942138672  5.3445744514465332 47.0360260009765696
 17.2286186218261719 14.3759746551513672 47.0360260009765696
  5.3436489105224600  0.8290914893150328 47.0346527099609375
  5.3411893844604483  9.8604917526245117 47.0346527099609375
 14.3740482330322266  0.8290914893150328 47.0346527099609375
 14.3715896606445312  9.8604917526245117 47.0346527099609375
 13.9915418624877930  9.4275350570678711 34.4153594970703125
  9.1010717609897256 17.7357045412063599 34.6344833374023509
  8.2166767120361328  8.6483659744262695 34.6372413635253906
 18.0508898794651031  0.2151834517717361 34.4928092956542969
  0.6612462997436523  8.8807306289672852 34.8176994323730469
  4.4237504005432129  4.4447541236877441 34.7485466003417969
  4.2168817520141602 13.9236087799072266 34.4640922546386719
 13.4484872817993164  4.0679502487182617 34.6595993041992188
 12.9123439788818359 14.3055229187011701 34.1074180603027415
  0.0207084575667977 17.9815929681062734 40.9211502075195312
  0.0493170395493507  9.0984973907470703 40.9875831604003977
  8.9766225814819336  0.1124618947505951 40.9170303344726562
  8.9982109069824219  9.0553283691406250 40.9183464050292969
  4.6182274818420401  4.3149867057800293 40.9877586364746165
  4.4866256713867188 13.5811548233032227 40.8909339904785156
 13.4005661010742188  4.6017355918884277 40.9750823974609446
 13.6288337707519531 13.6212205886840820 40.8480758666992188
  2.6054940223693848  1.9024937152862549 38.1090202331542969
  2.6505479812622070 10.9645957946777344 38.1173782348632812
 11.6806030273437500  1.9189076423645020 38.1262893676757812
 11.0196409225463849 11.5544004440307617 38.3950691223144531
  6.5445704460144043  7.0023117065429679 38.2991790771484375
  6.5179181098937988 16.0297641754150391 37.9683074951171875
 16.0811824798583984  6.5182266235351562 38.5020637512207031
 15.5891876220703125 16.0478630065917969 38.0192260742187500
  2.1256630420684814  6.5497870445251465 38.3431625366210938
  2.1300127506256104 15.7985801696777344 38.0227622985839844
 11.1375808715820312  6.6789288520812988 37.8907928466796875
 11.2082519531250000 15.6566658020019513 38.3175506591796875
  7.1503911018371582  2.5383815765380859 37.9658660888671875
  6.8762474060058594 11.5130643844604492 37.9205322265625000
 16.0199451446533203  2.4698917865753169 38.3307304382324219
 16.5134220123291016 11.9904994964599609 38.3732109069824219
  0.0000000000000000  0.0000000000000000 47.1735610961914062
 -0.0024593239650130  9.0313997268676740 47.1735610961914062
  9.0304002761840803  0.0000000000000000 47.1735610961914062
  9.0279407501220685  9.0313997268676740 47.1735610961914062
  4.5139794349670410  4.5156998634338379 47.1742515563964844
  4.5115203857421875 13.5470991134643537 47.1742515563964844
 13.5443792343139648  4.5156998634338379 47.1742515563964844
 13.5419197082519531 13.5470991134643537 47.1742515563964844
  2.4519233703613277  2.0629522800445557 44.0401268005371165
  2.4494640827178955 11.0943517684936523 44.0401268005371165
 11.4823226928710920  2.0629522800445557 44.0401268005371165
 11.4798641204833984 11.0943517684936523 44.0401268005371165
  6.5760178565979004  6.9684472084045410 44.0401268005371165
  6.5735583305358887 15.9998464584350586 44.0401268005371165
 15.6064186096191406  6.9684472084045410 44.0401268005371165
 15.6039590835571289 15.9998464584350586 44.0401268005371165
  2.0610768795013428  6.5788145065307617 44.0400009155273509
  2.0586175918579102 15.6102142333984375 44.0400009155273509
 11.0914773941040039  6.5788145065307617 44.0400009155273509
 11.0890178680419922 15.6102142333984375 44.0400009155273509
  6.9668641090393066  2.4525938034057613 44.0400657653808665
  6.9644045829772949 11.4839935302734375 44.0400657653808665
 15.9972639083862305  2.4525938034057613 44.0400657653808665
 15.9948053359985352 11.4839935302734375 44.0400657653808665
  2.4316265583038330  2.0832188129425049 50.0684852600097656
  2.4291670322418213 11.1146183013915998 50.0684852600097656
 11.4620265960693359  2.0832188129425049 50.0684852600097656
 11.4595670700073224 11.1146183013915998 50.0684852600097656
  6.5963144302368164  6.9481806755065918 50.0684852600097656
  6.5938549041748047 15.9795799255371076 50.0684852600097656
 15.6267137527465803  6.9481806755065918 50.0684852600097656
 15.6242542266845703 15.9795799255371076 50.0684852600097656
  2.0811281204223633  6.5990090370178223 50.0690460205078125
  2.0786688327789307 15.6304082870483398 50.0690460205078125
 11.1115283966064453  6.5990090370178223 50.0690460205078125
 11.1090688705444336 15.6304082870483398 50.0690460205078125
  6.9468131065368652  2.4323906898498531 50.0690460205078125
  6.9443535804748535 11.4637899398803711 50.0690460205078125
 15.9772129058837891  2.4323906898498531 50.0690460205078125
 15.9747543334960938 11.4637899398803711 50.0690460205078125
 17.9857289865612984  0.1265492737293243 37.7994041442871094
  0.1547996997833252  9.1070203781127930 37.8645515441894531
  9.0980133274570107 17.9697854220867157 37.7711448669433594
  8.9369907379150391  9.0348472595214844 37.6704330444335938
  4.5638146400451660  4.4955515861511230 37.8638687133789134
  4.3744091987609863 13.6865272521972638 37.7257347106933594
 13.5658187866210938  4.6288795471191406 37.8810844421386719
 13.5234556198120117 13.6452245712280273 37.8064804077148438
  0.0000090280000222  0.0000090310004452 44.0429992675781250
 -0.0024502959568053  9.0314083099365234 44.0429992675781250
  9.0304088592529297  0.0000090310004452 44.0429992675781250
  9.0279493331909180  9.0314083099365234 44.0429992675781250
  4.5139703750610352  4.5156903266906738 44.0427513122558594
  4.5115113258361816 13.5470905303955078 44.0427513122558594
 13.5443706512451172  4.5156903266906738 44.0427513122558594
 13.5419111251831037 13.5470905303955078 44.0427513122558594
  0.0000000000000000  0.0000000000000000 50.4472808837890696
 -0.0024593239650130  9.0313997268676740 50.4472808837890696
  9.0304002761840803  0.0000000000000000 50.4472808837890696
  9.0279407501220685  9.0313997268676740 50.4472808837890696
  4.5139703750610352  4.5156998634338379 50.4472808837890696
  4.5115113258361816 13.5470991134643537 50.4472808837890696
 13.5443706512451172  4.5156998634338379 50.4472808837890696
 13.5419111251831055 13.5470991134643537 50.4472808837890696
