 H  C  N  I Pb 
 1.0000000000000000
    18.0608005523681641    0.0000000000000000    0.0000000000000000
    -0.0049186488613486   18.0627994537353516    0.0000000000000000
     0.0000000000000000    0.0000000000000000   62.4874992370605469
 H   C   N   I   Pb 
 143  39  47  72  24
Cartesian
  8.0215225219726562  5.9623241424560547 35.4579811096191477
  7.6024875640869132 14.9902133941650391 35.5285377502441406
 17.3681983947753906  5.8264441490173340 36.0948753356933665
 17.1114654541015625 14.7155370712280273 35.8920021057128906
  5.8578085163608193 17.2064070105552673 35.8364067077636719
  6.2398238182067871 10.1135959625244123 35.2891502380371165
 14.5200128555297852  1.4859858751296997 35.7568283081054688
  0.2761192321777325  2.5190057754516602 35.0481986999511719
  1.1646785736083998 11.8089857101440430 35.5224800109863352
 10.1043300628662109  3.1013073921203613 34.6722564697265625
  9.0718870162963849 11.7071752548217773 35.1487693786621094
  6.5696983337402344  0.3668962121009827 34.8334732055664062
  5.1955852508544922 11.3880987167358398 34.6829299926757812
 15.7803735733032227  0.4098736345767975 35.1795806884765696
 17.4241180419921875  3.3563981056213374 36.2265129089355540
 17.9162845611572266 12.4373292922973615 36.4776611328125071
 10.1511354446411115  4.6611666679382324 35.4784469604492259
  7.8117399215698242 12.5489625930786133 35.9734191894531250
  5.1367230415344238  7.9215950965881348 35.7977714538574219
  3.4385968903079625 16.8028420209884644 35.6439476013183594
 12.1999511718750000  0.5951353311538696 35.6597518920898438
  6.6513881683349609  5.1606793403625488 34.7197914123535156
  8.8326616287231445 15.7226667404174805 34.5513496398925781
  0.3314952850341786  6.6034808158874512 34.9091949462890625
 18.0052375793457031 15.5805616378784162 34.6752166748046875
  3.4925820827484131  7.7686171531677246 35.2772216796875000
  2.5076307514682412 17.8982816636562347 34.6876220703125000
 12.0259670475497824 17.0328031778335571 35.0625724792480469
  7.8744993209838867  3.3111538887023921 34.1022758483886790
  9.9334421157836914 13.6823711395263672 34.2070846557617259
  1.0579967498779295  4.5097861289978027 34.0442352294921946
  1.4235248565673835 13.7805471420288086 34.2985267639160156
  3.3569948673248287  9.9394712448120117 34.5364608764648438
  4.4342055320739746  1.0495560169219971 34.0387001037597656
 14.2622379520907998 16.7778375148773193 34.6684417724609375
  8.7531137466430664  6.0951843261718750 41.6475143432617188
  8.0265846252441406 14.6834735870361328 42.1022567749023509
 17.4659320712089539  5.0744748115539551 42.3806457519531321
 16.7152601480484044 13.1099529266357422 42.0596389770507812
  5.6007962226867667  0.9435274004936218 41.9413414001464915
  5.4123902320861816  9.9516105651855469 42.1817550659179688
 14.3749589920043945  1.0780057907104492 42.1872482299804688
 13.6031684875488281 10.7868452072143555 41.3704681396484375
  1.5187053680419922  2.9439673423767090 40.3000946044921875
  1.9888563156127927 13.0042972564697266 40.6518096923828196
 10.4789228439331055  3.0910861492156982 40.5512466430664062
 10.1718072891235352 12.0413532257080078 40.6956100463867188
  3.2773232460021973  7.4837532043457022 40.5067405700683594
  3.1355871418491001 16.6561998128890991 40.5310554504394531
 12.8475847244262695  7.2208485603332520 41.3540458679199219
 12.2095207432284951 16.6535519361495972 40.5766868591308594
  1.1458840370178223  3.2065761089324947 41.9816322326660156
  1.0163224935531616 12.2226934432983398 41.8382987976074219
 10.7787408828735352  4.6423745155334473 41.2475128173828125
  9.5673580169677734 12.6047353744506818 42.2404174804687571
  3.6078841686248775  8.0639400482177734 42.1078681945800781
  3.7161082485690713 17.1659317612648010 42.0786933898925852
 12.1548366546630859  8.7708549499511719 41.7944107055664062
 12.4883169392123818 17.3385579586029053 42.1469459533691406
  7.2182464599609366  5.3616418838500977 41.2434234619140625
  7.7706704139709473 15.2663965225219727 40.4860725402832031
 16.9150853157043457  5.8839721679687491 40.9452438354492188
 16.2832611799240112 14.3861875534057617 40.9511299133300781
  6.0078940391540527  1.3967726230621338 40.3198318481445312
  6.0136771202087402 10.4079370498657227 40.6160583496093750
 15.0968637466430646  1.3847119808197021 40.6486549377441406
 15.1089611053466797 10.4863767623901367 40.5483245849609375
  0.1343209892511368  4.6109352111816406 39.5259780883789134
  0.3155411481857300 14.4441719055175781 39.9621124267578125
  8.1819896697998047  3.4362161159515376 40.4261779785156250
  9.0971250534057617 13.6549854278564435 39.4881439208984375
  4.5051092365756631 18.0391704328358173 39.3166618347168040
  4.7264933586120597  8.8930644989013672 39.4528312683105469
 13.8333982685580850 17.8953663706779516 39.5211982727050852
 14.7518157958984357  8.1722478866577148 40.4385490417480540
  8.1032123565673828  5.4420318603515616 48.0459518432617259
  8.1007528305053711 14.4734306335449219 48.0459518432617259
 17.1336116790771484  5.4420318603515616 48.0459518432617259
 17.1311531066894531 14.4734306335449219 48.0459518432617259
  5.4410333633422852  0.9265221953392029 48.0449485778808594
  5.4385743141174316  9.9579219818115234 48.0449485778808594
 14.4714326858520490  0.9265221953392029 48.0449485778808594
 14.4689741134643555  9.9579219818115234 48.0449485778808594
  1.4218254089355467  3.0919990539550781 46.4558296203613281
  1.4193661212921143 12.1233978271484375 46.4558296203613281
 10.4522256851196289  3.0919990539550781 46.4558296203613281
 10.4497661590576172 12.1233978271484375 46.4558296203613281
  3.0899283885955806  7.6075901985168457 46.4545211791992188
  3.0874691009521484 16.6389904022216797 46.4545211791992188
 12.1203289031982422  7.6075901985168457 46.4545211791992188
 12.1178693771362305 16.6389904022216797 46.4545211791992188
  0.9247469902038573  3.5893490314483643 48.0459518432617259
  0.9222877025604248 12.6207475662231445 48.0459518432617259
  9.9551477432250977  3.5893490314483643 48.0459518432617259
  9.9526882171630859 12.6207475662231445 48.0459518432617259
  3.5868983268737793  8.1048498153686523 48.0448913574218821
  3.5844390392303462 17.1362495422363281 48.0448913574218821
 12.6172990798950195  8.1048498153686523 48.0448913574218821
 12.6148395538330078 17.1362495422363281 48.0448913574218821
  7.6061611175537109  5.9393639564514160 46.4558296203613281
  7.6037015914916992 14.9707632064819336 46.4558296203613281
 16.6365604400634766  5.9393639564514160 46.4558296203613281
 16.6341018676757812 14.9707632064819336 46.4558296203613281
  5.9380125999450684  1.4238001108169553 46.4545211791992188
  5.9355530738830566 10.4551992416381836 46.4545211791992188
 14.9684123992919904  1.4238001108169553 46.4545211791992188
 14.9659538269042951 10.4551992416381836 46.4545211791992188
 -0.0011664569610730  4.5157265663146973 45.3548011779785156
 -0.0036257810425013 13.5471258163452148 45.3548011779785156
  9.0292339324951172  4.5157265663146973 45.3548011779785156
  9.0267744064331037 13.5471258163452148 45.3548011779785156
  4.5152091979980469  0.0000000000000000 45.3536758422851562
  4.5127501487731934  9.0313997268676740 45.3536758422851562
 13.5456094741821289  0.0000000000000000 45.3536758422851562
 13.5431499481201172  9.0313997268676740 45.3536758422851562
 14.0101613998413086 10.0361623764038086 32.4759559631347656
 13.0259952545166016  8.6217451095581055 32.8321762084961009
 15.7119579315185529  9.0535993576049805 33.7902030944824219
 15.4695940017700195  8.7030591964721680 35.4945144653320312
 13.4159765243530256 11.5785408020019531 34.9793739318847656
 14.5914697647094709 10.7927846908569336 36.0579376220703125
 12.0320711135864240  9.9167346954345703 35.5987625122070312
 12.2402400970458984  8.2690868377685547 35.0335960388183594
 11.1218996047973633 10.0371332168579102 33.5933341979980469
 12.1326227188110352 11.4869375228881836 33.4581489562988352
 10.9431514739990234 11.6484632492065430 31.5015964508056641
 12.4003496170043945 10.8586683273315430 30.9128227233886754
 14.2239274978637678  7.0812044143676758 33.1585922241210938
 14.0610466003417969  6.6635842323303223 34.8829765319824219
 15.6422462463378906  6.6542525291442871 34.0951309204101562
 15.5926008224487305 12.5498828887939453 34.6933670043945312
 15.2514467239379865 11.6922388076782227 33.2001953125000071
 16.4020061492919922 11.0038623809814453 34.3923072814941406
 13.7426042556762695  9.5587320327758789 37.4179496765136719
 13.9827594757080060  7.8821806907653809 36.8709030151367188
 12.4148645401000977  8.4065170288085938 37.4880447387695384
  9.6616430282592773  9.5748109817504883 31.4559745788574219
 10.4328699111938477  9.8975000381469727 29.9084377288818359
 12.5801839828491211  8.6133060455322266 29.2688388824462891
 10.1303043365478516  7.5322799682617179 32.6551208496093750
 13.7644548416137695  6.4339122772216797 29.4541778564453125
 11.3428258895874023  5.3777890205383301 32.8422393798828125
 13.1678199768066406  4.8251233100891104 31.2702102661132812
  0.3602581024169929  4.5600681304931632 34.8829307556152344
  0.6197032928466777 13.6947908401489258 35.0237464904785156
  8.3661260604858398  4.1301426887512207 34.6082916259765696
  9.0066337585449219 13.7082891464233398 34.7819290161132812
  4.3152055740356445  9.5730476379394531 34.9033851623535156
  4.5302085876464835  0.1864030361175537 34.6982307434082031
 13.9092516163364035 17.7237807214260101 35.0794181823730469
  0.1834301799535751  4.4173817634582520 40.5913619995117259
  0.1103188693523407 13.7286949157714844 40.7532691955566406
  8.8158683776855469  4.2086234092712402 40.8387985229492188
  8.9763431549072266 13.6543865203857422 40.5602836608886719
  4.6419053077697745  8.9356393814086914 40.5377502441406250
  4.5698742130771270 18.0622592875733972 40.4000549316406250
 14.0088415145874023  8.8224620819091797 40.9093170166015696
 13.6660742023959756 18.0440132804214954 40.5819664001464844
  9.0289716720581055  4.5156092643737793 46.4455223083496165
  9.0265130996704102 13.5470085144042969 46.4455223083496165
 18.0593719482421875  4.5156092643737793 46.4455223083496165
 18.0569133758544922 13.5470085144042969 46.4455223083496165
  4.5152091979980469  0.0000180629995157 46.4442062377929759
  4.5127501487731934  9.0314178466796857 46.4442062377929759
 13.5456094741821289  0.0000180629995157 46.4442062377929759
 13.5431499481201172  9.0314178466796857 46.4442062377929759
 11.2747268676757812  8.2338247299194336 30.9715366363525391
 12.2932071685791016  7.8992714881896973 30.0661487579345703
 10.9229755401611328  7.3029799461364746 31.9502983093261719
 12.9723234176635742  6.6851983070373535 30.1699542999267578
 11.5935430526733381  6.0876579284667969 32.0567817687988281
 12.6324110031127930  5.7719931602478027 31.1811275482177770
 13.2234859466552734  9.6480836868286133 33.1318817138671875
 15.0006732940673810  8.6277074813842773 34.5068931579589844
 14.2938337326049787 10.9238834381103516 35.0118446350097656
 12.7576742172241211  9.1011075973510742 35.5230865478515625
 11.9452009201049805 10.4897804260253906 33.0149421691894531
 11.5156927108764648 10.7042150497436523 31.5485610961914098
 14.6874885559082031  7.1897754669189453 34.1466407775878906
 15.4533014297485352 11.5469341278076172 34.2685775756835938
 13.2780904769897461  8.7237167358398438 36.8862304687500000
 10.6364755630493164  9.5992155075073224 30.9410858154296875
  0.0059680938720717  3.4217176437377925 35.4345207214355469
  0.5690841674804679 12.6032409667968750 35.7376441955566406
  9.6478080749511719  3.9909205436706539 34.8705177307128977
  8.5815830230712891 12.5864677429199219 35.3048210144043040
  7.6574544906616211  5.1782112121582031 34.9034690856933594
  8.4080123901367188 14.8603010177612305 34.9065170288085938
 18.0016975402832031  5.7344098091125488 35.2896347045898438
 17.8338451385498047 14.6924362182617188 35.1601638793945312
  4.3598914146423340  8.3034648895263672 35.2517547607421875
  3.4344126442447305 17.5787361264228821 34.9900817871093750
 12.6131242970004678 17.8461333811283112 35.2151298522949219
  5.7150243977084756 17.9401597678661346 35.1393470764160227
  5.3241791725158683 10.4028978347778320 34.9537315368652344
 14.7911834716796857  0.5779168009757996 35.3943290710449219
  0.9917888045310974  3.4555389881134033 41.0112800598144602
  1.0866601467132568 12.9079360961914062 41.0905799865722656
 10.1056728363037109  3.9693145751953125 40.8997039794921875
  9.6044120788574219 12.7098731994628906 41.2239799499511719
  3.8022747039794922  8.1141786575317383 41.0970840454101562
  3.7561258533969522 17.2547457814216614 41.0571403503417969
 12.9151649475097656  8.2438621520996094 41.3542976379394531
 12.7347549656406045 17.3013162612915075 41.1500816345214844
  8.2364549636840820  5.3004961013793945 41.2403450012207031
  8.2256174087524414 14.5902900695800781 41.1008415222167969
 17.4935720562934875  5.1654767990112305 41.3684844970703196
 16.9976836442947423 13.7672328948974609 41.3249511718750000
  5.4381461143493652  0.8138474225997924 40.9284057617187571
  5.4082231521606445  9.8138685226440430 41.1626510620117259
 14.4106655120849592  0.8614724874496460 41.1834259033203125
 14.2486009597778320 10.0975685119628906 40.9740142822265625
  0.8273094892501831  3.6869695186614990 47.0359649658203125
  0.8248501420021057 12.7183685302734375 47.0359649658203125
  9.8577098846435547  3.6869695186614990 47.0359649658203125
  9.8552503585815412 12.7183685302734375 47.0359649658203125
  3.6843190193176270  8.2023353576660156 47.0346527099609375
  3.6818594932556152 17.2337341308593750 47.0346527099609375
 12.7147188186645508  8.2023353576660156 47.0346527099609375
 12.7122592926025391 17.2337341308593750 47.0346527099609375
  8.2006769180297852  5.3445744514465332 47.0360260009765696
  8.1982173919677734 14.3759746551513672 47.0360260009765696
 17.2310771942138672  5.3445744514465332 47.0360260009765696
 17.2286186218261719 14.3759746551513672 47.0360260009765696
  5.3436489105224600  0.8290914893150328 47.0346527099609375
  5.3411893844604483  9.8604917526245117 47.0346527099609375
 14.3740482330322266  0.8290914893150328 47.0346527099609375
 14.3715896606445312  9.8604917526245117 47.0346527099609375
 13.8207883834838867  9.5664234161376953 34.5330352783203125
  9.1426067352294922  0.3220321536064148 34.4487495422363352
  8.6102170944213867  9.0178632736206055 34.6818923950195312
  0.0460562370717525  0.0548758916556835 34.3380241394043040
  0.7185052633285522  9.1306829452514648 34.5756950378417969
  4.1980390548706055  4.3744320869445801 34.4820518493652415
  4.5586962699890137 13.8194341659545898 34.5696830749511719
 13.2805976867675781  3.6443777084350586 34.6974487304687500
 12.7156772613525391 14.3137054443359375 34.5706939697265625
  0.0155629096552730 17.7416547834873199 40.8814773559570384
  0.0174275841563940  9.0044565200805664 40.9457321166992188
  9.0876512527465803  0.2674807310104370 40.8646392822265696
  9.2766771316528320  8.8147001266479492 40.9303817749023438
  4.7096648216247559  4.4408240318298340 40.8869476318359375
  4.5970091819763184 13.6226272583007795 40.9123001098632812
 13.6409177780151349  4.7696995735168457 40.9111747741699219
 13.4570550918579102 13.5857496261596662 40.8804206848144531
  2.4297893047332764  1.9610540866851804 37.9873542785644531
  2.6978166103363037 10.9306163787841797 38.0903587341308594
 11.6971387863159162  1.8932572603225708 38.1401062011718750
 11.1410169601440430 11.4043331146240234 38.2160987854003906
  6.5078477859497070  6.9230790138244629 37.8842353820800852
  6.7206587791442871 15.9419584274291974 37.9415931701660227
 16.1101589202880859  6.5839653015136719 38.2101707458496165
 15.7455863952636719 15.7524223327636719 37.9025840759277344
  2.2592372894287109  6.6286425590515137 38.0900268554687500
  2.2457296848297119 15.6985492706298828 37.9656982421875071
 10.6046056747436523  6.0378155708312988 37.6092910766601562
 11.1486282348632812 15.7739763259887678 38.2320976257324219
  6.9602818489074707  2.4256541728973389 37.8206062316894531
  6.9343771934509268 11.3699769973754883 38.2020797729492259
 15.9946651458740234  2.3977069854736328 38.2480049133300781
 16.2927970886230469 11.5664997100830078 38.2630882263183594
  0.0000000000000000  0.0000000000000000 47.1735610961914062
 -0.0024593239650130  9.0313997268676740 47.1735610961914062
  9.0304002761840803  0.0000000000000000 47.1735610961914062
  9.0279407501220685  9.0313997268676740 47.1735610961914062
  4.5139794349670410  4.5156998634338379 47.1742515563964844
  4.5115203857421875 13.5470991134643537 47.1742515563964844
 13.5443792343139648  4.5156998634338379 47.1742515563964844
 13.5419197082519531 13.5470991134643537 47.1742515563964844
  2.4519233703613277  2.0629522800445557 44.0401268005371165
  2.4494640827178955 11.0943517684936523 44.0401268005371165
 11.4823226928710920  2.0629522800445557 44.0401268005371165
 11.4798641204833984 11.0943517684936523 44.0401268005371165
  6.5760178565979004  6.9684472084045410 44.0401268005371165
  6.5735583305358887 15.9998464584350586 44.0401268005371165
 15.6064186096191406  6.9684472084045410 44.0401268005371165
 15.6039590835571289 15.9998464584350586 44.0401268005371165
  2.0610768795013428  6.5788145065307617 44.0400009155273509
  2.0586175918579102 15.6102142333984375 44.0400009155273509
 11.0914773941040039  6.5788145065307617 44.0400009155273509
 11.0890178680419922 15.6102142333984375 44.0400009155273509
  6.9668641090393066  2.4525938034057613 44.0400657653808665
  6.9644045829772949 11.4839935302734375 44.0400657653808665
 15.9972639083862305  2.4525938034057613 44.0400657653808665
 15.9948053359985352 11.4839935302734375 44.0400657653808665
  2.4316265583038330  2.0832188129425049 50.0684852600097656
  2.4291670322418213 11.1146183013915998 50.0684852600097656
 11.4620265960693359  2.0832188129425049 50.0684852600097656
 11.4595670700073224 11.1146183013915998 50.0684852600097656
  6.5963144302368164  6.9481806755065918 50.0684852600097656
  6.5938549041748047 15.9795799255371076 50.0684852600097656
 15.6267137527465803  6.9481806755065918 50.0684852600097656
 15.6242542266845703 15.9795799255371076 50.0684852600097656
  2.0811281204223633  6.5990090370178223 50.0690460205078125
  2.0786688327789307 15.6304082870483398 50.0690460205078125
 11.1115283966064453  6.5990090370178223 50.0690460205078125
 11.1090688705444336 15.6304082870483398 50.0690460205078125
  6.9468131065368652  2.4323906898498531 50.0690460205078125
  6.9443535804748535 11.4637899398803711 50.0690460205078125
 15.9772129058837891  2.4323906898498531 50.0690460205078125
 15.9747543334960938 11.4637899398803711 50.0690460205078125
 18.0207643890753388 18.0243158116936684 37.8290023803710938
  0.1614453345537186  9.0490360260009766 37.8204116821289062
  9.0771827697753906  0.1392448544502258 37.7157707214355540
  8.9952716827392578  8.8989143371582031 37.8030433654785227
  4.4289078712463379  4.4178576469421387 37.6343879699707102
  4.4908132553100586 13.4508543014526367 37.7401504516601562
 13.4088525772094727  4.4340939521789551 37.6680221557617188
 13.2933616638183594 13.6651487350463867 37.6532325744628906
  0.0000090280000222  0.0000090310004452 44.0429992675781250
 -0.0024502959568053  9.0314083099365234 44.0429992675781250
  9.0304088592529297  0.0000090310004452 44.0429992675781250
  9.0279493331909180  9.0314083099365234 44.0429992675781250
  4.5139703750610352  4.5156903266906738 44.0427513122558594
  4.5115113258361816 13.5470905303955078 44.0427513122558594
 13.5443706512451172  4.5156903266906738 44.0427513122558594
 13.5419111251831037 13.5470905303955078 44.0427513122558594
  0.0000000000000000  0.0000000000000000 50.4472808837890696
 -0.0024593239650130  9.0313997268676740 50.4472808837890696
  9.0304002761840803  0.0000000000000000 50.4472808837890696
  9.0279407501220685  9.0313997268676740 50.4472808837890696
  4.5139703750610352  4.5156998634338379 50.4472808837890696
  4.5115113258361816 13.5470991134643537 50.4472808837890696
 13.5443706512451172  4.5156998634338379 50.4472808837890696
 13.5419111251831055 13.5470991134643537 50.4472808837890696
