 H  C  N  I Pb 
 1.0000000000000000
    18.0608005523681641    0.0000000000000000    0.0000000000000000
    -0.0049186488613486   18.0627994537353516    0.0000000000000000
     0.0000000000000000    0.0000000000000000   62.4874992370605469
 H   C   N   I   Pb 
 143  39  47  72  24
Cartesian
  8.5272245407104492  6.1105518341064444 35.4210624694824219
  8.0114002227783203 14.9824476242065430 35.8928222656250071
 16.6641597747802734  4.6959419250488281 36.2134513854980469
 16.9510898590087891 14.8001775741577148 35.8488807678222656
  5.7638878822326660  1.4048798084259031 35.5878181457519531
  6.3207659721374512  9.9025287628173828 35.0520210266113281
 14.4816131591796857  1.6852707862854004 35.5307083129882884
  1.9178409576416000  4.4804997444152832 34.8078994750976562
  1.3917827606201152 12.1706218719482422 35.9733772277832031
  9.8411197662353516  2.7258434295654297 35.0531539916992188
  9.0669431686401367 11.6477546691894531 34.9337844848632812
  6.7053427696228027  0.2446406781673431 34.6978569030761790
  5.3719925880432129 11.3357286453247070 34.6354980468750071
 15.7987804412841797  0.6368368864059448 34.9539909362793040
  1.0429935455322292  4.7296442985534668 36.2789077758789062
 17.8907928466796875 12.5875606536865234 36.6273078918457102
 10.3542633056640625  4.3450784683227539 35.5303306579589915
  8.1298217773437500 12.5061893463134766 36.1226310729980469
  4.9546160697937003  7.9082698822021484 35.7857971191406321
  3.3162543773651123  1.0818071365356445 35.7402114868164062
 12.2736902236938477  0.5535881519317627 35.8554916381835938
  6.9664683341979980  5.5214190483093262 34.8481712341308665
  9.0363969802856445 15.7277565002441406 34.6912918090820312
 15.8630762100219727  4.3435692787170410 34.7266883850097656
 17.8655414581298828 15.6556320190429688 34.6588020324707031
  3.2327201366424561  8.0060796737670898 35.4681663513183594
  2.6331850746646523 17.7889764308929443 34.9079208374023438
 12.1950964191928506 16.9205695390701294 35.3524742126464844
  7.7178759574890128  3.3773078918457031 34.4779357910156321
  9.8364896774291992 13.6652736663818359 33.9201698303222656
 17.9600296020507812  4.1782975196838379 33.5657539367675781
  1.4964962005615245 14.0276870727539062 34.5874862670898438
  3.3370125293731689 10.1825933456420898 34.7209014892578196
  4.7575549343600869 17.0184397697448730 34.1814994812011719
 14.3863786915317178 16.8499712944030797 34.7416229248046875
  8.1781024932861328  5.4898619651794425 42.0713424682617188
  8.0479183197021484 14.6017122268676758 42.0466690063476562
 17.0164648294448853  5.0178990364074698 42.1643486022949290
 16.6726567745208740 13.1690492630004883 41.9207229614257812
  5.5208907127380371  0.9168529510498047 42.0066337585449219
  5.3333277702331543 10.0226888656616211 42.1912193298339844
 14.4992465972900391  0.9739181399345398 42.1648902893066406
 15.2008285522460920  8.5023107528686523 41.4602813720703125
  1.6537774801254272  3.1298444271087646 40.5506515502929688
  2.0531744956970215 13.0029716491699219 40.7302780151367259
 10.4782009124755842  3.0582172870635986 40.5942726135253906
 10.2897758483886719 12.0711174011230469 40.6253890991210938
  3.3446323871612549  7.4465556144714355 40.4972534179687571
  3.0008396366611123 16.7759650945663452 40.4760589599609446
 11.5872974395751953  8.5796117782592773 41.0529251098632812
 12.1981558063998818 16.6195648908615112 40.6330375671386790
  0.9520278573036194  3.3831241130828857 42.1286392211914062
  0.9359270930290221 12.1666603088378906 41.7655525207519531
 10.0188636779785156  3.6749684810638428 42.1425971984863281
  9.7378902435302734 12.6360530853271484 42.1700248718261719
  3.6416356563568115  8.0486717224121094 42.1004791259765625
  3.5664405087009072 17.2522916793823242 42.0530891418457031
 12.9098939895629883  7.5708622932434082 41.6236228942871165
 12.6904949406161904 17.1954566836357117 42.2078781127929688
  7.5735888481140137  5.8569951057434082 40.4806289672851562
  7.6466937065124512 15.0945587158203125 40.4212074279785156
 16.6477808952331543  5.7365579605102539 40.6117935180664062
 16.3958959579467773 14.6039838790893555 40.9790649414062500
  6.0385017395019531  1.3699098825454712 40.4070816040039062
  5.8935914039611816 10.5514116287231428 40.6400222778320312
 14.9964323043823242  1.4580121040344238 40.5562171936035156
 15.3560075759887695 10.0463819503784162 40.6635169982910156
  0.2301005423069000  4.6243457794189453 39.4930801391601562
  0.5165008306503296 14.6330108642578125 40.1216239929199290
  8.9971094131469727  4.3501272201538086 39.4114036560058665
  9.0182514190673828 13.5430946350097656 39.4152030944824219
  4.4905490875244141  0.0181824788451195 39.3399734497070384
  4.7481226921081543  8.9532337188720703 39.4647331237792969
 13.6005129078403115 18.0285154245793819 39.4904365539550781
 13.0548048019409162 10.2683334350585938 40.3435592651367188
  8.1032123565673828  5.4420318603515616 48.0459518432617259
  8.1007528305053711 14.4734306335449219 48.0459518432617259
 17.1336116790771484  5.4420318603515616 48.0459518432617259
 17.1311531066894531 14.4734306335449219 48.0459518432617259
  5.4410333633422852  0.9265221953392029 48.0449485778808594
  5.4385743141174316  9.9579219818115234 48.0449485778808594
 14.4714326858520490  0.9265221953392029 48.0449485778808594
 14.4689741134643555  9.9579219818115234 48.0449485778808594
  1.4218254089355467  3.0919990539550781 46.4558296203613281
  1.4193661212921143 12.1233978271484375 46.4558296203613281
 10.4522256851196289  3.0919990539550781 46.4558296203613281
 10.4497661590576172 12.1233978271484375 46.4558296203613281
  3.0899283885955806  7.6075901985168457 46.4545211791992188
  3.0874691009521484 16.6389904022216797 46.4545211791992188
 12.1203289031982422  7.6075901985168457 46.4545211791992188
 12.1178693771362305 16.6389904022216797 46.4545211791992188
  0.9247469902038573  3.5893490314483643 48.0459518432617259
  0.9222877025604248 12.6207475662231445 48.0459518432617259
  9.9551477432250977  3.5893490314483643 48.0459518432617259
  9.9526882171630859 12.6207475662231445 48.0459518432617259
  3.5868983268737793  8.1048498153686523 48.0448913574218821
  3.5844390392303462 17.1362495422363281 48.0448913574218821
 12.6172990798950195  8.1048498153686523 48.0448913574218821
 12.6148395538330078 17.1362495422363281 48.0448913574218821
  7.6061611175537109  5.9393639564514160 46.4558296203613281
  7.6037015914916992 14.9707632064819336 46.4558296203613281
 16.6365604400634766  5.9393639564514160 46.4558296203613281
 16.6341018676757812 14.9707632064819336 46.4558296203613281
  5.9380125999450684  1.4238001108169553 46.4545211791992188
  5.9355530738830566 10.4551992416381836 46.4545211791992188
 14.9684123992919904  1.4238001108169553 46.4545211791992188
 14.9659538269042951 10.4551992416381836 46.4545211791992188
 -0.0011664569610730  4.5157265663146973 45.3548011779785156
 -0.0036257810425013 13.5471258163452148 45.3548011779785156
  9.0292339324951172  4.5157265663146973 45.3548011779785156
  9.0267744064331037 13.5471258163452148 45.3548011779785156
  4.5152091979980469  0.0000000000000000 45.3536758422851562
  4.5127501487731934  9.0313997268676740 45.3536758422851562
 13.5456094741821289  0.0000000000000000 45.3536758422851562
 13.5431499481201172  9.0313997268676740 45.3536758422851562
 13.0091676712036115  7.9955716133117667 33.7786064147949290
 13.3193788528442383  8.9161157608032227 32.3099288940429688
 11.9225711822509748  9.9659500122070312 34.8485298156738281
 12.7775211334228498 11.5126056671142578 34.7458915710449219
 15.3674879074096680  9.1713447570800781 35.5001907348632812
 14.2553672790527344 10.4132919311523438 36.1130294799804759
 15.7945280075073242 10.1564140319824219 33.1844177246093750
 14.4959878921508789 11.2662010192871094 32.6540908813476562
 15.7469167709350568  8.3542680740356445 32.4044189453125000
 15.5800752639770508  7.6267924308776855 33.9963417053222727
 15.7648038864135724  5.8923401832580566 32.4085998535156250
 14.1566076278686523  5.8337569236755371 33.1191253662109446
 11.4897270202636719  9.9410753250122070 32.4016838073730469
 12.4611902236938459 11.4360084533691406 32.1888504028320312
 10.9870967864990217 11.4648141860961914 33.1454353332519531
 13.6540641784667969  8.4359779357910156 37.2568397521972727
 13.6172342300415039  7.4288420677185059 35.8051300048828125
 12.3639545440673810  8.6485652923583984 36.1140670776367188
 14.7619037628173810 12.4845647811889631 34.8971023559570312
 16.2145977020263672 12.4616222381591779 33.9212608337402344
 16.0884666442871094 11.3477392196655273 35.2935562133789062
 14.8225393295288086  6.8876299858093253 30.2940940856933594
 14.1985502243041992  5.2971816062927246 30.7152137756347656
 11.9768447875976562  5.4954237937927246 32.3802871704101562
 13.2295417785644513  8.3547525405883789 29.4265861511230504
  9.6893911361694336  6.4325270652770996 32.3193626403808594
 10.9214706420898420  9.2795944213867188 29.3447570800781286
  9.1507711410522443  8.3471460342407227 30.8226547241210938
 17.9351444244384766  4.3875398635864258 34.6405067443847656
  0.6151790618896482 13.8704566955566406 35.2156257629394531
  8.4105186462402344  4.1278018951416016 34.8671836853027344
  9.1096563339233398 13.6825428009033203 34.7320594787597727
  4.2660841941833496  9.6722917556762695 34.9842987060546875
  4.6719545582309365 17.9515119493007660 34.7438774108886719
 13.9922603825107199 17.7949012517929077 35.1159515380859446
  0.1239240914583206  4.4352650642395020 40.5691337585449219
  0.2104612439870834 13.8469715118408203 40.8157844543457031
  9.0352230072021484  4.4586787223815918 40.5028724670410227
  8.9622879028320312 13.5746698379516584 40.5118446350097727
  4.6354503631591797  8.9839658737182617 40.5528450012207031
  4.5171642303466797  0.0345856212079525 40.4334564208984375
 13.4564046859741211  9.3620843887329084 40.8222846984863352
 13.5947202900424600 18.0619602520018816 40.5842628479003906
  9.0289716720581055  4.5156092643737793 46.4455223083496165
  9.0265130996704102 13.5470085144042969 46.4455223083496165
 18.0593719482421875  4.5156092643737793 46.4455223083496165
 18.0569133758544922 13.5470085144042969 46.4455223083496165
  4.5152091979980469  0.0000180629995157 46.4442062377929759
  4.5127501487731934  9.0314178466796857 46.4442062377929759
 13.5456094741821289  0.0000180629995157 46.4442062377929759
 13.5431499481201172  9.0314178466796857 46.4442062377929759
 12.7685756683349609  6.8707909584045410 30.9097595214843786
 11.7520484924316388  6.3258156776428223 31.7004547119140661
 12.4457902908325195  7.9302363395690918 30.0539875030517578
 10.4563932418823224  6.8593959808349609 31.6740608215332031
 11.1588649749755859  8.4534015655517578 30.0065536499023473
 10.1495466232299805  7.9253754615783691 30.8346443176269531
 13.7641420364379883  8.6066217422485352 33.2658386230468750
 12.5708894729614258 10.5773973464965820 34.2090873718261719
 14.3144321441650391  9.4842910766601562 35.5391616821289134
 14.9653511047363263 10.7881402969360352 33.5210227966308594
 15.0465364456176758  7.7973484992980957 33.0468215942382812
 14.7911796569824219  6.4107432365417472 32.4324760437011719
 11.8623762130737287 10.8491077423095703 32.8952140808105469
 13.4381742477416992  8.4398078918457031 36.1843986511230469
 15.5245370864868146 11.8177499771118164 34.4800834655761719
 14.1847429275512678  6.3545861244201660 31.0160255432128906
  1.0068454742431654  4.5081968307495117 35.2822647094726562
  0.5903396606445307 12.8010053634643555 35.9656524658203125
  9.6342678070068359  3.7265148162841792 35.1313667297363281
  8.7414274215698242 12.5518388748168945 35.2913169860839844
  7.9648623466491699  5.3553462028503418 35.0035896301269531
  8.6464023590087891 14.8665237426757812 35.0924034118652415
 16.7543506622314453  4.4932942390441895 35.2116851806640625
 17.7083797454833984 14.7620697021484357 35.1436462402343750
  4.1717996597290039  8.4218196868896484 35.3714790344238281
  3.4791524410247803  0.2664543092250824 35.1277503967285156
 12.7176822880282998 17.8111477494239807 35.4210281372070312
  5.7689857482910147  0.5682525038719176 34.9963645935058594
  5.3971791267395011 10.3341541290283203 34.8680114746093750
 14.8157424926757812  0.7485857009887695 35.2444267272949219
  0.9508143067359924  3.5892746448516846 41.1267547607421946
  1.0974371433258057 12.9301605224609375 41.1093025207519531
  9.8948688507080078  3.7018840312957764 41.1314849853515625
  9.6973304748535156 12.7012891769409180 41.1633567810058594
  3.8445363044738770  8.0975255966186523 41.1044349670410156
  3.6452771881595250 17.3411351442337036 41.0470542907714844
 12.5988788604736328  8.4402322769165039 41.1885719299316406
 12.7922577122226357 17.2395308613777196 41.2007026672363352
  8.2170143127441406  5.3261795043945312 41.0683441162109375
  8.1715526580810547 14.4768657684326172 41.0435829162597727
 17.2353085875511205  5.1025500297546387 41.1728782653808594
 17.0439877510070836 13.8851041793823242 41.2883148193359375
  5.4180397987365723  0.8158663511276245 41.0025405883789134
  5.3345031738281250  9.9092836380004865 41.1832466125488281
 14.4066228866577148  0.8730201125144958 41.1577377319335938
 14.7566452026367188  9.2922859191894531 41.0032882690429688
  0.8273094892501831  3.6869695186614990 47.0359649658203125
  0.8248501420021057 12.7183685302734375 47.0359649658203125
  9.8577098846435547  3.6869695186614990 47.0359649658203125
  9.8552503585815412 12.7183685302734375 47.0359649658203125
  3.6843190193176270  8.2023353576660156 47.0346527099609375
  3.6818594932556152 17.2337341308593750 47.0346527099609375
 12.7147188186645508  8.2023353576660156 47.0346527099609375
 12.7122592926025391 17.2337341308593750 47.0346527099609375
  8.2006769180297852  5.3445744514465332 47.0360260009765696
  8.1982173919677734 14.3759746551513672 47.0360260009765696
 17.2310771942138672  5.3445744514465332 47.0360260009765696
 17.2286186218261719 14.3759746551513672 47.0360260009765696
  5.3436489105224600  0.8290914893150328 47.0346527099609375
  5.3411893844604483  9.8604917526245117 47.0346527099609375
 14.3740482330322266  0.8290914893150328 47.0346527099609375
 14.3715896606445312  9.8604917526245117 47.0346527099609375
 13.9108123779296875  9.8633604049682617 34.1161727905273438
  9.2455005645751953  0.2301814854145050 34.5034484863281250
  8.7613506317138672  9.0485258102416992 34.6214179992675781
  0.0909289047122002  0.1631820201873779 34.4266433715820312
  0.5035099983215332  9.0791025161743164 34.6712684631347727
  4.5436573028564453  4.4247641563415527 34.5410156250000000
  4.5261225700378418 13.8324756622314453 34.5455703735351562
 13.2621259689331055  3.8126971721649170 34.7338256835937500
 12.6246252059936523 14.3811378479003906 34.6866531372070384
 17.9719349751248991 17.7823676764965057 40.8767509460449219
  0.2700879871845245  8.9448518753051758 40.9569702148437500
  8.9961948394775391  0.0683489888906479 40.9042892456054688
  9.0627050399780273  8.9574947357177734 40.9090614318847656
  4.6151595115661621  4.4387106895446777 40.8911972045898509
  4.5950136184692383 13.6328868865966797 40.8865547180175781
 13.4934396743774396  4.8000941276550293 40.9392280578613281
 13.4713592529296875 13.4009399414062500 40.9126396179199219
  2.3314869403839111  2.2175552845001221 37.9516944885253977
  2.7740323543548584 10.9305715560913086 38.0001373291015625
 11.5638523101806641  2.0498623847961426 38.1810493469238281
 11.3889408111572266 11.1950216293334961 38.0150527954101562
  6.5635356903076163  7.0041937828063965 37.9008750915527344
  6.7130150794982910 15.9526376724243146 37.8877754211425781
 16.0336704254150391  6.6860575675964355 38.0340385437011719
 15.6616888046264648 15.9288702011108381 37.8696670532226562
  2.2178473472595215  6.5802631378173819 38.0045814514160156
  2.2172570228576660 15.8086881637573242 37.9117317199707031
 10.7778978347778320  6.2801661491394043 37.5475578308105540
 11.1115388870239258 15.6652240753173828 38.3235511779785156
  6.9834132194519043  2.4003324508666992 37.8849029541015696
  6.9604244232177734 11.4497051239013672 38.1158752441406250
 15.9476242065429670  2.4665307998657227 38.2623596191406250
 16.2616920471191406 11.5929508209228516 38.3945503234863281
  0.0000000000000000  0.0000000000000000 47.1735610961914062
 -0.0024593239650130  9.0313997268676740 47.1735610961914062
  9.0304002761840803  0.0000000000000000 47.1735610961914062
  9.0279407501220685  9.0313997268676740 47.1735610961914062
  4.5139794349670410  4.5156998634338379 47.1742515563964844
  4.5115203857421875 13.5470991134643537 47.1742515563964844
 13.5443792343139648  4.5156998634338379 47.1742515563964844
 13.5419197082519531 13.5470991134643537 47.1742515563964844
  2.4519233703613277  2.0629522800445557 44.0401268005371165
  2.4494640827178955 11.0943517684936523 44.0401268005371165
 11.4823226928710920  2.0629522800445557 44.0401268005371165
 11.4798641204833984 11.0943517684936523 44.0401268005371165
  6.5760178565979004  6.9684472084045410 44.0401268005371165
  6.5735583305358887 15.9998464584350586 44.0401268005371165
 15.6064186096191406  6.9684472084045410 44.0401268005371165
 15.6039590835571289 15.9998464584350586 44.0401268005371165
  2.0610768795013428  6.5788145065307617 44.0400009155273509
  2.0586175918579102 15.6102142333984375 44.0400009155273509
 11.0914773941040039  6.5788145065307617 44.0400009155273509
 11.0890178680419922 15.6102142333984375 44.0400009155273509
  6.9668641090393066  2.4525938034057613 44.0400657653808665
  6.9644045829772949 11.4839935302734375 44.0400657653808665
 15.9972639083862305  2.4525938034057613 44.0400657653808665
 15.9948053359985352 11.4839935302734375 44.0400657653808665
  2.4316265583038330  2.0832188129425049 50.0684852600097656
  2.4291670322418213 11.1146183013915998 50.0684852600097656
 11.4620265960693359  2.0832188129425049 50.0684852600097656
 11.4595670700073224 11.1146183013915998 50.0684852600097656
  6.5963144302368164  6.9481806755065918 50.0684852600097656
  6.5938549041748047 15.9795799255371076 50.0684852600097656
 15.6267137527465803  6.9481806755065918 50.0684852600097656
 15.6242542266845703 15.9795799255371076 50.0684852600097656
  2.0811281204223633  6.5990090370178223 50.0690460205078125
  2.0786688327789307 15.6304082870483398 50.0690460205078125
 11.1115283966064453  6.5990090370178223 50.0690460205078125
 11.1090688705444336 15.6304082870483398 50.0690460205078125
  6.9468131065368652  2.4323906898498531 50.0690460205078125
  6.9443535804748535 11.4637899398803711 50.0690460205078125
 15.9772129058837891  2.4323906898498531 50.0690460205078125
 15.9747543334960938 11.4637899398803711 50.0690460205078125
 18.0141722671687603  0.0763265192508698 37.7762184143066406
  0.1383723914623260  9.0883140563964844 37.7813606262207102
  9.1047115325927717  0.0300140175968409 37.7866210937500000
  9.0595302581787109  9.0177431106567383 37.7485046386718750
  4.5755376815795898  4.5234937667846671 37.7421646118164062
  4.5011696815490723 13.5830230712890625 37.6890678405761790
 13.4815549850463867  4.5747814178466797 37.8169631958007812
 13.4119243621826172 13.6688270568847656 37.7456321716308594
  0.0000090280000222  0.0000090310004452 44.0429992675781250
 -0.0024502959568053  9.0314083099365234 44.0429992675781250
  9.0304088592529297  0.0000090310004452 44.0429992675781250
  9.0279493331909180  9.0314083099365234 44.0429992675781250
  4.5139703750610352  4.5156903266906738 44.0427513122558594
  4.5115113258361816 13.5470905303955078 44.0427513122558594
 13.5443706512451172  4.5156903266906738 44.0427513122558594
 13.5419111251831037 13.5470905303955078 44.0427513122558594
  0.0000000000000000  0.0000000000000000 50.4472808837890696
 -0.0024593239650130  9.0313997268676740 50.4472808837890696
  9.0304002761840803  0.0000000000000000 50.4472808837890696
  9.0279407501220685  9.0313997268676740 50.4472808837890696
  4.5139703750610352  4.5156998634338379 50.4472808837890696
  4.5115113258361816 13.5470991134643537 50.4472808837890696
 13.5443706512451172  4.5156998634338379 50.4472808837890696
 13.5419111251831055 13.5470991134643537 50.4472808837890696
