 H  C  N  I Pb 
 1.0000000000000000
    18.0608005523681641    0.0000000000000000    0.0000000000000000
    -0.0049186488613486   18.0627994537353516    0.0000000000000000
     0.0000000000000000    0.0000000000000000   62.4874992370605469
 H   C   N   I   Pb 
 143  39  47  72  24
Cartesian
  8.3997993469238281  6.1343688964843750 35.1328697204589844
  7.8905315399169922 14.8471565246582031 35.9279174804687500
 16.6745891571044922  5.2499194145202637 35.9366683959960938
 16.8556823730468750 14.7744407653808594 35.7755966186523438
  5.8951458930969238  1.3609421253204346 35.6558723449707102
  6.3033056259155273  9.8235101699829102 34.7878112792968750
 14.5790586471557599  1.6843478679656980 35.2653007507324290
  1.9610576629638654  4.5170679092407227 34.7416267395019531
  1.3452644348144522 12.2266511917114240 36.0912399291992188
  9.9866752624511719  2.8077735900878906 35.0662231445312571
  9.0663919448852539 11.6151323318481445 34.7275543212890625
  6.8610997200012207  0.1833550631999969 34.8245697021484375
  5.2999095916748047 11.2277622222900391 34.4397354125976562
 15.8439054489135742  0.5902119278907776 34.7106170654296875
  1.0957374572753915  5.3788323402404785 35.9721107482910156
 17.7932739257812500 12.6168251037597656 36.5835990905761719
 10.3552141189575195  4.4808797836303711 35.4733810424804759
  8.0224685668945312 12.3487892150878906 35.9082450866699219
  4.9555664062500000  7.8237476348876953 35.7183685302734375
  3.4512064456939697  1.0126945972442627 35.7669754028320312
 12.4301347732543928  0.5968766212463379 36.0048904418945312
  6.8932104110717773  5.3451328277587891 34.6885795593261719
  8.9508371353149414 15.6880035400390625 34.8360023498535156
 15.9376277923583984  4.2482032775878906 34.7191238403320312
 17.8453502655029297 15.6983060836791992 34.6925468444824219
  3.2322599887847900  7.9787168502807608 35.5504226684570312
  2.8156623104587197 17.6669090986251831 35.0048713684082031
 12.3238033512607217 16.9354326725006104 35.6676139831543040
  7.7820568084716797  3.2610201835632324 34.5437889099121094
  9.7893486022949219 13.7289934158325195 33.9041709899902344
 18.0350303649902344  3.6787712574005127 33.7653694152832031
  1.5197296142578136 14.1148233413696289 34.7117080688476634
  3.3168752193450923 10.1095132827758789 34.7422752380371094
  4.9505805233493447 16.9104127883911133 34.3313293457031321
 14.4308208683505654 16.7794752120971680 34.8665809631347656
  7.9501056671142569  5.4836230278015137 41.9129981994628906
  8.1972074508666992 14.5159730911254883 42.1208648681640625
 17.1585549116134644  5.1945457458496094 42.1589584350585938
 16.5667871236801147 13.3316926956176758 41.7091636657714844
  5.4523148536682129  0.9290209412574767 42.0287170410156250
  5.3750820159912109 10.1319437026977539 42.0829429626464844
 14.5408954620361328  1.0644335746765137 42.0656051635742188
 15.1740150451660138  8.4562845230102539 41.3473968505859375
  1.4992277622222898  3.0111618041992188 40.4565467834472727
  1.9965171813964842 12.7688741683959961 40.8696022033691406
 10.4339075088500977  3.1013317108154297 40.6373138427734375
 10.3694734573364240 12.0988092422485352 40.3826255798339844
  3.3092744350433350  7.4757480621337891 40.6137351989746094
  3.0465482929721475 16.7016471624374390 40.4474143981933665
 11.5523357391357422  8.5658416748046875 40.9406852722167969
 12.1998466709628701 16.5978022813796997 40.7715110778808665
  0.9503477215766907  3.3826479911804199 42.0667686462402344
  0.6143712401390076 11.9821109771728498 41.5854148864746165
  9.7805404663085938  3.6679840087890621 42.1470794677734446
  9.9882898330688477 12.6135272979736328 42.0062370300292969
  3.7086272239685059  8.1332187652587891 42.1668777465820312
  3.5853175381198525 17.1680862903594971 42.0440101623535156
 12.8665218353271484  7.4645352363586426 41.3442268371582031
 12.7534603336825949 17.2583620548248291 42.2939376831054688
  7.5889139175415039  5.9278435707092285 40.2723884582519531
  7.6330199241638184 15.0356206893920898 40.5660552978515696
 16.6985709667205811  5.8226327896118164 40.5898132324218821
 16.6264373064041173 14.9112119674682617 40.9632873535156250
  5.9349741935729972  1.4377408027648926 40.4385910034179688
  5.8419671058654785 10.5927925109863263 40.4739418029785227
 14.9701194763183594  1.4386575222015381 40.4161682128906321
 15.3115882873535156 10.0564136505126953 40.6945953369140625
  0.1083292737603188  4.5181298255920410 39.4233856201171946
  0.7916874289512634 14.7022361755371076 40.3433914184570312
  9.1352043151855469  4.4853825569152832 39.3465576171875071
  8.9149236679077148 13.5547065734863281 39.3754043579101562
  4.4747228622436523  0.0522369258105755 39.3405761718750071
  4.6255927085876465  8.9487295150756836 39.4351310729980469
 13.5517572620883584 17.9472923576831818 39.4968452453613281
 13.0158767700195312 10.3186740875244141 40.4521369934082031
  8.1032123565673828  5.4420318603515616 48.0459518432617259
  8.1007528305053711 14.4734306335449219 48.0459518432617259
 17.1336116790771484  5.4420318603515616 48.0459518432617259
 17.1311531066894531 14.4734306335449219 48.0459518432617259
  5.4410333633422852  0.9265221953392029 48.0449485778808594
  5.4385743141174316  9.9579219818115234 48.0449485778808594
 14.4714326858520490  0.9265221953392029 48.0449485778808594
 14.4689741134643555  9.9579219818115234 48.0449485778808594
  1.4218254089355467  3.0919990539550781 46.4558296203613281
  1.4193661212921143 12.1233978271484375 46.4558296203613281
 10.4522256851196289  3.0919990539550781 46.4558296203613281
 10.4497661590576172 12.1233978271484375 46.4558296203613281
  3.0899283885955806  7.6075901985168457 46.4545211791992188
  3.0874691009521484 16.6389904022216797 46.4545211791992188
 12.1203289031982422  7.6075901985168457 46.4545211791992188
 12.1178693771362305 16.6389904022216797 46.4545211791992188
  0.9247469902038573  3.5893490314483643 48.0459518432617259
  0.9222877025604248 12.6207475662231445 48.0459518432617259
  9.9551477432250977  3.5893490314483643 48.0459518432617259
  9.9526882171630859 12.6207475662231445 48.0459518432617259
  3.5868983268737793  8.1048498153686523 48.0448913574218821
  3.5844390392303462 17.1362495422363281 48.0448913574218821
 12.6172990798950195  8.1048498153686523 48.0448913574218821
 12.6148395538330078 17.1362495422363281 48.0448913574218821
  7.6061611175537109  5.9393639564514160 46.4558296203613281
  7.6037015914916992 14.9707632064819336 46.4558296203613281
 16.6365604400634766  5.9393639564514160 46.4558296203613281
 16.6341018676757812 14.9707632064819336 46.4558296203613281
  5.9380125999450684  1.4238001108169553 46.4545211791992188
  5.9355530738830566 10.4551992416381836 46.4545211791992188
 14.9684123992919904  1.4238001108169553 46.4545211791992188
 14.9659538269042951 10.4551992416381836 46.4545211791992188
 -0.0011664569610730  4.5157265663146973 45.3548011779785156
 -0.0036257810425013 13.5471258163452148 45.3548011779785156
  9.0292339324951172  4.5157265663146973 45.3548011779785156
  9.0267744064331037 13.5471258163452148 45.3548011779785156
  4.5152091979980469  0.0000000000000000 45.3536758422851562
  4.5127501487731934  9.0313997268676740 45.3536758422851562
 13.5456094741821289  0.0000000000000000 45.3536758422851562
 13.5431499481201172  9.0313997268676740 45.3536758422851562
 13.0023508071899396  8.0558633804321289 33.6275253295898438
 13.4220752716064453  8.9934978485107422 32.1993598937988281
 11.9709787368774414  9.9942388534545898 34.7095947265625000
 12.8267850875854492 11.5469379425048810 34.6233520507812500
 15.4226350784301758  9.2155761718750000 35.4188194274902344
 14.3282127380371094 10.4678649902343750 36.0098533630371094
 15.8781852722167969 10.1063852310180664 33.1659812927246094
 14.6089124679565412 11.1359863281250000 32.4748306274414062
 15.7682762145996094  8.3570013046264648 32.3126449584961009
 15.6007061004638672  7.6928749084472656 33.9290618896484375
 15.7701473236083967  5.8925743103027344 32.3951530456543040
 14.1702461242675781  5.8536825180053711 33.1091232299804759
 11.5385475158691406  9.9935474395751953 32.2775306701660156
 12.5943202972412109 11.4267349243164062 32.0437545776367259
 11.1070699691772443 11.5498218536376953 32.9738273620605469
 13.8075532913208008  8.4241437911987305 37.1634559631347656
 13.6488475799560547  7.4830121994018546 35.6824188232421875
 12.4365015029907227  8.7141914367675781 36.1018524169921875
 14.7696208953857422 12.5219087600707990 34.6976242065429688
 16.1905136108398438 12.5347423553466797 33.6570816040039134
 16.2007751464843750 11.5066537857055664 35.0942649841308594
 14.8318862915039062  6.8813161849975586 30.2871494293212926
 14.2216339111328125  5.2767972946166983 30.6931095123291016
 11.9827098846435529  5.4498834609985352 32.3682022094726562
 13.2193346023559570  8.3088026046752930 29.3863010406494141
  9.6748561859130859  6.3636150360107422 32.2741889953613281
 10.9088401794433576  9.1924571990966797 29.2680358886718786
  9.1306552886962891  8.2474861145019531 30.7519474029541016
 17.9847145080566406  4.3304467201232910 34.6446304321289134
  0.5913410186767595 13.9252176284790039 35.2571754455566406
  8.4414215087890625  4.0847425460815430 34.8261070251464915
  9.0330200195312500 13.6602363586425781 34.6844673156738352
  4.2532215118408203  9.5810251235961896 34.9201393127441406
  4.8416194180026650 17.8655947446823120 34.8526344299316477
 14.0776561954990029 17.7632147073745728 35.1759452819824219
  0.0733765214681625  4.4207038879394531 40.5152359008789062
  0.3012018501758575 13.8796482086181641 40.8644256591796875
  9.0182857513427734  4.5147075653076172 40.4326972961425781
  8.9918498992919922 13.5591039657592773 40.4648323059082031
  4.5920190811157218  9.0205125808715820 40.5239677429199219
  4.4896893501281738  0.0333709195256233 40.4337730407714844
 13.4131755828857422  9.3667230606079102 40.8206596374511719
 13.5800117710605264 18.0472128614783287 40.5853042602539062
  9.0289716720581055  4.5156092643737793 46.4455223083496165
  9.0265130996704102 13.5470085144042969 46.4455223083496165
 18.0593719482421875  4.5156092643737793 46.4455223083496165
 18.0569133758544922 13.5470085144042969 46.4455223083496165
  4.5152091979980469  0.0000180629995157 46.4442062377929759
  4.5127501487731934  9.0314178466796857 46.4442062377929759
 13.5456094741821289  0.0000180629995157 46.4442062377929759
 13.5431499481201172  9.0314178466796857 46.4442062377929759
 12.7699346542358398  6.8318324089050284 30.8899250030517578
 11.7533817291259766  6.2770466804504395 31.6862525939941406
 12.4390773773193359  7.8790397644042969 30.0179710388183594
 10.4498443603515625  6.7837543487548819 31.6300659179687500
 11.1427478790283203  8.3797445297241211 29.9528408050537109
 10.1381301879882812  7.8413667678833008 30.7716236114501953
 13.8043603897094727  8.6440067291259766 33.1655960083007884
 12.6320848464965803 10.6110458374023438 34.0852813720703125
 14.3683099746704102  9.5273485183715820 35.4500083923339844
 15.0415363311767578 10.7669944763183576 33.4096946716308594
 15.0732278823852539  7.8158903121948242 32.9733161926269531
 14.8038196563720703  6.4178447723388672 32.4072494506835938
 11.9547500610351545 10.8884639739990234 32.7551727294921875
 13.5051765441894531  8.4802188873291016 36.1114578247070312
 15.5649089813232422 11.8877744674682617 34.2865180969238281
 14.1942739486694336  6.3345613479614258 30.9995746612548828
  1.0517730712890598  4.7630653381347656 35.1515617370605469
  0.5242214202880859 12.8255424499511719 35.9641952514648438
  9.6933584213256818  3.7908725738525386 35.0985412597656250
  8.6616535186767578 12.4731903076171875 35.1071052551269602
  7.9064416885375968  5.2839822769165039 34.8376846313476562
  8.5597648620605469 14.7951478958129883 35.1547584533691406
 16.7995147705078125  4.6092824935913086 35.1362419128417969
 17.6650009155273438 14.7898826599121094 35.1368064880371094
  4.1635370254516602  8.3440446853637695 35.3383369445800781
  3.6426258087158203  0.1606437712907791 35.2287979125976562
 12.8495458820834756 17.8175356984138489 35.6210327148437500
  5.9213643074035645  0.5091469287872314 35.0905532836914062
  5.3662300109863281 10.2298107147216779 34.6691474914550852
 14.8863706588745117  0.7265813946723938 35.0510711669921875
  0.8785260319709778  3.5451166629791260 41.0644683837890625
  0.9934055209159851 12.7904911041259766 41.0922966003417969
  9.7872829437255859  3.7191281318664551 41.1304779052734375
  9.8216571807861310 12.6973247528076172 41.0057487487792969
  3.8346774578094482  8.1573133468627930 41.1571159362792969
  3.6589817265048623 17.2772899270057678 41.0339317321777344
 12.5606040954589844  8.4024333953857422 41.0637435913085938
 12.8057884434238076 17.2517670392990112 41.2784309387207031
  8.1342859268188477  5.3592314720153809 40.9201965332031250
  8.2352714538574219 14.4187240600585920 41.1083297729492188
 17.2890547513961792  5.1991610527038574 41.1464843750000000
 17.1021633148193395 14.0441808700561523 41.2021141052246094
  5.3436136245727539  0.8442928194999695 41.0241737365722656
  5.3163771629333496  9.9686594009399414 41.0780601501464844
 14.4003801345825195  0.8971263170242308 41.0732955932617188
 14.7148714065551758  9.2739610671997070 40.9588050842285156
  0.8273094892501831  3.6869695186614990 47.0359649658203125
  0.8248501420021057 12.7183685302734375 47.0359649658203125
  9.8577098846435547  3.6869695186614990 47.0359649658203125
  9.8552503585815412 12.7183685302734375 47.0359649658203125
  3.6843190193176270  8.2023353576660156 47.0346527099609375
  3.6818594932556152 17.2337341308593750 47.0346527099609375
 12.7147188186645508  8.2023353576660156 47.0346527099609375
 12.7122592926025391 17.2337341308593750 47.0346527099609375
  8.2006769180297852  5.3445744514465332 47.0360260009765696
  8.1982173919677734 14.3759746551513672 47.0360260009765696
 17.2310771942138672  5.3445744514465332 47.0360260009765696
 17.2286186218261719 14.3759746551513672 47.0360260009765696
  5.3436489105224600  0.8290914893150328 47.0346527099609375
  5.3411893844604483  9.8604917526245117 47.0346527099609375
 14.3740482330322266  0.8290914893150328 47.0346527099609375
 14.3715896606445312  9.8604917526245117 47.0346527099609375
 13.9722938537597656  9.8819828033447266 34.0262145996093750
  9.3997154235839844  0.1902255117893219 34.5702629089355469
  8.8552665710449219  8.9216794967651367 34.5061836242675781
  0.2283855974674225  0.1678846031427383 34.4154281616210938
  0.4217306077480316  9.0068597793579102 34.6500167846679688
  4.5368022918701172  4.1456465721130371 34.5614433288574290
  4.5642161369323730 13.7850275039672852 34.5071372985839915
 13.2714319229125977  3.8426826000213619 34.7301445007324290
 12.6384487152099609 14.3865432739257812 34.7023239135742188
 18.0379335982725060 17.8010027408599854 40.8575897216796875
  0.2315042316913605  9.0464487075805664 40.9424819946289062
  8.9318180084228516  0.0720876082777977 40.9285812377929759
  9.0292253494262695  8.9652557373046875 40.8510704040527344
  4.5494623184204102  4.4787235260009766 40.9029922485351562
  4.5052976608276367 13.6149892807006836 40.8752937316894531
 13.5015687942504865  4.8671669960021973 40.9296875000000071
 13.5288953781127930 13.3493490219116193 40.8994522094726562
  2.3530900478363037  2.1861486434936523 37.9569740295410156
  2.6970841884613037 10.9855117797851562 37.9435997009277344
 11.5276031494140625  2.0803124904632568 38.2527275085449290
 11.4041404724121094 11.1581468582153320 37.8875732421875000
  6.5196623802185050  7.0406146049499512 37.7967376708984375
  6.6722030639648438 15.9952640533447266 37.9740562438964915
 16.0519371032714844  6.6260752677917480 37.9605064392089844
 15.6580619812011701 15.9300003051757812 37.8940429687500000
  2.1922297477722168  6.6256637573242188 38.0407257080078125
  2.2239661216735840 15.8133678436279297 37.8756027221679688
 10.8169851303100568  6.3236541748046875 37.5418319702148438
 11.1379003524780273 15.6701335906982404 38.4138374328613352
  7.0025696754455558  2.4478044509887695 37.9414558410644531
  6.9582490921020508 11.4786386489868164 38.0255279541015696
 15.9317636489868164  2.4368913173675537 38.1574134826660156
 16.1264915466308594 11.5534677505493164 38.2856025695800852
  0.0000000000000000  0.0000000000000000 47.1735610961914062
 -0.0024593239650130  9.0313997268676740 47.1735610961914062
  9.0304002761840803  0.0000000000000000 47.1735610961914062
  9.0279407501220685  9.0313997268676740 47.1735610961914062
  4.5139794349670410  4.5156998634338379 47.1742515563964844
  4.5115203857421875 13.5470991134643537 47.1742515563964844
 13.5443792343139648  4.5156998634338379 47.1742515563964844
 13.5419197082519531 13.5470991134643537 47.1742515563964844
  2.4519233703613277  2.0629522800445557 44.0401268005371165
  2.4494640827178955 11.0943517684936523 44.0401268005371165
 11.4823226928710920  2.0629522800445557 44.0401268005371165
 11.4798641204833984 11.0943517684936523 44.0401268005371165
  6.5760178565979004  6.9684472084045410 44.0401268005371165
  6.5735583305358887 15.9998464584350586 44.0401268005371165
 15.6064186096191406  6.9684472084045410 44.0401268005371165
 15.6039590835571289 15.9998464584350586 44.0401268005371165
  2.0610768795013428  6.5788145065307617 44.0400009155273509
  2.0586175918579102 15.6102142333984375 44.0400009155273509
 11.0914773941040039  6.5788145065307617 44.0400009155273509
 11.0890178680419922 15.6102142333984375 44.0400009155273509
  6.9668641090393066  2.4525938034057613 44.0400657653808665
  6.9644045829772949 11.4839935302734375 44.0400657653808665
 15.9972639083862305  2.4525938034057613 44.0400657653808665
 15.9948053359985352 11.4839935302734375 44.0400657653808665
  2.4316265583038330  2.0832188129425049 50.0684852600097656
  2.4291670322418213 11.1146183013915998 50.0684852600097656
 11.4620265960693359  2.0832188129425049 50.0684852600097656
 11.4595670700073224 11.1146183013915998 50.0684852600097656
  6.5963144302368164  6.9481806755065918 50.0684852600097656
  6.5938549041748047 15.9795799255371076 50.0684852600097656
 15.6267137527465803  6.9481806755065918 50.0684852600097656
 15.6242542266845703 15.9795799255371076 50.0684852600097656
  2.0811281204223633  6.5990090370178223 50.0690460205078125
  2.0786688327789307 15.6304082870483398 50.0690460205078125
 11.1115283966064453  6.5990090370178223 50.0690460205078125
 11.1090688705444336 15.6304082870483398 50.0690460205078125
  6.9468131065368652  2.4323906898498531 50.0690460205078125
  6.9443535804748535 11.4637899398803711 50.0690460205078125
 15.9772129058837891  2.4323906898498531 50.0690460205078125
 15.9747543334960938 11.4637899398803711 50.0690460205078125
 18.0301974266767537  0.0657649785280228 37.7352523803711009
  0.0859815254807472  9.1148090362548828 37.7556419372558594
  9.1200857162475586  0.0190206430852413 37.8275108337402415
  9.0671262741088867  8.9966516494750977 37.6797676086425781
  4.5497293472290039  4.5002756118774414 37.7607307434082031
  4.5305681228637695 13.6129674911499023 37.6727638244628906
 13.4936351776123047  4.5365023612976074 37.8083686828613281
 13.4165983200073242 13.6552715301513672 37.7160453796386719
  0.0000090280000222  0.0000090310004452 44.0429992675781250
 -0.0024502959568053  9.0314083099365234 44.0429992675781250
  9.0304088592529297  0.0000090310004452 44.0429992675781250
  9.0279493331909180  9.0314083099365234 44.0429992675781250
  4.5139703750610352  4.5156903266906738 44.0427513122558594
  4.5115113258361816 13.5470905303955078 44.0427513122558594
 13.5443706512451172  4.5156903266906738 44.0427513122558594
 13.5419111251831037 13.5470905303955078 44.0427513122558594
  0.0000000000000000  0.0000000000000000 50.4472808837890696
 -0.0024593239650130  9.0313997268676740 50.4472808837890696
  9.0304002761840803  0.0000000000000000 50.4472808837890696
  9.0279407501220685  9.0313997268676740 50.4472808837890696
  4.5139703750610352  4.5156998634338379 50.4472808837890696
  4.5115113258361816 13.5470991134643537 50.4472808837890696
 13.5443706512451172  4.5156998634338379 50.4472808837890696
 13.5419111251831055 13.5470991134643537 50.4472808837890696
