 H  C  N  I Pb 
 1.0000000000000000
    18.0608005523681641    0.0000000000000000    0.0000000000000000
    -0.0049186488613486   18.0627994537353516    0.0000000000000000
     0.0000000000000000    0.0000000000000000   62.4874992370605469
 H   C   N   I   Pb 
 143  39  47  72  24
Cartesian
  7.6477913856506348  4.6841998100280762 36.2815093994140696
  7.4580998420715332 13.2897853851318342 36.0446548461914134
 16.8576831817626953  5.1826400756835938 36.3442039489746165
 17.0354518890380859 14.6629962921142578 36.1762313842773438
  5.6554493904113770  1.1420090198516846 36.1154251098632812
  5.5019006729125977 10.4866590499877930 35.9180603027343750
 14.2555532455444336  1.3767392635345459 36.2900886535644602
  1.9109039306640629  3.6834785938262939 35.2808456420898438
  1.5114078521728509 12.1846342086791992 35.3556327819824219
 10.8996782302856445  3.5588424205780029 35.2279281616210938
 10.9525403976440412 13.4356441497802734 35.1921272277832031
  6.7004032135009766  0.2914756834506988 35.0317955017089844
  4.8162121772766113 11.1186685562133789 34.4716415405273438
 15.5372714996337891  0.9344076514244080 35.2132568359375000
  1.2170066833496118  4.6481952667236328 36.5580825805664062
  0.1235485076904281 12.4697341918945312 36.4096336364746165
  9.6372432708740234  3.2079112529754639 36.3636512756347656
  9.8028812408447266 12.5607957839965820 36.2718467712402344
  4.9348907470703125  8.0749340057373047 36.4435653686523438
  3.1924147605895992  0.5277938842773438 35.9825057983398438
 12.1758569935336709 18.0330713987350464 36.1981239318847656
  7.6332569122314453  5.9471216201782227 35.0702590942382884
  7.0924491882324219 14.4978199005126953 34.8373680114746094
 16.0308113098144531  4.5035848617553711 34.9469223022460938
 17.6722698211669922 15.7461071014404297 34.9513664245605540
  3.8843634128570557  7.2581176757812500 35.3404808044433665
  2.7496132114902134 17.4150056838989293 34.7804145812988352
 12.2388757923617941 16.6704854965209961 35.1023254394531321
  9.6792650222778320  5.2859153747558594 34.2082443237304688
  9.3687772750854492 14.6372671127319336 34.1603393554687500
 17.9603557586669922  3.5748634338378906 34.1128425598144531
  1.2642631530761756 14.2249374389648420 34.2938194274902344
  3.6812961101531978  9.1377515792846680 33.9669342041015696
  4.9441441753879189 17.1352348327636719 34.0617866516113352
 14.3564876774325967 17.1929138302803040 34.3430099487304759
  7.8833599090576163  5.1112809181213379 42.2195892333984375
  7.7754364013671875 14.8303995132446289 41.9758224487304688
 17.5877632200717962  4.9347543716430655 42.6616554260253906
 16.8530967235565186 14.1325101852416992 42.1673889160156321
  5.3429121971130371  0.8378760814666748 42.3156814575195312
  5.3870754241943359  9.9477415084838867 42.1908760070800852
 14.3618755340576172  1.0143389701843262 42.1945915222167969
 14.5842123031616211  9.9591178894042969 42.2817001342773438
  1.5091094970703125  3.0144233703613281 40.2390022277832031
  1.7742547988891602 12.4513998031616211 40.8662338256835938
 10.5026960372924805  3.1543290615081787 40.5788421630859446
 10.1407833099365234 12.2080965042114240 40.9809722900390625
  3.2835295200347900  7.3900008201599121 40.5826835632324219
  3.1130997398868199 16.6436576843261719 40.3632164001464844
 12.1270380020141602  7.7200465202331543 40.7415809631347727
 12.0575088718906045 16.7132638692855835 40.5628890991211009
  1.3023600578308105  3.1965522766113281 41.9635810852050852
  0.6697758436203003 12.3806991577148438 42.2173995971679688
  9.6698999404907227  3.2890605926513672 42.0875511169433594
  9.4508733749389648 12.9672079086303711 42.3984565734863281
  3.8341267108917236  7.8508448600769043 42.1564407348632812
  3.3690201500430703 17.1053513288497925 42.0079803466796875
 12.8420696258544904  8.0368413925170898 42.2704620361328125
 12.4060768345370889 17.3532727360725403 42.1347045898437571
  7.6786723136901855  6.0212144851684570 40.7457046508789062
  7.5151333808898926 15.1765289306640625 40.2911987304687571
 16.8094887733459473  5.7419967651367188 41.2945518493652344
 16.8933286666870153 15.1716775894165039 40.7622566223144531
  6.1101984977722168  1.2791256904602051 40.8473014831542969
  5.6605987548828125 10.6531267166137695 40.6452941894531250
 15.0984191894531250  1.3053164482116699 40.6612854003906250
 14.7735261917114258 10.7519969940185547 40.7197380065918040
 17.9985620081424713  4.5916490554809561 39.7189674377441406
  0.6916420459747314 14.2064237594604492 39.8546295166015696
  9.3306665420532227  4.8659839630126953 39.6137847900390696
  8.9747638702392578 13.5738716125488281 39.5376358032226562
  4.7751054028049111 17.9950870722532272 39.5186271667480469
  4.3843507766723633  9.1204576492309570 39.5092124938964844
 13.7240108707919717 17.9224736839532852 39.5217857360839844
 13.2427453994750977  9.3894739151000977 39.6486854553222727
  8.1032123565673828  5.4420318603515616 48.0459518432617259
  8.1007528305053711 14.4734306335449219 48.0459518432617259
 17.1336116790771484  5.4420318603515616 48.0459518432617259
 17.1311531066894531 14.4734306335449219 48.0459518432617259
  5.4410333633422852  0.9265221953392029 48.0449485778808594
  5.4385743141174316  9.9579219818115234 48.0449485778808594
 14.4714326858520490  0.9265221953392029 48.0449485778808594
 14.4689741134643555  9.9579219818115234 48.0449485778808594
  1.4218254089355467  3.0919990539550781 46.4558296203613281
  1.4193661212921143 12.1233978271484375 46.4558296203613281
 10.4522256851196289  3.0919990539550781 46.4558296203613281
 10.4497661590576172 12.1233978271484375 46.4558296203613281
  3.0899283885955806  7.6075901985168457 46.4545211791992188
  3.0874691009521484 16.6389904022216797 46.4545211791992188
 12.1203289031982422  7.6075901985168457 46.4545211791992188
 12.1178693771362305 16.6389904022216797 46.4545211791992188
  0.9247469902038573  3.5893490314483643 48.0459518432617259
  0.9222877025604248 12.6207475662231445 48.0459518432617259
  9.9551477432250977  3.5893490314483643 48.0459518432617259
  9.9526882171630859 12.6207475662231445 48.0459518432617259
  3.5868983268737793  8.1048498153686523 48.0448913574218821
  3.5844390392303462 17.1362495422363281 48.0448913574218821
 12.6172990798950195  8.1048498153686523 48.0448913574218821
 12.6148395538330078 17.1362495422363281 48.0448913574218821
  7.6061611175537109  5.9393639564514160 46.4558296203613281
  7.6037015914916992 14.9707632064819336 46.4558296203613281
 16.6365604400634766  5.9393639564514160 46.4558296203613281
 16.6341018676757812 14.9707632064819336 46.4558296203613281
  5.9380125999450684  1.4238001108169553 46.4545211791992188
  5.9355530738830566 10.4551992416381836 46.4545211791992188
 14.9684123992919904  1.4238001108169553 46.4545211791992188
 14.9659538269042951 10.4551992416381836 46.4545211791992188
 -0.0011664569610730  4.5157265663146973 45.3548011779785156
 -0.0036257810425013 13.5471258163452148 45.3548011779785156
  9.0292339324951172  4.5157265663146973 45.3548011779785156
  9.0267744064331037 13.5471258163452148 45.3548011779785156
  4.5152091979980469  0.0000000000000000 45.3536758422851562
  4.5127501487731934  9.0313997268676740 45.3536758422851562
 13.5456094741821289  0.0000000000000000 45.3536758422851562
 13.5431499481201172  9.0313997268676740 45.3536758422851562
 14.2119503021240234  9.1875114440917969 32.3719215393066406
 15.7422895431518537  9.1343545913696289 33.2393493652343750
 13.5745277404785156 11.3277797698974609 33.6490287780761719
 13.8644056320190430 11.3196372985839844 35.3779830932617188
 12.2728004455566406  8.1880912780761719 34.8365783691406250
 12.0924615859985334  9.9228076934814453 35.1977348327636790
 14.4355926513671875  7.7354726791381827 35.6535644531250000
 15.6230916976928711  9.0574312210083008 35.6882362365722656
 15.5645017623901367  6.8562040328979492 33.8587951660156250
 13.8190183639526367  6.7973871231079102 33.5909919738769531
 14.0386304855346680  6.8640184402465820 31.2003059387207031
 15.6344261169433594  7.5758337974548340 31.2115745544433594
 16.1105117797851562 11.0179929733276367 33.2948570251464915
 16.3436927795410156 11.0158920288085938 35.0752525329589844
 15.6606969833374023 12.4459686279296875 34.2574043273925781
 10.7764158248901367  9.4325714111328125 33.2940979003906321
 12.0750694274902344  8.7369213104248047 32.3342742919921875
 12.0703229904174787 10.4907598495483398 32.6893310546875000
 13.0420885086059570  8.7195243835449219 37.2590446472167969
 13.5748100280761719 10.3866539001464844 37.0466613769531250
 14.6634454727172852  9.1994619369506836 37.8468475341796875
 15.0659866333007812  4.7460131645202637 32.3181076049804688
 15.2842340469360352  5.0165719985961914 30.6039047241210938
 16.9596481323242188  3.1346695423126221 31.3933620452880859
 17.5788059234619141  7.3279504776000977 32.1591262817382812
  1.3179740905761712  2.7207953929901123 31.4722938537597656
  1.9341678619384766  6.9080209732055655 32.2794837951660156
  2.8618793487548841  4.6471419334411621 31.9665641784668004
 18.0094718933105469  4.1022624969482422 35.0565795898437500
  0.5583705902099598 13.9513692855834961 35.0720214843750000
  9.2552223205566406  4.7287535667419434 35.0448684692382812
  9.0429611206054688 13.9347229003906250 34.9406089782714844
  4.3070497512817383  9.1810073852539062 34.8485527038574219
  4.7378219822421670 17.8498238474130630 34.8490142822265625
 13.8850864628329873 17.8100338578224182 35.1025428771972656
  0.1254142075777054  4.3842134475708008 40.7729759216308594
  0.2890124917030334 13.8080606460571289 40.8013534545898438
  9.0929164886474609  4.5951213836669922 40.6387634277343750
  8.8304080963134766 13.7015666961669922 40.6199531555175781
  4.4717164039611816  9.0199747085571289 40.5904693603515625
  4.6091040829196563 17.9913820400834084 40.6060752868652344
 13.4440755844116193  9.2384748458862287 40.7039070129394531
 13.5841612080112100 18.0378306955099106 40.5947647094726634
  9.0289716720581055  4.5156092643737793 46.4455223083496165
  9.0265130996704102 13.5470085144042969 46.4455223083496165
 18.0593719482421875  4.5156092643737793 46.4455223083496165
 18.0569133758544922 13.5470085144042969 46.4455223083496165
  4.5152091979980469  0.0000180629995157 46.4442062377929759
  4.5127501487731934  9.0314178466796857 46.4442062377929759
 13.5456094741821289  0.0000180629995157 46.4442062377929759
 13.5431499481201172  9.0314178466796857 46.4442062377929759
 17.0611228942871094  5.2409200668334952 31.7377471923828161
 17.6184787750244141  3.9628970623016357 31.5760326385498047
 17.9509696960449219  6.2987794876098633 32.0221481323242259
  0.9398937225341776  3.7365014553070068 31.6282272338867188
  1.2692317962646495  6.0752305984497070 32.0738410949707102
  1.7943592071533212  4.8094959259033203 31.8750762939453161
 14.6919822692871076  8.7779865264892578 33.2729263305664062
 14.2401285171508789 10.9195337295532227 34.4317970275878906
 12.4900236129760742  9.2152986526489258 34.4497756958007812
 14.5541658401489240  8.8338766098022461 35.7374763488769602
 14.7500696182250977  7.2624692916870108 33.2293395996093750
 14.9855794906616193  6.8484792709350586 31.7428283691406286
 15.6817169189453125 11.3491420745849609 34.2557525634765696
 11.8470554351806623  9.4892129898071271 33.1044807434082031
 13.9110021591186523  9.3276805877685547 37.0361480712890625
 15.5735120773315430  5.4328613281250000 31.5905151367187500
  1.0764484405517571  4.0979247093200684 35.7005996704101634
  0.7296199798584000 12.7899904251098633 35.6397323608398438
  9.9326734542846680  3.7283940315246582 35.5516052246093750
  9.9782772064208984 13.1591815948486328 35.4581604003906250
  8.1002855300903320  5.1404228210449219 35.4903831481933594
  7.7784023284912109 13.9131536483764631 35.3184394836425781
 16.8974113464355469  4.6510314941406250 35.4654808044433594
 17.6758575439453125 14.7998828887939453 35.3849143981933594
  4.3625888824462891  8.1158933639526367 35.6049652099609375
  3.4984797695651650 17.9552786499261856 35.2388381958007884
 12.6622537830844522 17.5394200682640076 35.4567985534667969
  5.7290792465209961  0.4805023670196533 35.3434333801269531
  4.9067955017089844 10.3097772598266584 35.1146430969238281
 14.5856151580810547  0.7426681518554688 35.5762062072753906
  1.0377230644226074  3.4661448001861572 41.0252990722656250
  0.9483237266540527 12.8177909851074219 41.3397789001464844
  9.7959089279174805  3.6185274124145508 41.1496238708496165
  9.5338878631591797 12.9112157821655273 41.4131584167480469
  3.8415563106536865  8.0469179153442383 41.1713790893554688
  3.6600698688998818 17.2231068611145020 41.0478591918945312
 12.7671928405761719  8.2775878906250000 41.2894020080566406
 12.6466526249423623 17.3387480974197388 41.1598930358886719
  8.1590690612792969  5.2778267860412598 41.2525787353515625
  7.9954595565795890 14.6257371902465803 41.0089721679687500
 17.4944266080856323  5.0525894165039062 41.6445198059082031
 17.2791477441787720 14.3891706466674805 41.2816619873046875
  5.3711867332458496  0.6988859176635741 41.3213958740234375
  5.2167196273803702  9.9204349517822266 41.1966094970703125
 14.3987245559692383  0.8100863099098204 41.2101898193359375
 14.3302469253540039 10.0396575927734375 41.2879791259765625
  0.8273094892501831  3.6869695186614990 47.0359649658203125
  0.8248501420021057 12.7183685302734375 47.0359649658203125
  9.8577098846435547  3.6869695186614990 47.0359649658203125
  9.8552503585815412 12.7183685302734375 47.0359649658203125
  3.6843190193176270  8.2023353576660156 47.0346527099609375
  3.6818594932556152 17.2337341308593750 47.0346527099609375
 12.7147188186645508  8.2023353576660156 47.0346527099609375
 12.7122592926025391 17.2337341308593750 47.0346527099609375
  8.2006769180297852  5.3445744514465332 47.0360260009765696
  8.1982173919677734 14.3759746551513672 47.0360260009765696
 17.2310771942138672  5.3445744514465332 47.0360260009765696
 17.2286186218261719 14.3759746551513672 47.0360260009765696
  5.3436489105224600  0.8290914893150328 47.0346527099609375
  5.3411893844604483  9.8604917526245117 47.0346527099609375
 14.3740482330322266  0.8290914893150328 47.0346527099609375
 14.3715896606445312  9.8604917526245117 47.0346527099609375
 13.9932289123535156  9.4218559265136719 34.4574775695800781
  9.1497358540073037 17.8213381916284561 34.5999755859375000
  8.2345228195190430  8.6199541091918945 34.6493186950683594
 18.0037756077945232  0.1912347376346588 34.4590492248535156
  0.6423943042755126  8.8682632446289062 34.8546447753906321
  4.4173226356506348  4.4508128166198730 34.7251777648925781
  4.2816224098205566 13.9380321502685547 34.4546470642089844
 13.4353227615356445  4.0842642784118652 34.6540565490722656
 12.9159183502197248 14.2711782455444336 34.0572586059570312
  0.0302317114546895 18.0037900321185589 40.8954811096191406
  0.0100989677011967  9.1273822784423828 41.0045776367187500
  8.9543886184692383  0.0597650445997715 40.9259719848632812
  8.9616689682006836  9.0256881713867188 40.9407539367675852
  4.6030430793762207  4.3176474571228027 40.9706611633300781
  4.5363368988037109 13.6109228134155273 40.8709030151367188
 13.4233341217041016  4.5484900474548340 40.9696388244628977
 13.6565952301025391 13.6419515609741211 40.8485412597656321
  2.6618490219116211  1.9013848304748535 38.1253700256347656
  2.7041022777557373 10.9582529067993164 38.0886497497558594
 11.6825733184814435  1.9262514114379883 38.1488265991210938
 11.0165348052978516 11.5634651184082031 38.4175262451171875
  6.5456624031066895  7.0150709152221680 38.2896575927734375
  6.5184440612792960 16.0617656707763672 38.0195579528808594
 16.0719337463378906  6.5302500724792480 38.5040016174316406
 15.5625066757202148 16.0824680328369141 38.0265502929687500
  2.1226315498352051  6.5162243843078604 38.2843704223632812
  2.1014952659606934 15.7551488876342773 38.0285682678222727
 11.1407251358032227  6.6890282630920410 37.8965759277343750
 11.1849756240844709 15.6449575424194318 38.3102149963378977
  7.1747498512268066  2.5447390079498287 38.0260314941406250
  6.9175176620483398 11.5403108596801758 37.9532089233398438
 16.0037384033203125  2.4700284004211426 38.3317527770996094
 16.5201740264892578 12.0071239471435547 38.3884201049804688
  0.0000000000000000  0.0000000000000000 47.1735610961914062
 -0.0024593239650130  9.0313997268676740 47.1735610961914062
  9.0304002761840803  0.0000000000000000 47.1735610961914062
  9.0279407501220685  9.0313997268676740 47.1735610961914062
  4.5139794349670410  4.5156998634338379 47.1742515563964844
  4.5115203857421875 13.5470991134643537 47.1742515563964844
 13.5443792343139648  4.5156998634338379 47.1742515563964844
 13.5419197082519531 13.5470991134643537 47.1742515563964844
  2.4519233703613277  2.0629522800445557 44.0401268005371165
  2.4494640827178955 11.0943517684936523 44.0401268005371165
 11.4823226928710920  2.0629522800445557 44.0401268005371165
 11.4798641204833984 11.0943517684936523 44.0401268005371165
  6.5760178565979004  6.9684472084045410 44.0401268005371165
  6.5735583305358887 15.9998464584350586 44.0401268005371165
 15.6064186096191406  6.9684472084045410 44.0401268005371165
 15.6039590835571289 15.9998464584350586 44.0401268005371165
  2.0610768795013428  6.5788145065307617 44.0400009155273509
  2.0586175918579102 15.6102142333984375 44.0400009155273509
 11.0914773941040039  6.5788145065307617 44.0400009155273509
 11.0890178680419922 15.6102142333984375 44.0400009155273509
  6.9668641090393066  2.4525938034057613 44.0400657653808665
  6.9644045829772949 11.4839935302734375 44.0400657653808665
 15.9972639083862305  2.4525938034057613 44.0400657653808665
 15.9948053359985352 11.4839935302734375 44.0400657653808665
  2.4316265583038330  2.0832188129425049 50.0684852600097656
  2.4291670322418213 11.1146183013915998 50.0684852600097656
 11.4620265960693359  2.0832188129425049 50.0684852600097656
 11.4595670700073224 11.1146183013915998 50.0684852600097656
  6.5963144302368164  6.9481806755065918 50.0684852600097656
  6.5938549041748047 15.9795799255371076 50.0684852600097656
 15.6267137527465803  6.9481806755065918 50.0684852600097656
 15.6242542266845703 15.9795799255371076 50.0684852600097656
  2.0811281204223633  6.5990090370178223 50.0690460205078125
  2.0786688327789307 15.6304082870483398 50.0690460205078125
 11.1115283966064453  6.5990090370178223 50.0690460205078125
 11.1090688705444336 15.6304082870483398 50.0690460205078125
  6.9468131065368652  2.4323906898498531 50.0690460205078125
  6.9443535804748535 11.4637899398803711 50.0690460205078125
 15.9772129058837891  2.4323906898498531 50.0690460205078125
 15.9747543334960938 11.4637899398803711 50.0690460205078125
 17.9652152210474014  0.1026553362607956 37.7687644958496094
  0.1585340350866318  9.1147699356079102 37.8946723937988281
  9.0604881504550576 17.9718122854828870 37.7147865295410156
  8.9442987442016602  9.0440053939819336 37.6753921508789062
  4.5508570671081534  4.5045752525329590 37.8377952575683594
  4.3846549987792969 13.6773338317871094 37.7195930480957031
 13.5786170959472638  4.6040210723876953 37.8574104309082102
 13.5390625000000000 13.6417512893676740 37.8054580688476562
  0.0000090280000222  0.0000090310004452 44.0429992675781250
 -0.0024502959568053  9.0314083099365234 44.0429992675781250
  9.0304088592529297  0.0000090310004452 44.0429992675781250
  9.0279493331909180  9.0314083099365234 44.0429992675781250
  4.5139703750610352  4.5156903266906738 44.0427513122558594
  4.5115113258361816 13.5470905303955078 44.0427513122558594
 13.5443706512451172  4.5156903266906738 44.0427513122558594
 13.5419111251831037 13.5470905303955078 44.0427513122558594
  0.0000000000000000  0.0000000000000000 50.4472808837890696
 -0.0024593239650130  9.0313997268676740 50.4472808837890696
  9.0304002761840803  0.0000000000000000 50.4472808837890696
  9.0279407501220685  9.0313997268676740 50.4472808837890696
  4.5139703750610352  4.5156998634338379 50.4472808837890696
  4.5115113258361816 13.5470991134643537 50.4472808837890696
 13.5443706512451172  4.5156998634338379 50.4472808837890696
 13.5419111251831055 13.5470991134643537 50.4472808837890696
