 H  C  N  I Pb 
 1.0000000000000000
    18.0608005523681641    0.0000000000000000    0.0000000000000000
    -0.0049186488613486   18.0627994537353516    0.0000000000000000
     0.0000000000000000    0.0000000000000000   62.4874992370605469
 H   C   N   I   Pb 
 143  39  47  72  24
Cartesian
  7.5265417098999023  4.7894539833068848 35.7089576721191477
  7.3913345336914062 12.8897294998168928 35.8603439331054759
 16.6910419464111328  5.0837821960449219 36.3227310180664062
 16.8819751739501953 14.6819591522216797 35.9157638549804688
  5.8370361328125000  1.5177805423736572 35.5996246337890625
  5.6664290428161621 10.4645395278930664 35.6579093933105469
 14.4396734237670898  1.5813971757888794 35.8554077148437571
  1.9611911773681623  4.2868456840515137 35.2445869445800781
  1.4914226531982429 12.2459869384765625 35.5607070922851562
 10.8723297119140625  3.5203306674957275 35.3680992126464915
 10.8600568771362305 13.2924623489379883 34.9831581115722656
  6.8455452919006348  0.2964022159576416 34.8441390991210938
  4.5607957839965820 11.2385511398315430 34.5632667541503906
 15.7593975067138654  0.6721329689025879 35.1264762878417969
  1.0948638916015627  5.1425428390502930 36.4566268920898509
 18.0237293243408203 12.4784984588623029 36.3557281494140625
  9.2930183410644531  3.1051554679870605 35.9699707031250000
  9.8258419036865217 12.3525648117065430 36.0179214477539134
  5.4328904151916504  7.9955425262451172 35.9770507812500000
  3.3706622123718257  1.0617636442184448 35.6357879638671946
 12.1844110488891584  0.4956211745738983 35.7678031921386790
  8.0301065444946289  6.3293790817260742 35.0085334777832102
  6.8867487907409659 14.1516981124877930 34.7846870422363352
 15.9552316665649414  4.1474809646606445 35.0566825866699219
 17.7212009429931641 15.7753133773803711 34.8647689819335938
  4.1238045692443848  7.2228226661682129 35.1273002624511790
  2.8035611370578408 17.7559080719947815 34.7380676269531250
 12.1401418903842568 16.9506164789199829 35.0474929809570312
 10.1558628082275391  5.5899782180786124 34.5931015014648438
  9.1272497177124023 14.5591545104980469 34.1044311523437500
  0.0099048614501959  3.5188717842102046 34.1675376892089844
  1.4201679229736341 14.2947692871093750 34.4710388183593750
  3.3912792205810547  9.2146635055541992 34.1576232910156321
  4.9825801113620392 17.0542690753936768 34.2118034362792969
 14.3783649662509561 16.9495519399642944 34.5432929992675781
  8.2170972824096680  5.1663279533386230 42.2746391296386719
  7.8384585380554199 14.7552947998046875 41.9446792602539134
 17.4530021548271179  5.0536832809448242 42.4835777282714844
 16.6717022657394409 13.6559104919433594 41.9668197631835938
  5.4102044105529785  0.8223087191581726 42.1424255371093750
  5.6370844841003418  9.9534959793090803 42.0607986450195312
 14.3125562667846680  1.0228927135467529 42.2008285522460938
 14.7970571517944336  9.4702806472778320 42.0734558105468750
  1.5736272335052490  3.0357525348663330 40.3795814514160156
  1.8047651052474976 12.4516954421997070 40.7221336364746094
 10.4037752151489258  3.0996050834655762 40.1988372802734375
 10.2712783813476562 12.2160596847534162 40.9164428710937571
  3.2696406841278076  7.4479074478149414 40.8033180236816406
  2.9507357338443398 16.7252871990203857 40.4317245483398438
 11.7618618011474609  8.0854463577270508 40.6125373840332031
 12.1693758228793740 16.5768187046051025 40.6020584106445312
  1.2186825275421143  3.3188815116882324 42.0619316101074290
  0.5154866576194763 12.0100841522216797 41.8048629760742259
  9.8667297363281232  3.2570817470550537 41.8494834899902344
  9.5883951187133789 12.9230499267578125 42.3578529357910227
  3.9512166976928711  8.0037727355957031 42.3069992065429759
  3.3687397697940464 17.2048398852348328 42.0557289123535156
 12.7400732040405273  7.9794178009033194 42.0495300292968750
 12.5599760273471475 17.1750789880752563 42.1932716369628906
  7.8750925064086905  6.1624646186828613 40.9008255004882812
  7.4999837875366211 15.0715599060058594 40.2557945251464844
 16.7588789463043213  5.7814073562622061 41.0572357177734375
 16.8253554105758667 15.0893516540527344 40.9983139038085938
  6.1248497962951660  1.1515715122222900 40.5958862304687500
  5.8326234817504883 10.5401973724365234 40.4247360229492188
 14.9154491424560547  1.4595243930816650 40.6142349243164134
 15.0361824035644531 10.4582004547119141 40.6444206237792969
  0.0078538656234741  4.5712862014770508 39.6190948486328125
  0.7828629612922668 14.4232454299926758 40.0713043212890625
  9.2407760620117188  4.9407615661621085 39.4538230895996094
  9.0154819488525391 13.5142059326171875 39.4786453247070312
  4.6438507298007607 17.8889498114585876 39.4042434692382812
  4.3864965438842773  9.0070877075195312 39.5060539245605469
 13.6419252613559365 17.9829806238412857 39.4959411621093750
 13.0901660919189453  9.6788463592529279 39.6136550903320312
  8.1032123565673828  5.4420318603515616 48.0459518432617259
  8.1007528305053711 14.4734306335449219 48.0459518432617259
 17.1336116790771484  5.4420318603515616 48.0459518432617259
 17.1311531066894531 14.4734306335449219 48.0459518432617259
  5.4410333633422852  0.9265221953392029 48.0449485778808594
  5.4385743141174316  9.9579219818115234 48.0449485778808594
 14.4714326858520490  0.9265221953392029 48.0449485778808594
 14.4689741134643555  9.9579219818115234 48.0449485778808594
  1.4218254089355467  3.0919990539550781 46.4558296203613281
  1.4193661212921143 12.1233978271484375 46.4558296203613281
 10.4522256851196289  3.0919990539550781 46.4558296203613281
 10.4497661590576172 12.1233978271484375 46.4558296203613281
  3.0899283885955806  7.6075901985168457 46.4545211791992188
  3.0874691009521484 16.6389904022216797 46.4545211791992188
 12.1203289031982422  7.6075901985168457 46.4545211791992188
 12.1178693771362305 16.6389904022216797 46.4545211791992188
  0.9247469902038573  3.5893490314483643 48.0459518432617259
  0.9222877025604248 12.6207475662231445 48.0459518432617259
  9.9551477432250977  3.5893490314483643 48.0459518432617259
  9.9526882171630859 12.6207475662231445 48.0459518432617259
  3.5868983268737793  8.1048498153686523 48.0448913574218821
  3.5844390392303462 17.1362495422363281 48.0448913574218821
 12.6172990798950195  8.1048498153686523 48.0448913574218821
 12.6148395538330078 17.1362495422363281 48.0448913574218821
  7.6061611175537109  5.9393639564514160 46.4558296203613281
  7.6037015914916992 14.9707632064819336 46.4558296203613281
 16.6365604400634766  5.9393639564514160 46.4558296203613281
 16.6341018676757812 14.9707632064819336 46.4558296203613281
  5.9380125999450684  1.4238001108169553 46.4545211791992188
  5.9355530738830566 10.4551992416381836 46.4545211791992188
 14.9684123992919904  1.4238001108169553 46.4545211791992188
 14.9659538269042951 10.4551992416381836 46.4545211791992188
 -0.0011664569610730  4.5157265663146973 45.3548011779785156
 -0.0036257810425013 13.5471258163452148 45.3548011779785156
  9.0292339324951172  4.5157265663146973 45.3548011779785156
  9.0267744064331037 13.5471258163452148 45.3548011779785156
  4.5152091979980469  0.0000000000000000 45.3536758422851562
  4.5127501487731934  9.0313997268676740 45.3536758422851562
 13.5456094741821289  0.0000000000000000 45.3536758422851562
 13.5431499481201172  9.0313997268676740 45.3536758422851562
 14.3971109390258789  9.2319688796997070 32.2257385253906250
 15.8508300781250000  9.0688858032226545 33.2635383605957031
 13.7549228668212891 11.3146305084228516 33.3947715759277344
 13.8523502349853498 11.3619718551635742 35.1496200561523438
 12.3595495223999023  8.1502962112426758 34.5179748535156250
 12.1227321624755859  9.8352479934692383 35.0180015563964844
 14.4520559310913086  7.7255678176879883 35.5222587585449290
 15.6671190261840803  9.0293540954589844 35.5890731811523438
 15.5342826843261719  6.8112034797668457 33.7292900085449219
 13.7911815643310547  6.8214068412780762 33.4348106384277344
 14.0655183792114240  6.8796496391296387 31.0427188873291016
 15.7323608398437500  7.4402623176574707 31.1278781890869141
 16.2162132263183594 11.1428794860839844 33.1815834045410156
 16.4350757598876953 10.9607696533203125 34.9269218444824219
 15.7638654708862287 12.4721431732177734 34.2558898925781250
 10.8309860229492188  9.3590002059936523 33.0326919555664134
 12.2235336303710920  8.8315038681030273 32.1016845703125000
 12.0702209472656250 10.5584363937377930 32.5547409057617188
 12.8936681747436523  9.0334358215332031 36.9466285705566406
 14.0170087814331055 10.4335613250732404 36.9831504821777344
 14.4859542846679688  8.9049482345581055 37.7036094665527344
 14.8813571929931641  4.6629467010498038 32.1177101135253906
 15.2580842971801758  4.9590930938720703 30.4176101684570312
 16.7417011260986328  2.9492378234863281 31.1400241851806676
 17.5410461425781250  7.0316996574401847 32.2951774597167969
  1.0899982452392589  2.4155340194702148 31.3965911865234375
  1.8672752380371112  6.4974775314331055 32.5495643615722727
  2.7149333953857453  4.1995196342468262 32.0515403747558665
 18.0033302307128906  4.1670532226562500 35.0511093139648509
  0.5792179107666010 13.9916515350341797 35.1014785766601562
  9.4422292709350586  4.9127001762390137 35.0652923583984375
  8.8952093124389648 13.7517814636230469 34.8033332824707031
  4.2753653526306152  9.2190179824829102 34.8015747070312571
  4.8399337986484170 17.9935293495655060 34.7444038391113281
 13.9498686054721475 17.8268494307994843 35.0325241088867188
  0.1373493522405624  4.4021978378295898 40.6880187988281321
  0.2875512242317199 13.7706327438354492 40.8063888549804688
  9.1414785385131818  4.6379890441894531 40.5132827758789062
  8.8952713012695312 13.6534557342529297 40.5694389343261719
  4.5526909828186035  8.9830074310302734 40.5949592590332031
  4.5225056866183877 17.9641564711928368 40.5029220581054759
 13.3818483352661133  9.2740573883056641 40.5911521911621094
 13.5452055195346475 18.0396999008953571 40.5958938598632812
  9.0289716720581055  4.5156092643737793 46.4455223083496165
  9.0265130996704102 13.5470085144042969 46.4455223083496165
 18.0593719482421875  4.5156092643737793 46.4455223083496165
 18.0569133758544922 13.5470085144042969 46.4455223083496165
  4.5152091979980469  0.0000180629995157 46.4442062377929759
  4.5127501487731934  9.0314178466796857 46.4442062377929759
 13.5456094741821289  0.0000180629995157 46.4442062377929759
 13.5431499481201172  9.0314178466796857 46.4442062377929759
 16.9652957916259766  5.0232810974121094 31.6787033081054688
 17.4378948211669922  3.7274188995361328 31.4496631622314453
 17.8849449157714844  6.0133414268493652 32.0836143493652344
  0.7365493774414056  3.4225902557373047 31.6062927246093750
  1.1841526031494127  5.7106208801269531 32.2190551757812571
  1.6466464996337875  4.4154186248779297 31.9685211181640661
 14.8063678741455078  8.7601118087768555 33.1417465209960938
 14.3232288360595703 10.9362621307373047 34.2532806396484375
 12.5477972030639648  9.2010622024536133 34.2305030822753906
 14.5868539810180664  8.8231439590454102 35.5967788696289062
 14.7525081634521484  7.2232289314270020 33.0688629150390625
 15.0069284439086914  6.7679634094238281 31.6131134033203125
 15.7746400833129865 11.3792324066162092 34.1563186645507812
 11.9101562500000000  9.5212059020996076 32.8930282592773438
 13.9317502975463867  9.3445577621459961 36.8586959838867188
 15.4791994094848633  5.3066639900207520 31.4461460113525391
  1.0583114624023422  4.5153994560241699 35.6386909484863281
  0.6501388549804689 12.8011598587036133 35.6539573669433665
  9.8754787445068359  3.7302765846252441 35.4276657104492188
  9.8947839736938477 13.0225534439086914 35.2389106750488281
  8.2186374664306641  5.3422212600708008 35.2135276794433665
  7.6412806510925284 13.5838661193847656 35.1685333251953196
 16.8113613128662109  4.5548481941223145 35.4536323547363281
 17.6096248626708984 14.8109169006347656 35.2019271850586009
  4.6349830627441406  8.0804338455200195 35.3430328369140625
  3.6127085685729980  0.2626384794712067 35.0319786071777344
 12.6594890812411904 17.8187364041805267 35.2465476989746094
  5.8916296958923340  0.6544985771179199 35.0389900207519531
  4.8925776481628418 10.3563690185546875 34.9975357055664062
 14.7509870529174805  0.7505446076393127 35.3445396423339844
  1.0312293767929077  3.5274333953857422 41.0767860412597727
  0.8958866596221923 12.6654653549194336 41.1313476562500000
  9.8320941925048828  3.5893468856811523 40.8834190368652344
  9.6394748687744141 12.8945474624633771 41.3563003540039134
  3.8997483253479004  8.0987291336059570 41.3019294738769531
  3.5627848366275430 17.2776450514793396 41.0585250854492259
 12.5844631195068359  8.3794450759887695 41.1266098022460938
 12.7173103550449014 17.2241088151931763 41.1939849853515625
  8.3653078079223633  5.3606152534484863 41.2919731140136719
  8.0280532836914062 14.5545301437377912 40.9644584655761719
 17.4312345385551488  5.1149921417236328 41.4648666381835938
 17.1990439891815186 14.1870470046997070 41.2854690551757812
  5.3851776123046875  0.6581035256385803 41.1416130065917969
  5.3976202011108390  9.8798065185546875 41.0728073120117188
 14.3089790344238281  0.8791079521179199 41.1944389343261719
 14.4857149124145508  9.7418527603149414 41.1352462768554688
  0.8273094892501831  3.6869695186614990 47.0359649658203125
  0.8248501420021057 12.7183685302734375 47.0359649658203125
  9.8577098846435547  3.6869695186614990 47.0359649658203125
  9.8552503585815412 12.7183685302734375 47.0359649658203125
  3.6843190193176270  8.2023353576660156 47.0346527099609375
  3.6818594932556152 17.2337341308593750 47.0346527099609375
 12.7147188186645508  8.2023353576660156 47.0346527099609375
 12.7122592926025391 17.2337341308593750 47.0346527099609375
  8.2006769180297852  5.3445744514465332 47.0360260009765696
  8.1982173919677734 14.3759746551513672 47.0360260009765696
 17.2310771942138672  5.3445744514465332 47.0360260009765696
 17.2286186218261719 14.3759746551513672 47.0360260009765696
  5.3436489105224600  0.8290914893150328 47.0346527099609375
  5.3411893844604483  9.8604917526245117 47.0346527099609375
 14.3740482330322266  0.8290914893150328 47.0346527099609375
 14.3715896606445312  9.8604917526245117 47.0346527099609375
 14.0585517883300781  9.4277343750000000 34.2963562011718750
  9.1880697468295693 17.6734502315521240 34.6150550842285156
  8.2904996871948242  8.8818950653076172 34.6527824401855540
  0.0907562822103500  0.2115768194198608 34.5031623840332031
  0.6553561687469482  8.9496917724609375 34.6770210266113281
  4.5717549324035645  4.4113392829895020 34.6901550292968750
  4.2385721206665039 13.9865722656249982 34.4317398071289062
 13.3615407943725568  3.9918162822723389 34.7113761901855540
 12.9857683181762695 14.3900690078735352 34.4965019226074290
 17.9490695083513891 17.8293261229991913 40.9055862426757812
  0.0601712539792061  9.0580425262451172 40.9566192626953125
  8.9826068878173828  0.0764421597123146 40.9138107299804688
  8.9600105285644531  9.0787563323974609 40.9319229125976562
  4.7147455215454102  4.2827582359313965 40.9668540954589844
  4.4672265052795410 13.6094141006469727 40.8600540161132812
 13.3947343826293945  4.6355872154235840 40.9721145629882812
 13.5864315032958984 13.4838905334472656 40.8439407348632812
  2.5733926296234131  2.0368487834930420 38.0598297119140625
  2.5910332202911377 11.0327701568603516 38.0883026123046875
 11.6160507202148420  1.9528105258941650 38.0517120361328125
 11.0805110931396484 11.4473333358764648 38.2006492614746094
  6.6233444213867188  6.9670610427856445 38.2159843444824219
  6.5818800926208496 16.0018615722656250 37.9406242370605469
 16.0629558563232422  6.5243430137634277 38.4002838134765625
 15.6329870223999023 16.0385780334472656 37.9189186096191406
  2.2253158092498779  6.6497731208801270 38.2990112304687500
  2.1344475746154785 15.8129148483276367 37.9087562561035156
 11.1890134811401367  6.7317795753479004 37.7445144653320384
 11.2078771591186523 15.6651306152343750 38.2581253051757884
  7.2380728721618652  2.6101467609405518 37.7674942016601634
  6.7859773635864258 11.4304122924804688 37.9345436096191406
 15.9690227508544922  2.4452373981475830 38.3005447387695384
 16.3826370239257812 11.8349227905273438 38.2670326232910156
  0.0000000000000000  0.0000000000000000 47.1735610961914062
 -0.0024593239650130  9.0313997268676740 47.1735610961914062
  9.0304002761840803  0.0000000000000000 47.1735610961914062
  9.0279407501220685  9.0313997268676740 47.1735610961914062
  4.5139794349670410  4.5156998634338379 47.1742515563964844
  4.5115203857421875 13.5470991134643537 47.1742515563964844
 13.5443792343139648  4.5156998634338379 47.1742515563964844
 13.5419197082519531 13.5470991134643537 47.1742515563964844
  2.4519233703613277  2.0629522800445557 44.0401268005371165
  2.4494640827178955 11.0943517684936523 44.0401268005371165
 11.4823226928710920  2.0629522800445557 44.0401268005371165
 11.4798641204833984 11.0943517684936523 44.0401268005371165
  6.5760178565979004  6.9684472084045410 44.0401268005371165
  6.5735583305358887 15.9998464584350586 44.0401268005371165
 15.6064186096191406  6.9684472084045410 44.0401268005371165
 15.6039590835571289 15.9998464584350586 44.0401268005371165
  2.0610768795013428  6.5788145065307617 44.0400009155273509
  2.0586175918579102 15.6102142333984375 44.0400009155273509
 11.0914773941040039  6.5788145065307617 44.0400009155273509
 11.0890178680419922 15.6102142333984375 44.0400009155273509
  6.9668641090393066  2.4525938034057613 44.0400657653808665
  6.9644045829772949 11.4839935302734375 44.0400657653808665
 15.9972639083862305  2.4525938034057613 44.0400657653808665
 15.9948053359985352 11.4839935302734375 44.0400657653808665
  2.4316265583038330  2.0832188129425049 50.0684852600097656
  2.4291670322418213 11.1146183013915998 50.0684852600097656
 11.4620265960693359  2.0832188129425049 50.0684852600097656
 11.4595670700073224 11.1146183013915998 50.0684852600097656
  6.5963144302368164  6.9481806755065918 50.0684852600097656
  6.5938549041748047 15.9795799255371076 50.0684852600097656
 15.6267137527465803  6.9481806755065918 50.0684852600097656
 15.6242542266845703 15.9795799255371076 50.0684852600097656
  2.0811281204223633  6.5990090370178223 50.0690460205078125
  2.0786688327789307 15.6304082870483398 50.0690460205078125
 11.1115283966064453  6.5990090370178223 50.0690460205078125
 11.1090688705444336 15.6304082870483398 50.0690460205078125
  6.9468131065368652  2.4323906898498531 50.0690460205078125
  6.9443535804748535 11.4637899398803711 50.0690460205078125
 15.9772129058837891  2.4323906898498531 50.0690460205078125
 15.9747543334960938 11.4637899398803711 50.0690460205078125
 18.0595480822958052  0.1311223208904266 37.8041267395019531
  0.1330200582742691  9.0920658111572266 37.8111915588378977
  9.0559362629428506 17.9628486111760139 37.7554054260253906
  8.9761142730712891  9.0227527618408203 37.7250785827636790
  4.5824203491210938  4.5437822341918945 37.8513603210449219
  4.4017839431762695 13.6710014343261701 37.7304496765136719
 13.5417699813842773  4.5435805320739746 37.8955307006835938
 13.5250797271728516 13.6991729736328125 37.6791381835937500
  0.0000090280000222  0.0000090310004452 44.0429992675781250
 -0.0024502959568053  9.0314083099365234 44.0429992675781250
  9.0304088592529297  0.0000090310004452 44.0429992675781250
  9.0279493331909180  9.0314083099365234 44.0429992675781250
  4.5139703750610352  4.5156903266906738 44.0427513122558594
  4.5115113258361816 13.5470905303955078 44.0427513122558594
 13.5443706512451172  4.5156903266906738 44.0427513122558594
 13.5419111251831037 13.5470905303955078 44.0427513122558594
  0.0000000000000000  0.0000000000000000 50.4472808837890696
 -0.0024593239650130  9.0313997268676740 50.4472808837890696
  9.0304002761840803  0.0000000000000000 50.4472808837890696
  9.0279407501220685  9.0313997268676740 50.4472808837890696
  4.5139703750610352  4.5156998634338379 50.4472808837890696
  4.5115113258361816 13.5470991134643537 50.4472808837890696
 13.5443706512451172  4.5156998634338379 50.4472808837890696
 13.5419111251831055 13.5470991134643537 50.4472808837890696
