 H  C  N  I Pb 
 1.0000000000000000
    18.0608005523681641    0.0000000000000000    0.0000000000000000
    -0.0049186488613486   18.0627994537353516    0.0000000000000000
     0.0000000000000000    0.0000000000000000   62.4874992370605469
 H   C   N   I   Pb 
 143  39  47  72  24
Cartesian
  7.9970712661743164  5.8938584327697754 35.5865898132324219
  7.5750722885131836 14.9571018218994141 35.5715942382812500
 17.4336795806884766  5.8085908889770508 36.1591415405273438
 17.1250839233398438 14.6774597167968750 36.0139007568359446
  5.8663100460544229 17.2230787277221680 35.7787246704101634
  6.1803088188171387 10.1679658889770508 35.4841308593750071
 14.4543466567993164  1.4272860288619995 35.9396781921386719
  0.3345432281494160  2.4814696311950684 35.0982971191406250
  1.1625442504882821 11.7687988281249982 35.4528427124023438
 10.1198978424072266  3.1366240978240967 34.5908966064453196
  9.2409248352050781 11.7570075988769531 35.1654129028320384
  6.5457530021667480  0.3808175921440125 34.7495346069336009
  5.1484260559082031 11.3645792007446289 34.7317886352539062
 15.7439708709716797  0.4176814854145050 35.2989349365234446
 17.5602226257324219  3.3570821285247803 36.3419151306152344
 17.9948902130126953 12.3902654647827148 36.5027656555175781
 10.1253614425659180  4.6311879158020020 35.5113830566406321
  7.9052257537841797 12.5173950195312500 35.9827690124511790
  5.1832494735717773  7.8965935707092285 35.8505592346191406
  3.4373616436496373 16.8180282115936279 35.6670570373535156
 12.1483259201049805  0.5386909246444702 35.7210807800293040
  6.6245141029357910  5.1359071731567383 34.8142738342285156
  8.7692184448242188 15.7790746688842773 34.6197853088378906
  0.3557128906249998  6.5647978782653809 34.9382247924804688
 17.9504528045654297 15.5646743774414062 34.7667465209960938
  3.5716950893402100  7.6648983955383301 35.2368888854980540
  2.4769281605258584 17.8943529576063156 34.6875915527343750
 12.0078195789828897 16.9858466386795044 35.0475273132324219
  7.8571367263793936  3.3283877372741699 34.0596160888671875
  9.9880580902099609 13.8101119995117188 34.2430915832519602
  1.0011329650878904  4.4835643768310547 34.0227470397949219
  1.3165340423583967 13.7928972244262695 34.2266044616699219
  3.3857419490814209  9.8132495880126953 34.4558181762695312
  4.3953671455383301  1.0430282354354858 33.9928779602050781
 14.2575420597568154 16.7795687913894653 34.6685409545898438
  8.7070751190185547  6.0465474128723145 41.7570457458496165
  7.9515132904052734 14.7033710479736328 42.0801048278808594
 17.4766002893447876  5.0619239807128906 42.4365463256836009
 16.6621663570404053 13.2583656311035156 42.0477104187011719
  5.6260504722595206  0.9563950896263123 41.8989791870117188
  5.4018144607543945  9.9389944076538086 42.2240066528320312
 14.2963504791259766  1.1211409568786621 42.1963043212890696
 13.7648420333862305 10.7603216171264648 41.4948959350585938
  1.5194499492645264  2.9591691493988033 40.3145217895507812
  1.9539388418197632 12.9349670410156250 40.7042579650878977
 10.5260553359985352  3.1439151763916016 40.5822906494140625
 10.2147808074951154 12.1218929290771484 40.7610473632812571
  3.3014891147613521  7.4886102676391602 40.4539947509765625
  3.0837327698245645 16.6523842811584473 40.6430664062500000
 12.8084220886230451  7.2654733657836905 41.3535041809082031
 12.2445444324985147 16.5583751201629639 40.6494331359863352
  1.1677041053771973  3.1947464942932129 42.0065383911132812
  0.9194533228874207 12.2439012527465820 41.9168052673339844
 10.7709999084472656  4.6510581970214844 41.3809738159179759
  9.5752429962158203 12.6799917221069336 42.2836074829101634
  3.6300795078277588  8.0413236618041992 42.0874710083007812
  3.7293030479922891 17.2370470166206360 42.1575355529785156
 12.2533712387084943  8.8249273300170898 41.9331550598144531
 12.4867386082187295 17.3130399584770203 42.1984825134277344
  7.1997022628784180  5.3252854347229004 41.2177429199218750
  7.6999549865722647 15.2404460906982422 40.4523773193359375
 16.8984891176223755  5.8749508857727051 41.0207901000976634
 16.3158534765243530 14.5045976638793945 40.8874816894531250
  6.0062522888183594  1.3427066802978516 40.2442512512207031
  6.0075154304504395 10.4650993347167969 40.6769638061523438
 15.0410737991332990  1.4000601768493652 40.6461677551269531
 15.1487493515014648 10.4541378021240234 40.4806022644043040
  0.1067692041397095  4.6284737586975098 39.5609207153320312
  0.3407911956310272 14.4188461303710938 39.9275856018066406
  8.2530641555786133  3.4601740837097168 40.3180160522460938
  9.0892162322998047 13.6812229156494141 39.5005455017089844
  4.4459580639377236 17.9637839645147324 39.3365631103515625
  4.7297043800354004  8.9623460769653320 39.4566955566406250
 13.8500551441684365 17.8277409523725510 39.5633239746093750
 14.6676635742187500  8.1786813735961914 40.2949447631835938
  8.1032123565673828  5.4420318603515616 48.0459518432617259
  8.1007528305053711 14.4734306335449219 48.0459518432617259
 17.1336116790771484  5.4420318603515616 48.0459518432617259
 17.1311531066894531 14.4734306335449219 48.0459518432617259
  5.4410333633422852  0.9265221953392029 48.0449485778808594
  5.4385743141174316  9.9579219818115234 48.0449485778808594
 14.4714326858520490  0.9265221953392029 48.0449485778808594
 14.4689741134643555  9.9579219818115234 48.0449485778808594
  1.4218254089355467  3.0919990539550781 46.4558296203613281
  1.4193661212921143 12.1233978271484375 46.4558296203613281
 10.4522256851196289  3.0919990539550781 46.4558296203613281
 10.4497661590576172 12.1233978271484375 46.4558296203613281
  3.0899283885955806  7.6075901985168457 46.4545211791992188
  3.0874691009521484 16.6389904022216797 46.4545211791992188
 12.1203289031982422  7.6075901985168457 46.4545211791992188
 12.1178693771362305 16.6389904022216797 46.4545211791992188
  0.9247469902038573  3.5893490314483643 48.0459518432617259
  0.9222877025604248 12.6207475662231445 48.0459518432617259
  9.9551477432250977  3.5893490314483643 48.0459518432617259
  9.9526882171630859 12.6207475662231445 48.0459518432617259
  3.5868983268737793  8.1048498153686523 48.0448913574218821
  3.5844390392303462 17.1362495422363281 48.0448913574218821
 12.6172990798950195  8.1048498153686523 48.0448913574218821
 12.6148395538330078 17.1362495422363281 48.0448913574218821
  7.6061611175537109  5.9393639564514160 46.4558296203613281
  7.6037015914916992 14.9707632064819336 46.4558296203613281
 16.6365604400634766  5.9393639564514160 46.4558296203613281
 16.6341018676757812 14.9707632064819336 46.4558296203613281
  5.9380125999450684  1.4238001108169553 46.4545211791992188
  5.9355530738830566 10.4551992416381836 46.4545211791992188
 14.9684123992919904  1.4238001108169553 46.4545211791992188
 14.9659538269042951 10.4551992416381836 46.4545211791992188
 -0.0011664569610730  4.5157265663146973 45.3548011779785156
 -0.0036257810425013 13.5471258163452148 45.3548011779785156
  9.0292339324951172  4.5157265663146973 45.3548011779785156
  9.0267744064331037 13.5471258163452148 45.3548011779785156
  4.5152091979980469  0.0000000000000000 45.3536758422851562
  4.5127501487731934  9.0313997268676740 45.3536758422851562
 13.5456094741821289  0.0000000000000000 45.3536758422851562
 13.5431499481201172  9.0313997268676740 45.3536758422851562
 13.9931430816650373 10.0257225036621094 32.5157546997070384
 13.0214271545410156  8.5920209884643555 32.8366737365722656
 15.7377319335937500  9.0481128692626953 33.8409729003906250
 15.4621143341064453  8.6959686279296875 35.5288276672363281
 13.4243631362915039 11.5637235641479492 34.9609336853027344
 14.5663967132568342 10.8139581680297852 36.1013641357421946
 12.0549955368041992  9.9184980392456055 35.6236152648925852
 12.2148380279541016  8.2593040466308594 35.0492668151855469
 11.1291227340698224  9.9979944229125959 33.6055450439453125
 12.1170225143432617 11.4724779129028320 33.4783287048339915
 10.9511470794677717 11.6353168487548828 31.5351390838623082
 12.3988609313964826 10.8489103317260724 30.9397106170654332
 14.3104190826415998  7.0615320205688477 33.1579666137695384
 14.0334501266479492  6.6810193061828613 34.8443336486816406
 15.6538400650024414  6.6256527900695801 34.1771278381347656
 15.6065549850463867 12.5477113723754883 34.7398414611816406
 15.2641525268554688 11.6964292526245117 33.2292747497558594
 16.3899669647216797 10.9776601791381836 34.4217185974121165
 13.6940164566040039  9.5431394577026367 37.4802360534667969
 14.0279388427734375  7.8965764045715332 36.8923377990722727
 12.4195022583007795  8.3454504013061523 37.4680557250976634
  9.6496372222900391  9.5656967163085920 31.4633045196533203
 10.4018640518188477  9.8800878524780273 29.8913669586181641
 12.5435295104980451  8.5904483795166016 29.2508602142333984
 10.1409187316894531  7.5798931121826172 32.7115402221679759
 13.7356166839599609  6.4147667884826660 29.4558410644531286
 11.3718366622924805  5.4096665382385254 32.9016265869140696
 13.1703920364379883  4.8345975875854492 31.3130474090576207
  0.3702049255371112  4.5169959068298340 34.9125633239746094
  0.5795803070068385 13.6781120300292969 35.0227928161621165
  8.3560438156127930  4.1273808479309082 34.6149673461914062
  9.0602626800537109 13.7730646133422852 34.8268737792968750
  4.3323116302490234  9.5057744979858398 34.9071578979492259
  4.4983582496643066  0.1859302371740341 34.6568756103515625
 13.8852075794711709 17.7018913328647614 35.1269912719726562
  0.1768362522125244  4.4178180694580078 40.6437110900878906
  0.1048495173454285 13.7399282455444336 40.7562141418457031
  8.8416528701782227  4.2202091217041016 40.8378334045410156
  8.9569606781005859 13.6875209808349609 40.5759582519531250
  4.6581354141235352  8.9778289794921875 40.5497512817382884
  4.5406865337863564 18.0318003892898560 40.4285354614257812
 13.9979553222656232  8.8276376724243164 40.8701095581054688
 13.6488098362460732 18.0009815916419029 40.6281433105468750
  9.0289716720581055  4.5156092643737793 46.4455223083496165
  9.0265130996704102 13.5470085144042969 46.4455223083496165
 18.0593719482421875  4.5156092643737793 46.4455223083496165
 18.0569133758544922 13.5470085144042969 46.4455223083496165
  4.5152091979980469  0.0000180629995157 46.4442062377929759
  4.5127501487731934  9.0314178466796857 46.4442062377929759
 13.5456094741821289  0.0000180629995157 46.4442062377929759
 13.5431499481201172  9.0314178466796857 46.4442062377929759
 11.2623147964477539  8.2475891113281250 30.9806900024414098
 12.2708196640014631  7.8884663581848145 30.0636177062988281
 10.9233360290527344  7.3204035758972168 31.9867534637451207
 12.9543266296386701  6.6784958839416495 30.1814517974853516
 11.6114711761474609  6.1082277297973633 32.0982284545898438
 12.6386966705322266  5.7884826660156250 31.2038669586181641
 13.2050504684448242  9.6290979385375977 33.1587104797363352
 15.0151576995849609  8.6076984405517578 34.5302429199218750
 14.3033218383789062 10.9212150573730469 35.0380134582519531
 12.7643499374389648  9.0870628356933594 35.5235214233398438
 11.9459657669067383 10.4674892425537092 33.0351028442382812
 11.5116777420043945 10.7020254135131836 31.5729522705078161
 14.7105922698974609  7.1823115348815918 34.1664466857910156
 15.4653091430664062 11.5497264862060529 34.2965812683105469
 13.2784643173217773  8.7042360305786133 36.8977622985839844
 10.6251773834228516  9.6060876846313477 30.9407405853271520
  0.0804443359375007  3.3949446678161617 35.4923782348632812
  0.5887775421142577 12.5690765380859375 35.7256317138671875
  9.6402769088745117  3.9941940307617188 34.8603477478027344
  8.6980419158935547 12.6119880676269531 35.3323631286621094
  7.6340446472167960  5.1524357795715323 34.9822273254394602
  8.3806219100952148 14.8945159912109375 34.9616889953613281
 18.0401229858398438  5.6951813697814941 35.3331489562988281
 17.8109245300292969 14.6708993911743146 35.2405395507812500
  4.4059276580810547  8.2485580444335938 35.2809295654296875
  3.4147667149081826 17.5764219760894775 34.9793434143066406
 12.5904630878940225 17.8187973201274872 35.2483901977539062
  5.6879314640536904 17.9559501260519028 35.0936965942382812
  5.2916126251220703 10.3821172714233398 35.0397796630859375
 14.7480211257934570  0.5516440272331238 35.5075683593750071
  0.9999657869338989  3.4580154418945312 41.0305480957031250
  1.0363773107528687 12.8982362747192383 41.1508598327636790
 10.1275281906127912  3.9883365631103511 40.9535408020019602
  9.6107587814331055 12.7855548858642578 41.2659912109375000
  3.8215320110321045  8.1141576766967773 41.0843772888183594
  3.7419499615207314 17.2772963643074036 41.1424179077148438
 12.9352340698242170  8.2880296707153320 41.4046897888183594
 12.7471737125888467 17.2563147544860840 41.2180290222167969
  8.2214508056640625  5.2860321998596191 41.2724342346191406
  8.1659870147705078 14.5988512039184570 41.0835990905761719
 17.4976609945297241  5.1498866081237793 41.4211692810058594
 16.9840070009231603 13.8604145050048828 41.2950859069824219
  5.4459719657897949  0.8018779158592224 40.9048118591308594
  5.3960151672363281  9.8321685791015625 41.2148857116699219
 14.3672847747802734  0.8802295327186584 41.2046432495117259
 14.3251791000366211 10.1032257080078125 40.9644203186035156
  0.8273094892501831  3.6869695186614990 47.0359649658203125
  0.8248501420021057 12.7183685302734375 47.0359649658203125
  9.8577098846435547  3.6869695186614990 47.0359649658203125
  9.8552503585815412 12.7183685302734375 47.0359649658203125
  3.6843190193176270  8.2023353576660156 47.0346527099609375
  3.6818594932556152 17.2337341308593750 47.0346527099609375
 12.7147188186645508  8.2023353576660156 47.0346527099609375
 12.7122592926025391 17.2337341308593750 47.0346527099609375
  8.2006769180297852  5.3445744514465332 47.0360260009765696
  8.1982173919677734 14.3759746551513672 47.0360260009765696
 17.2310771942138672  5.3445744514465332 47.0360260009765696
 17.2286186218261719 14.3759746551513672 47.0360260009765696
  5.3436489105224600  0.8290914893150328 47.0346527099609375
  5.3411893844604483  9.8604917526245117 47.0346527099609375
 14.3740482330322266  0.8290914893150328 47.0346527099609375
 14.3715896606445312  9.8604917526245117 47.0346527099609375
 13.8285980224609375  9.5570259094238281 34.5487937927246094
  9.1335134506225586  0.3608348667621613 34.4680442810058665
  8.5865440368652344  9.0358371734619141 34.6931228637695312
 18.0604643142141867  0.0333471633493900 34.3579330444336009
  0.7176990509033203  9.0979537963867188 34.5488319396972656
  4.1603951454162598  4.3409514427185059 34.4920501708984375
  4.4885573387145996 13.8960380554199219 34.6009407043457031
 13.2856540679931623  3.6547391414642330 34.6996765136718821
 12.7408008575439435 14.3093166351318359 34.5142784118652344
  0.0311405668035150 17.7363554537296295 40.8647956848144602
  0.1192000508308411  8.9483156204223633 40.9451599121093750
  9.0734624862670898  0.2199919372797012 40.8906936645507812
  9.3053827285766602  8.8105888366699219 40.9326133728027344
  4.6990723609924316  4.4311499595642090 40.8988494873046875
  4.5214877128601074 13.6442546844482422 40.9071540832519531
 13.6241865158081055  4.7479686737060547 40.9104309082031250
 13.4407110214233398 13.6325025558471680 40.8721656799316406
  2.4296350479125977  1.9403798580169678 37.9968452453613281
  2.6684453487396240 10.9651823043823242 38.1241836547851562
 11.7117013931274414  1.9039106369018555 38.1532440185546875
 11.1473703384399414 11.4339408874511719 38.2734375000000000
  6.5016951560974121  6.9342708587646484 37.8816032409667969
  6.7059535980224609 15.9429607391357422 37.9765319824218750
 16.1199131011962891  6.5741014480590820 38.2608680725097656
 15.7548656463623047 15.7202301025390607 37.9536857604980540
  2.2547905445098877  6.5788350105285645 38.1384658813476562
  2.2561194896697998 15.7384405136108398 37.9138412475585938
 10.5630607604980469  6.0084948539733887 37.6466026306152344
 11.1390295028686523 15.7697381973266602 38.1962623596191406
  6.9775729179382315  2.4291388988494873 37.8749084472656250
  6.9299459457397452 11.3467836380004883 38.2159805297851562
 16.0085372924804688  2.4411323070526123 38.2375984191894602
 16.3411369323730469 11.5700645446777344 38.3100051879882812
  0.0000000000000000  0.0000000000000000 47.1735610961914062
 -0.0024593239650130  9.0313997268676740 47.1735610961914062
  9.0304002761840803  0.0000000000000000 47.1735610961914062
  9.0279407501220685  9.0313997268676740 47.1735610961914062
  4.5139794349670410  4.5156998634338379 47.1742515563964844
  4.5115203857421875 13.5470991134643537 47.1742515563964844
 13.5443792343139648  4.5156998634338379 47.1742515563964844
 13.5419197082519531 13.5470991134643537 47.1742515563964844
  2.4519233703613277  2.0629522800445557 44.0401268005371165
  2.4494640827178955 11.0943517684936523 44.0401268005371165
 11.4823226928710920  2.0629522800445557 44.0401268005371165
 11.4798641204833984 11.0943517684936523 44.0401268005371165
  6.5760178565979004  6.9684472084045410 44.0401268005371165
  6.5735583305358887 15.9998464584350586 44.0401268005371165
 15.6064186096191406  6.9684472084045410 44.0401268005371165
 15.6039590835571289 15.9998464584350586 44.0401268005371165
  2.0610768795013428  6.5788145065307617 44.0400009155273509
  2.0586175918579102 15.6102142333984375 44.0400009155273509
 11.0914773941040039  6.5788145065307617 44.0400009155273509
 11.0890178680419922 15.6102142333984375 44.0400009155273509
  6.9668641090393066  2.4525938034057613 44.0400657653808665
  6.9644045829772949 11.4839935302734375 44.0400657653808665
 15.9972639083862305  2.4525938034057613 44.0400657653808665
 15.9948053359985352 11.4839935302734375 44.0400657653808665
  2.4316265583038330  2.0832188129425049 50.0684852600097656
  2.4291670322418213 11.1146183013915998 50.0684852600097656
 11.4620265960693359  2.0832188129425049 50.0684852600097656
 11.4595670700073224 11.1146183013915998 50.0684852600097656
  6.5963144302368164  6.9481806755065918 50.0684852600097656
  6.5938549041748047 15.9795799255371076 50.0684852600097656
 15.6267137527465803  6.9481806755065918 50.0684852600097656
 15.6242542266845703 15.9795799255371076 50.0684852600097656
  2.0811281204223633  6.5990090370178223 50.0690460205078125
  2.0786688327789307 15.6304082870483398 50.0690460205078125
 11.1115283966064453  6.5990090370178223 50.0690460205078125
 11.1090688705444336 15.6304082870483398 50.0690460205078125
  6.9468131065368652  2.4323906898498531 50.0690460205078125
  6.9443535804748535 11.4637899398803711 50.0690460205078125
 15.9772129058837891  2.4323906898498531 50.0690460205078125
 15.9747543334960938 11.4637899398803711 50.0690460205078125
 17.9919946501031518 18.0133135616779327 37.8327865600585938
  0.1597469747066498  9.0484819412231445 37.8407974243164062
  9.0391130447387695  0.1244458407163620 37.7357063293457031
  8.9890127182006836  8.8966083526611328 37.7832221984863281
  4.4146080017089844  4.3825125694274902 37.6517105102539062
  4.4824252128601074 13.4789466857910156 37.7456665039062571
 13.3888425827026349  4.4997591972351074 37.6657752990722656
 13.2493295669555664 13.6796045303344727 37.6079597473144531
  0.0000090280000222  0.0000090310004452 44.0429992675781250
 -0.0024502959568053  9.0314083099365234 44.0429992675781250
  9.0304088592529297  0.0000090310004452 44.0429992675781250
  9.0279493331909180  9.0314083099365234 44.0429992675781250
  4.5139703750610352  4.5156903266906738 44.0427513122558594
  4.5115113258361816 13.5470905303955078 44.0427513122558594
 13.5443706512451172  4.5156903266906738 44.0427513122558594
 13.5419111251831037 13.5470905303955078 44.0427513122558594
  0.0000000000000000  0.0000000000000000 50.4472808837890696
 -0.0024593239650130  9.0313997268676740 50.4472808837890696
  9.0304002761840803  0.0000000000000000 50.4472808837890696
  9.0279407501220685  9.0313997268676740 50.4472808837890696
  4.5139703750610352  4.5156998634338379 50.4472808837890696
  4.5115113258361816 13.5470991134643537 50.4472808837890696
 13.5443706512451172  4.5156998634338379 50.4472808837890696
 13.5419111251831055 13.5470991134643537 50.4472808837890696
