 H  C  N  I Pb 
 1.0000000000000000
    18.0608005523681641    0.0000000000000000    0.0000000000000000
    -0.0049186488613486   18.0627994537353516    0.0000000000000000
     0.0000000000000000    0.0000000000000000   62.4874992370605469
 H   C   N   I   Pb 
 143  39  47  72  24
Cartesian
  8.1756839752197266  6.0693011283874512 35.2533149719238281
  7.8606185913085929 14.9870958328247070 35.6495246887207102
 17.3601531982421875  5.9293198585510254 35.9762687683105469
 17.0528717041015625 14.7709121704101562 35.8018569946289062
  6.0301484325900674 17.2448496818542480 35.7521667480468821
  6.3188509941101074  9.9566993713378906 34.8534393310546946
 14.5585975646972656  1.5909109115600584 35.2225914001464844
  0.2037887573242181  2.5894188880920410 34.9417533874511719
  1.2860050201416056 11.9683656692504883 35.6342811584472656
  9.9602775573730451  2.8815324306488037 34.9008598327636790
  8.9611282348632812 11.6207275390625000 34.9271812438964915
  6.5952200889587393  0.5205552577972412 34.7922134399414062
  5.2911791801452637 11.3610219955444336 34.5356330871582031
 15.8733625411987305  0.4897041916847228 34.7716140747070384
 17.2439689636230469  3.4702973365783687 36.0690536499023438
 17.8883323669433594 12.4845705032348633 36.4267730712890696
 10.2290191650390625  4.5305132865905762 35.4487266540527344
  7.8932962417602539 12.5245494842529297 35.9408340454101562
  5.0718665122985840  7.9444293975830078 35.7593383789062500
  3.6344238976016636 16.7651116847991943 35.7859649658203125
 12.3391561508178711  0.5460097789764404 35.6227722167968750
  6.7306013107299805  5.2584166526794434 34.6837654113769531
  9.0448131561279297 15.6929817199707031 34.5899009704589915
  0.3424682617187508  6.6527409553527832 34.7897033691406321
 17.9581565856933594 15.6473360061645508 34.6202430725097656
  3.3295266628265381  8.0182571411132812 35.5839347839355540
  2.5638107517734170 17.9009746909141541 35.0029296875000071
 12.2309622028842568 16.8850938081741333 35.2476844787597727
  7.7765250205993643  3.2462866306304932 34.3237838745117188
  9.8675479888915998 13.5762424468994141 33.9512176513671946
  1.1368942260742192  4.5477457046508789 34.0610847473144531
  1.5019378662109353 13.9383440017700178 34.3913383483886719
  3.3183798789978027 10.1544589996337873 34.8006706237793040
  4.3712787628173828  1.1729850769042967 34.2491416931152344
 14.4328836658969522 16.7078481912612951 34.6883926391601634
  8.7891950607299805  6.1374201774597168 41.2518692016601634
  8.0981855392456055 14.6357097625732422 42.0971374511718750
 17.4148018956184387  5.1476140022277832 42.2403717041015625
 16.8091480731964147 13.0783863067626953 42.0358428955078125
  5.5682449340820312  1.0378597974777222 41.8249511718750000
  5.3808960914611816  9.9180231094360352 42.1794242858886719
 14.4686965942382812  1.0235511064529419 42.1233634948730469
 13.8079299926757812 10.7867355346679688 41.0075721740722656
  1.5642451047897339  2.9547739028930664 40.2908897399902344
  2.1189239025115967 13.0413408279418945 40.7075233459472656
 10.2451658248901367  2.8080837726593018 40.8499984741211009
 10.2115097045898438 12.0213184356689453 40.6285705566406250
  3.1886746883392334  7.4972014427185059 40.4785766601562571
  3.0996333817020054 16.6058238744735718 40.6944274902343750
 12.5812187194824219  7.3514852523803711 41.1721038818359375
 12.1700300434604269 16.6176735162734985 40.6588287353515625
  1.1451084613800049  3.3022117614746094 41.9505805969238281
  1.0862122774124146 12.2223949432373047 41.8319702148437500
 10.7141075134277344  4.4391279220581055 41.2174682617187500
  9.6623601913452148 12.5550260543823224 42.1965255737304759
  3.5890865325927734  8.0123367309570312 42.1015739440917969
  3.7281231144443154 17.2587277889251709 42.1786766052246094
 12.0042896270751953  8.9991436004638672 41.2540969848632812
 12.5911545017734170 17.2827024459838867 42.2113723754882884
  7.2007946968078613  5.4349169731140137 41.0084152221679759
  7.8244180679321289 15.2422142028808594 40.4936485290527344
 16.9029588699340820  5.8705301284790030 40.7488594055175852
 16.3504925966262817 14.3578557968139648 40.9488868713378977
  5.9163284301757812  1.3558413982391357 40.1467170715332031
  5.9286580085754386 10.4332103729248047 40.6144447326660156
 15.0513839721679688  1.3607534170150755 40.5112037658691406
 15.4197835922241211 10.1848478317260742 40.7473945617675781
  0.1539580523967743  4.5650763511657715 39.4201583862304688
  0.4142237305641174 14.4849309921264648 39.9846649169921875
  7.9977083206176758  3.3026847839355464 40.6692314147949219
  9.1199102401733398 13.6535978317260742 39.4592285156250000
  4.4089822033420205 17.8973684906959534 39.3286094665527415
  4.6329412460327148  8.9446516036987305 39.4441032409668040
 13.6749757984653115 17.8870254456996918 39.4779968261718750
 14.7820549011230451  7.9544591903686523 40.8234939575195312
  8.1032123565673828  5.4420318603515616 48.0459518432617259
  8.1007528305053711 14.4734306335449219 48.0459518432617259
 17.1336116790771484  5.4420318603515616 48.0459518432617259
 17.1311531066894531 14.4734306335449219 48.0459518432617259
  5.4410333633422852  0.9265221953392029 48.0449485778808594
  5.4385743141174316  9.9579219818115234 48.0449485778808594
 14.4714326858520490  0.9265221953392029 48.0449485778808594
 14.4689741134643555  9.9579219818115234 48.0449485778808594
  1.4218254089355467  3.0919990539550781 46.4558296203613281
  1.4193661212921143 12.1233978271484375 46.4558296203613281
 10.4522256851196289  3.0919990539550781 46.4558296203613281
 10.4497661590576172 12.1233978271484375 46.4558296203613281
  3.0899283885955806  7.6075901985168457 46.4545211791992188
  3.0874691009521484 16.6389904022216797 46.4545211791992188
 12.1203289031982422  7.6075901985168457 46.4545211791992188
 12.1178693771362305 16.6389904022216797 46.4545211791992188
  0.9247469902038573  3.5893490314483643 48.0459518432617259
  0.9222877025604248 12.6207475662231445 48.0459518432617259
  9.9551477432250977  3.5893490314483643 48.0459518432617259
  9.9526882171630859 12.6207475662231445 48.0459518432617259
  3.5868983268737793  8.1048498153686523 48.0448913574218821
  3.5844390392303462 17.1362495422363281 48.0448913574218821
 12.6172990798950195  8.1048498153686523 48.0448913574218821
 12.6148395538330078 17.1362495422363281 48.0448913574218821
  7.6061611175537109  5.9393639564514160 46.4558296203613281
  7.6037015914916992 14.9707632064819336 46.4558296203613281
 16.6365604400634766  5.9393639564514160 46.4558296203613281
 16.6341018676757812 14.9707632064819336 46.4558296203613281
  5.9380125999450684  1.4238001108169553 46.4545211791992188
  5.9355530738830566 10.4551992416381836 46.4545211791992188
 14.9684123992919904  1.4238001108169553 46.4545211791992188
 14.9659538269042951 10.4551992416381836 46.4545211791992188
 -0.0011664569610730  4.5157265663146973 45.3548011779785156
 -0.0036257810425013 13.5471258163452148 45.3548011779785156
  9.0292339324951172  4.5157265663146973 45.3548011779785156
  9.0267744064331037 13.5471258163452148 45.3548011779785156
  4.5152091979980469  0.0000000000000000 45.3536758422851562
  4.5127501487731934  9.0313997268676740 45.3536758422851562
 13.5456094741821289  0.0000000000000000 45.3536758422851562
 13.5431499481201172  9.0313997268676740 45.3536758422851562
 14.0116424560546857 10.0563402175903320 32.4366836547851634
 12.9861965179443359  8.6529016494750977 32.7762565612792969
 15.6805982589721680  9.0565204620361310 33.6276054382324219
 15.5280303955078107  8.7177495956420898 35.3471794128417969
 13.4411649703979492 11.5871562957763672 34.9808883666992188
 14.6910762786865234 10.7949771881103516 35.9597434997558594
 12.0395507812500000  9.8804416656494141 35.5357360839843750
 12.3053169250488281  8.2097558975219727 34.9963188171386719
 11.1408920288085938 10.1060676574707031 33.5568962097168040
 12.1703882217407227 11.5495090484619141 33.4045562744140696
 10.9442024230957031 11.6632747650146484 31.4496879577636754
 12.4036474227905273 10.8798484802246094 30.8628482818603516
 14.2214241027832031  7.0333576202392578 33.0929679870605469
 14.0383605957031250  6.7203130722045898 34.8345146179199219
 15.6278133392333984  6.6273598670959473 34.0791473388671875
 15.5835361480712891 12.5798835754394531 34.5225524902343821
 15.1483821868896484 11.7002382278442383 33.0623664855957031
 16.3719425201416016 11.0152015686035156 34.1774444580078125
 13.9209213256835938  9.5474758148193359 37.2670135498046875
 13.9766798019409180  7.8415808677673340 36.7905998229980540
 12.5103931427001953  8.5303535461425781 37.4851379394531250
  9.7206439971923828  9.5384397506713867 31.5402717590332031
 10.3611335754394531  9.8523397445678693 29.9207630157470739
 12.6981744766235352  8.6793184280395508 29.3640518188476598
 10.0498628616333008  7.4799060821533203 32.5296173095703125
 13.8241539001464826  6.4706053733825684 29.4686717987060547
 11.1952028274536133  5.2654628753662109 32.6530036926269531
 13.0986948013305646  4.7682580947875977 31.1462726593017578
  0.3448200225830062  4.6097955703735343 34.8120460510253906
  0.6381511688232410 13.8021974563598633 35.0433769226074219
  8.3559455871582031  4.0850596427917480 34.7083778381347656
  9.0440092086791992 13.6493310928344727 34.6628341674804688
  4.2873063087463379  9.6749505996704102 34.9864158630371094
  4.5621027946472168  0.2628552615642548 34.8323440551757884
 14.0545191029086709 17.6899595260620117 34.9959259033203125
  0.1946628093719482  4.4187264442443848 40.4992523193359375
  0.2114695608615875 13.7478723526000959 40.7677650451660156
  8.7012252807617188  4.1007790565490723 40.9153518676757812
  9.0198173522949219 13.6312255859374982 40.5370216369628906
  4.5641565322875977  8.9570693969726562 40.5328063964843750
  4.5096782902255654 18.0135856159031391 40.4068336486816477
 14.0328598022460938  8.7372150421142578 40.9453048706054688
 13.6201328495517373 18.0133613534271717 40.5606689453125000
  9.0289716720581055  4.5156092643737793 46.4455223083496165
  9.0265130996704102 13.5470085144042969 46.4455223083496165
 18.0593719482421875  4.5156092643737793 46.4455223083496165
 18.0569133758544922 13.5470085144042969 46.4455223083496165
  4.5152091979980469  0.0000180629995157 46.4442062377929759
  4.5127501487731934  9.0314178466796857 46.4442062377929759
 13.5456094741821289  0.0000180629995157 46.4442062377929759
 13.5431499481201172  9.0314178466796857 46.4442062377929759
 11.3050642013549805  8.2360410690307617 30.9667034149169922
 12.3614072799682599  7.9302926063537598 30.0978183746337891
 10.8775787353515607  7.2551422119140625 31.8607120513916016
 12.9974641799926758  6.6911273002624503 30.1495418548583984
 11.5145378112792969  6.0164122581481934 31.9290828704834020
 12.5855531692504883  5.7273392677307129 31.0812129974365234
 13.2120962142944336  9.6760635375976562 33.0823135375976634
 15.0113983154296857  8.6331062316894531 34.3835945129394531
 14.3209886550903320 10.9318027496337873 34.9380340576171875
 12.7871980667114258  9.0831604003906250 35.4529571533203125
 11.9633378982543945 10.5503559112548828 32.9742774963378906
 11.5244560241699219 10.7298374176025391 31.5113391876220703
 14.6837568283081055  7.1868462562561035 34.0763092041015625
 15.4255466461181641 11.5695056915283203 34.1125106811523438
 13.3461675643920898  8.7399196624755859 36.8100700378417969
 10.6505041122436523  9.5955247879028320 30.9505901336669922
 17.9425277709960938  3.4876418113708496 35.3104209899902344
  0.5743236541748038 12.6914348602294922 35.7351570129394531
  9.6237134933471680  3.8476133346557613 34.9702606201171946
  8.5784196853637695 12.5362176895141602 35.1794509887695384
  7.7420601844787598  5.2322764396667480 34.8433876037597656
  8.5871286392211914 14.8470630645751953 34.9394989013671875
 17.9822635650634766  5.7985496520996094 35.1693305969238281
 17.7840118408203125 14.7487440109252930 35.0783653259277344
  4.2441864013671875  8.4262714385986328 35.3869400024414062
  3.5295690754428506 17.6037586629390717 35.2109260559082031
 12.7717670658603311 17.7544280886650085 35.2686386108398509
  5.8009170750156045 18.0210454389452934 35.1223258972167969
  5.3846135139465332 10.3641881942749023 34.7738418579101562
 14.8937015533447266  0.6379018425941467 35.0490264892578125
  1.0116549730300903  3.4931883811950684 40.9633140563964844
  1.1846888065338135 12.9154176712036133 41.0887107849121094
  9.9697866439819336  3.7742056846618652 41.0109825134277344
  9.6547765731811523 12.6768865585327148 41.1798439025878906
  3.7239344120025635  8.1161193847656250 41.0848960876464844
  3.7351874569430947 17.2563485503196716 41.1548576354980469
 12.7811241149902344  8.3510999679565430 41.0989379882812500
 12.7497219303622842 17.2607651948928869 41.2002029418945312
  8.2122611999511719  5.3023052215576163 41.0688667297363281
  8.2802820205688477 14.5596551895141584 41.0948104858398438
 17.4782394766807592  5.1864118576049805 41.2298240661621165
 17.0738970041275024 13.7340936660766602 41.2986679077148438
  5.3864574432373047  0.8225432038307190 40.8353271484375071
  5.3404445648193359  9.8122901916503906 41.1645088195800781
 14.4207801818847656  0.8310153484344481 41.1106338500976562
 14.4338932037353516  9.9789133071899396 40.9397010803222656
  0.8273094892501831  3.6869695186614990 47.0359649658203125
  0.8248501420021057 12.7183685302734375 47.0359649658203125
  9.8577098846435547  3.6869695186614990 47.0359649658203125
  9.8552503585815412 12.7183685302734375 47.0359649658203125
  3.6843190193176270  8.2023353576660156 47.0346527099609375
  3.6818594932556152 17.2337341308593750 47.0346527099609375
 12.7147188186645508  8.2023353576660156 47.0346527099609375
 12.7122592926025391 17.2337341308593750 47.0346527099609375
  8.2006769180297852  5.3445744514465332 47.0360260009765696
  8.1982173919677734 14.3759746551513672 47.0360260009765696
 17.2310771942138672  5.3445744514465332 47.0360260009765696
 17.2286186218261719 14.3759746551513672 47.0360260009765696
  5.3436489105224600  0.8290914893150328 47.0346527099609375
  5.3411893844604483  9.8604917526245117 47.0346527099609375
 14.3740482330322266  0.8290914893150328 47.0346527099609375
 14.3715896606445312  9.8604917526245117 47.0346527099609375
 13.8242740631103516  9.5739355087280273 34.4632606506347656
  9.2837076187133789  0.3033697307109833 34.4962425231933594
  8.7061758041381836  8.9331626892089844 34.6533546447753906
  0.2189084142446518  0.1024061366915703 34.2664527893066477
  0.6782897710800170  9.1719541549682617 34.5760231018066406
  4.2812752723693848  4.3607869148254395 34.4958305358886719
  4.6208567619323722 13.8267316818237305 34.5947456359863281
 13.3309783935546857  3.6937363147735596 34.6482124328613281
 12.6569757461547852 14.3005247116088867 34.6363525390625071
  0.0319446707144380 17.7530801296234131 40.8311347961425781
 18.0082277990877664  9.1474647521972638 40.9176101684570312
  8.9795246124267578  0.2240722030401230 40.8796195983886719
  9.1648826599121094  8.8433761596679688 40.9201011657714844
  4.6942152976989746  4.4461407661437988 40.8873100280761719
  4.6607718467712393 13.6269931793212891 40.9118347167968821
 13.4772663116455060  4.8185105323791504 40.8914184570312571
 13.4774875640869123 13.5100030899047834 40.8846397399902344
  2.4413337707519531  2.0241849422454834 37.9402618408203125
  2.6971166133880615 10.9422092437744141 37.9950599670410227
 11.6946468353271484  1.8921403884887695 38.0863685607910227
 11.1265001296997070 11.3456239700317383 38.0482749938964844
  6.4729156494140616  6.9997143745422363 37.7796669006347727
  6.7726540565490723 15.8930892944335920 37.8871078491210938
 16.0740718841552734  6.5882196426391593 38.0594902038574219
 15.6816377639770490 15.8461179733276367 37.7732963562011719
  2.1955463886260986  6.6461224555969229 38.0979843139648509
  2.2384114265441895 15.6490535736083984 37.9577713012695384
 10.7156229019165021  6.1150059700012207 37.5637359619140625
 11.1353273391723633 15.7415237426757812 38.2989158630371094
  6.9849362373352042  2.4363749027252197 37.7923545837402344
  6.9479808807373047 11.3501405715942383 38.1672859191894531
 16.0177574157714844  2.4041810035705566 38.1449775695800852
 16.1651115417480469 11.6700792312622070 38.1214370727539062
  0.0000000000000000  0.0000000000000000 47.1735610961914062
 -0.0024593239650130  9.0313997268676740 47.1735610961914062
  9.0304002761840803  0.0000000000000000 47.1735610961914062
  9.0279407501220685  9.0313997268676740 47.1735610961914062
  4.5139794349670410  4.5156998634338379 47.1742515563964844
  4.5115203857421875 13.5470991134643537 47.1742515563964844
 13.5443792343139648  4.5156998634338379 47.1742515563964844
 13.5419197082519531 13.5470991134643537 47.1742515563964844
  2.4519233703613277  2.0629522800445557 44.0401268005371165
  2.4494640827178955 11.0943517684936523 44.0401268005371165
 11.4823226928710920  2.0629522800445557 44.0401268005371165
 11.4798641204833984 11.0943517684936523 44.0401268005371165
  6.5760178565979004  6.9684472084045410 44.0401268005371165
  6.5735583305358887 15.9998464584350586 44.0401268005371165
 15.6064186096191406  6.9684472084045410 44.0401268005371165
 15.6039590835571289 15.9998464584350586 44.0401268005371165
  2.0610768795013428  6.5788145065307617 44.0400009155273509
  2.0586175918579102 15.6102142333984375 44.0400009155273509
 11.0914773941040039  6.5788145065307617 44.0400009155273509
 11.0890178680419922 15.6102142333984375 44.0400009155273509
  6.9668641090393066  2.4525938034057613 44.0400657653808665
  6.9644045829772949 11.4839935302734375 44.0400657653808665
 15.9972639083862305  2.4525938034057613 44.0400657653808665
 15.9948053359985352 11.4839935302734375 44.0400657653808665
  2.4316265583038330  2.0832188129425049 50.0684852600097656
  2.4291670322418213 11.1146183013915998 50.0684852600097656
 11.4620265960693359  2.0832188129425049 50.0684852600097656
 11.4595670700073224 11.1146183013915998 50.0684852600097656
  6.5963144302368164  6.9481806755065918 50.0684852600097656
  6.5938549041748047 15.9795799255371076 50.0684852600097656
 15.6267137527465803  6.9481806755065918 50.0684852600097656
 15.6242542266845703 15.9795799255371076 50.0684852600097656
  2.0811281204223633  6.5990090370178223 50.0690460205078125
  2.0786688327789307 15.6304082870483398 50.0690460205078125
 11.1115283966064453  6.5990090370178223 50.0690460205078125
 11.1090688705444336 15.6304082870483398 50.0690460205078125
  6.9468131065368652  2.4323906898498531 50.0690460205078125
  6.9443535804748535 11.4637899398803711 50.0690460205078125
 15.9772129058837891  2.4323906898498531 50.0690460205078125
 15.9747543334960938 11.4637899398803711 50.0690460205078125
 18.0543941823998502 18.0401183217763901 37.7718734741210938
  0.1155126765370369  9.1150989532470685 37.7740554809570312
  9.1317348480224609  0.1152288541197777 37.7272338867187500
  9.0169754028320312  8.8883037567138672 37.7802543640136719
  4.4872326850891113  4.4573736190795898 37.6410827636718821
  4.5680475234985352 13.4626770019531250 37.7338790893554688
 13.4437627792358381  4.4354577064514160 37.6482696533203125
 13.3214492797851562 13.6374044418334961 37.6746025085449290
  0.0000090280000222  0.0000090310004452 44.0429992675781250
 -0.0024502959568053  9.0314083099365234 44.0429992675781250
  9.0304088592529297  0.0000090310004452 44.0429992675781250
  9.0279493331909180  9.0314083099365234 44.0429992675781250
  4.5139703750610352  4.5156903266906738 44.0427513122558594
  4.5115113258361816 13.5470905303955078 44.0427513122558594
 13.5443706512451172  4.5156903266906738 44.0427513122558594
 13.5419111251831037 13.5470905303955078 44.0427513122558594
  0.0000000000000000  0.0000000000000000 50.4472808837890696
 -0.0024593239650130  9.0313997268676740 50.4472808837890696
  9.0304002761840803  0.0000000000000000 50.4472808837890696
  9.0279407501220685  9.0313997268676740 50.4472808837890696
  4.5139703750610352  4.5156998634338379 50.4472808837890696
  4.5115113258361816 13.5470991134643537 50.4472808837890696
 13.5443706512451172  4.5156998634338379 50.4472808837890696
 13.5419111251831055 13.5470991134643537 50.4472808837890696
