 H  C  N  I Pb 
 1.0000000000000000
    18.0608005523681641    0.0000000000000000    0.0000000000000000
    -0.0049186488613486   18.0627994537353516    0.0000000000000000
     0.0000000000000000    0.0000000000000000   62.4874992370605469
 H   C   N   I   Pb 
 143  39  47  72  24
Cartesian
  8.4255867004394531  6.1268358230590820 35.2178878784179688
  7.9190573692321777 14.8847379684448224 35.9133415222167969
 16.6811065673828125  5.0114641189575195 36.0850372314453125
 16.8983516693115234 14.7760171890258789 35.7824325561523438
  5.7924423217773438  1.4231331348419189 35.6457252502441477
  6.2770915031433097  9.8041505813598633 34.7854194641113281
 14.5563373565673828  1.6642041206359861 35.3735656738281250
  1.9581317901611337  4.5283551216125479 34.7809600830078125
  1.3475799560546886 12.1855678558349609 36.0369758605957031
  9.9252481460571289  2.8049833774566650 35.0458145141601562
  9.1035518646240234 11.6294031143188477 34.8069114685058594
  6.7785224914550781  0.2801752388477325 34.7864151000976562
  5.3354554176330566 11.2614879608154297 34.4650077819824219
 15.8377485275268555  0.5960337519645691 34.7916984558105540
  1.0678634643554694  5.0921115875244141 36.1606178283691406
 17.8126239776611328 12.5900726318359375 36.5883178710937500
 10.3271980285644513  4.4611611366271973 35.4522247314453125
  8.0910234451293945 12.3961982727050781 35.9753112792968750
  4.9128732681274405  7.8896274566650391 35.7586250305175781
  3.3777921199798584  1.0498940944671631 35.7442855834960938
 12.3711051940917969  0.5756223797798157 35.9338989257812500
  6.9023399353027344  5.4081411361694336 34.7067718505859375
  8.9647016525268555 15.7036085128784162 34.7882614135742188
 15.9230966567993164  4.2869100570678711 34.6870460510253977
 17.8665084838867188 15.6731071472167969 34.6449279785156250
  3.1771259307861328  8.0674161911010742 35.5988807678222656
  2.7325813034549356 17.7077432870864868 34.9513931274414062
 12.2813047626987100 16.9207999706268311 35.5355873107910156
  7.7520351409912109  3.3144321441650391 34.4933815002441406
  9.8286857604980451 13.7005977630615234 33.9127044677734375
 18.0247154235839844  3.9417426586151123 33.6269226074218750
  1.5122032165527362 14.0608901977539062 34.6450347900390625
  3.2918269634246826 10.1963691711425781 34.7767333984375000
  4.8738254765048623 16.9935047626495361 34.2490768432617188
 14.4248651722446066 16.7923582792282104 34.7907752990722656
  8.0252943038940430  5.4326987266540527 41.9987716674804688
  8.1333103179931641 14.5840206146240217 42.0938987731933594
 17.0489189624786377  5.1014399528503418 42.1464424133300781
 16.6327483654022217 13.2642889022827148 41.8049163818359375
  5.4358420372009277  0.9572702050209045 42.0280227661132812
  5.3196496963500977 10.1056661605834961 42.1200027465820384
 14.5343236923217773  0.9905759692192078 42.1537361145019531
 15.2222700119018555  8.4899034500122070 41.4031600952148438
  1.5811513662338255  3.0638511180877681 40.5210418701171946
  2.0398747920989990 12.8622264862060547 40.8039283752441406
 10.4697132110595703  3.0770707130432129 40.6007118225097656
 10.2995281219482422 12.0848789215087891 40.4844093322753906
  3.3441629409790039  7.4298787117004395 40.5297508239746094
  3.0500711658969517 16.6923067569732666 40.4602508544921946
 11.5989141464233381  8.5566740036010742 40.9741363525390625
 12.1794943073764443 16.6239731311798096 40.6991195678710938
  0.9451665282249451  3.3578794002532959 42.1092262268066406
  0.7711513638496399 12.0684680938720703 41.6972198486328196
  9.8797006607055664  3.6304183006286621 42.1449546813964844
  9.8615074157714844 12.6120138168334943 42.0812225341796946
  3.6622631549835205  8.0811109542846680 42.1128654479980469
  3.5601352909579873 17.1753969788551331 42.0518722534179688
 12.8830366134643537  7.4969444274902344 41.4738426208496094
 12.6857074955478311 17.1929653882980382 42.2606353759765625
  7.5718884468078604  5.8588929176330566 40.3810653686523509
  7.6499919891357422 15.1009988784790039 40.5002708435058594
 16.6768410205841064  5.7650976181030273 40.5863685607910156
 16.5306274890899658 14.7626781463623047 40.9382324218750000
  5.9299187660217276  1.4306386709213257 40.4292411804199219
  5.8468842506408691 10.5912570953369141 40.5297508239746094
 14.9836645126342756  1.4313319921493530 40.5224723815917969
 15.3463659286499023 10.0695972442626953 40.6890029907226634
  0.2036996781826019  4.5539031028747559 39.4594573974609375
  0.6758067011833191 14.6689968109130859 40.2026367187500000
  9.0693626403808576  4.4403958320617676 39.3691749572753977
  8.9427680969238281 13.5790863037109357 39.3903579711914062
  4.4744768142700195  0.0205672066658735 39.3395919799804759
  4.6958942413330078  8.9219989776611328 39.4286651611328125
 13.5672792652621865 18.0091808885335922 39.5050086975097656
 13.0548782348632812 10.3048076629638672 40.3954277038574219
  8.1032123565673828  5.4420318603515616 48.0459518432617259
  8.1007528305053711 14.4734306335449219 48.0459518432617259
 17.1336116790771484  5.4420318603515616 48.0459518432617259
 17.1311531066894531 14.4734306335449219 48.0459518432617259
  5.4410333633422852  0.9265221953392029 48.0449485778808594
  5.4385743141174316  9.9579219818115234 48.0449485778808594
 14.4714326858520490  0.9265221953392029 48.0449485778808594
 14.4689741134643555  9.9579219818115234 48.0449485778808594
  1.4218254089355467  3.0919990539550781 46.4558296203613281
  1.4193661212921143 12.1233978271484375 46.4558296203613281
 10.4522256851196289  3.0919990539550781 46.4558296203613281
 10.4497661590576172 12.1233978271484375 46.4558296203613281
  3.0899283885955806  7.6075901985168457 46.4545211791992188
  3.0874691009521484 16.6389904022216797 46.4545211791992188
 12.1203289031982422  7.6075901985168457 46.4545211791992188
 12.1178693771362305 16.6389904022216797 46.4545211791992188
  0.9247469902038573  3.5893490314483643 48.0459518432617259
  0.9222877025604248 12.6207475662231445 48.0459518432617259
  9.9551477432250977  3.5893490314483643 48.0459518432617259
  9.9526882171630859 12.6207475662231445 48.0459518432617259
  3.5868983268737793  8.1048498153686523 48.0448913574218821
  3.5844390392303462 17.1362495422363281 48.0448913574218821
 12.6172990798950195  8.1048498153686523 48.0448913574218821
 12.6148395538330078 17.1362495422363281 48.0448913574218821
  7.6061611175537109  5.9393639564514160 46.4558296203613281
  7.6037015914916992 14.9707632064819336 46.4558296203613281
 16.6365604400634766  5.9393639564514160 46.4558296203613281
 16.6341018676757812 14.9707632064819336 46.4558296203613281
  5.9380125999450684  1.4238001108169553 46.4545211791992188
  5.9355530738830566 10.4551992416381836 46.4545211791992188
 14.9684123992919904  1.4238001108169553 46.4545211791992188
 14.9659538269042951 10.4551992416381836 46.4545211791992188
 -0.0011664569610730  4.5157265663146973 45.3548011779785156
 -0.0036257810425013 13.5471258163452148 45.3548011779785156
  9.0292339324951172  4.5157265663146973 45.3548011779785156
  9.0267744064331037 13.5471258163452148 45.3548011779785156
  4.5152091979980469  0.0000000000000000 45.3536758422851562
  4.5127501487731934  9.0313997268676740 45.3536758422851562
 13.5456094741821289  0.0000000000000000 45.3536758422851562
 13.5431499481201172  9.0313997268676740 45.3536758422851562
 13.0065679550170898  8.0184049606323242 33.7035713195800781
 13.3761634826660156  8.9516525268554688 32.2597198486328125
 11.9682588577270508  9.9763984680175781 34.7720870971679759
 12.8078460693359375 11.5318937301635724 34.6900444030761719
 15.3954715728759766  9.1913022994995117 35.4480552673339844
 14.3140239715576154 10.4510602951049805 36.0602264404296875
 15.8455972671508789 10.1117982864379883 33.1774024963378977
 14.5915145874023438 11.2171401977539045 32.5639724731445312
 15.7665138244628906  8.3263597488403320 32.3545722961425852
 15.5659379959106445  7.6745381355285645 33.9750213623046946
 15.7589683532714826  5.8844671249389648 32.3976898193359375
 14.1581926345825195  5.8474802970886230 33.1164131164550781
 11.5274772644042969  9.9650678634643555 32.3707466125488352
 12.5336751937866211 11.4250068664550763 32.1112213134765625
 11.0454511642456055 11.5195636749267578 33.0534706115722656
 13.7620820999145508  8.4216089248657227 37.2032661437988352
 13.6248731613159180  7.4559273719787589 35.7345314025878906
 12.4082059860229492  8.7115640640258789 36.1140441894531250
 14.7837266921997070 12.4916868209838867 34.8234825134277344
 16.1958560943603516 12.5051469802856445 33.7629966735839844
 16.1998977661132812 11.4355144500732422 35.1761474609375000
 14.8122920989990217  6.8805823326110831 30.2922363281250000
 14.2044000625610352  5.2745308876037589 30.7035312652587891
 11.9584026336669922  5.4774851799011230 32.3677291870117188
 13.2326183319091797  8.3387527465820312 29.4188804626464844
  9.6630821228027344  6.4038791656494141 32.2900123596191477
 10.9218397140502930  9.2543172836303711 29.3060512542724645
  9.1348180770874023  8.3227834701538086 30.7757682800292969
 17.9695930480957031  4.3631820678710938 34.6300201416015696
  0.5949783325195321 13.8952026367187500 35.2232437133789062
  8.4240274429321289  4.1162977218627930 34.8072891235351634
  9.0733852386474592 13.6787128448486328 34.7050895690918040
  4.2302451133728027  9.6564731597900373 34.9642028808593750
  4.7576817730441689 17.9316748380661011 34.8041000366210938
 14.0527700642123818 17.7631180882453918 35.1436500549316477
  0.0993977487087250  4.4222712516784668 40.5330314636230469
  0.2724176943302155 13.8593750000000000 40.8259620666503906
  9.0246000289916992  4.4729413986206055 40.4570045471191477
  8.9641866683959961 13.5871629714965820 40.4756011962890696
  4.6151142120361328  8.9950742721557617 40.5146942138671946
  4.4954762458801270  0.0294521842151880 40.4303092956542969
 13.4475259780883789  9.3754396438598633 40.8162994384765696
 13.5857147434726357 18.0604049535468221 40.5955619812011719
  9.0289716720581055  4.5156092643737793 46.4455223083496165
  9.0265130996704102 13.5470085144042969 46.4455223083496165
 18.0593719482421875  4.5156092643737793 46.4455223083496165
 18.0569133758544922 13.5470085144042969 46.4455223083496165
  4.5152091979980469  0.0000180629995157 46.4442062377929759
  4.5127501487731934  9.0314178466796857 46.4442062377929759
 13.5456094741821289  0.0000180629995157 46.4442062377929759
 13.5431499481201172  9.0314178466796857 46.4442062377929759
 12.7635068893432617  6.8482513427734375 30.9104995727539062
 11.7335004806518555  6.3068184852600098 31.6994361877441406
 12.4474239349365217  7.9057927131652832 30.0460128784179723
 10.4438142776489258  6.8249154090881348 31.6526756286621129
 11.1400012969970703  8.4243764877319336 29.9883651733398438
 10.1434907913208008  7.8956818580627433 30.7966575622558629
 13.7829389572143555  8.6188182830810547 33.2131347656250000
 12.6141777038574219 10.5991249084472656 34.1467514038085938
 14.3448266983032227  9.5120592117309570 35.4931945800781250
 15.0227336883544904 10.7726383209228516 33.4701423645019531
 15.0521078109741211  7.8045945167541504 33.0100860595703125
 14.7931680679321271  6.4137878417968750 32.4224739074707031
 11.9153242111206037 10.8802757263183576 32.8332710266113281
 13.4742031097412109  8.4628753662109375 36.1472091674804688
 15.5659484863281250 11.8555440902709961 34.3877868652343750
 14.1809387207031232  6.3351416587829590 31.0143718719482422
  1.0422077178955094  4.6536016464233398 35.2313842773437500
  0.5401763916015639 12.8087186813354492 35.9549942016601634
  9.6562089920043945  3.7886459827423096 35.0941467285156250
  8.7196979522705078 12.5029697418212891 35.1703414916992188
  7.9109163284301758  5.3244547843933105 34.8658905029296875
  8.5850353240966797 14.8142652511596680 35.1275100708007812
 16.7872257232666016  4.5373320579528809 35.1743698120117188
 17.6825332641601562 14.7793645858764648 35.1260108947753906
  4.1101422309875488  8.4130144119262695 35.3887786865234375
  3.5552296638488765  0.2090366482734680 35.1877784729003977
 12.7957948902621865 17.7973331212997437 35.5335540771484375
  5.8390002250671387  0.5792187452316284 35.0658226013183594
  5.3657317161560059 10.2643547058105469 34.7098884582519602
 14.8731126785278320  0.7265995740890503 35.1249313354492188
  0.9069447517395020  3.5592637062072754 41.1073532104492188
  1.0630404949188232 12.8434076309204102 41.0984077453613352
  9.8434362411499023  3.6862583160400386 41.1243400573730469
  9.7386064529418945 12.7040987014770508 41.0653343200683594
  3.8427097797393799  8.1127977371215820 41.1046028137207031
  3.6494888523593545 17.2760242819786072 41.0347785949707031
 12.6020059585571289  8.4155912399291992 41.1138763427734375
 12.7810444096103311 17.2404171824455261 41.2406425476074219
  8.1648292541503906  5.3016705513000488 40.9906578063964915
  8.2093572616577148 14.4738817214965820 41.0778160095214915
 17.2485625147819519  5.1455106735229492 41.1480522155761719
 17.0882070660591161 13.9668846130371094 41.2247428894043040
  5.3358430862426758  0.8434918522834778 41.0096778869628906
  5.2969770431518546  9.9430818557739258 41.1074676513671875
 14.3993673324584961  0.8653366565704346 41.1411514282226562
 14.7511053085327148  9.2974519729614258 40.9803962707519531
  0.8273094892501831  3.6869695186614990 47.0359649658203125
  0.8248501420021057 12.7183685302734375 47.0359649658203125
  9.8577098846435547  3.6869695186614990 47.0359649658203125
  9.8552503585815412 12.7183685302734375 47.0359649658203125
  3.6843190193176270  8.2023353576660156 47.0346527099609375
  3.6818594932556152 17.2337341308593750 47.0346527099609375
 12.7147188186645508  8.2023353576660156 47.0346527099609375
 12.7122592926025391 17.2337341308593750 47.0346527099609375
  8.2006769180297852  5.3445744514465332 47.0360260009765696
  8.1982173919677734 14.3759746551513672 47.0360260009765696
 17.2310771942138672  5.3445744514465332 47.0360260009765696
 17.2286186218261719 14.3759746551513672 47.0360260009765696
  5.3436489105224600  0.8290914893150328 47.0346527099609375
  5.3411893844604483  9.8604917526245117 47.0346527099609375
 14.3740482330322266  0.8290914893150328 47.0346527099609375
 14.3715896606445312  9.8604917526245117 47.0346527099609375
 13.9443674087524414  9.8675594329833967 34.0663070678710938
  9.3338432312011719  0.2125889509916305 34.5715255737304759
  8.8183126449584961  8.9645795822143555 34.5529670715332031
  0.1650824099779129  0.1367001533508301 34.3723449707031250
  0.4559795260429382  9.0410318374633789 34.6395149230957031
  4.5255064964294434  4.2799496650695801 34.5429344177246094
  4.5874505043029785 13.7529058456420898 34.5138587951660156
 13.2761707305908203  3.8320798873901363 34.7312049865722727
 12.6259393692016584 14.3858509063720703 34.6987609863281321
 18.0272477725520730 17.8559529483318329 40.8446426391601562
  0.2368500828742981  8.9954576492309570 40.9542884826660156
  8.9519386291503906  0.0701142400503159 40.9321517944335938
  9.0400915145874023  8.9374599456787109 40.8914527893066406
  4.5597753524780273  4.4515104293823242 40.9100646972656321
  4.5938205718994132 13.6447935104370117 40.8877067565917969
 13.4945478439331037  4.8489313125610352 40.9378242492675852
 13.4840869903564453 13.3788681030273420 40.8991355895996094
  2.3364202976226807  2.2208907604217529 37.9514579772949219
  2.7504246234893799 10.9634656906127930 37.9755554199218750
 11.5472126007080078  2.0581896305084229 38.2038345336914062
 11.4096164703369141 11.1739492416381836 37.9357872009277415
  6.5189285278320312  7.0302224159240723 37.8516197204589844
  6.6691360473632812 16.0080966949462891 37.9400482177734375
 16.0404834747314453  6.6536531448364258 37.9858779907226634
 15.6582202911376953 15.9387416839599609 37.8684082031250071
  2.2009091377258301  6.5895385742187500 38.0484504699707031
  2.2236769199371338 15.8115596771240234 37.9210395812988281
 10.7567510604858381  6.2696728706359863 37.5773086547851562
 11.1394758224487305 15.6609392166137695 38.3965797424316406
  7.0011668205261230  2.4132909774780273 37.9458312988281250
  6.9696006774902335 11.4849414825439453 38.0843811035156250
 15.9708709716796875  2.4763669967651367 38.1917533874511719
 16.1884460449218750 11.5611886978149414 38.3376045227050781
  0.0000000000000000  0.0000000000000000 47.1735610961914062
 -0.0024593239650130  9.0313997268676740 47.1735610961914062
  9.0304002761840803  0.0000000000000000 47.1735610961914062
  9.0279407501220685  9.0313997268676740 47.1735610961914062
  4.5139794349670410  4.5156998634338379 47.1742515563964844
  4.5115203857421875 13.5470991134643537 47.1742515563964844
 13.5443792343139648  4.5156998634338379 47.1742515563964844
 13.5419197082519531 13.5470991134643537 47.1742515563964844
  2.4519233703613277  2.0629522800445557 44.0401268005371165
  2.4494640827178955 11.0943517684936523 44.0401268005371165
 11.4823226928710920  2.0629522800445557 44.0401268005371165
 11.4798641204833984 11.0943517684936523 44.0401268005371165
  6.5760178565979004  6.9684472084045410 44.0401268005371165
  6.5735583305358887 15.9998464584350586 44.0401268005371165
 15.6064186096191406  6.9684472084045410 44.0401268005371165
 15.6039590835571289 15.9998464584350586 44.0401268005371165
  2.0610768795013428  6.5788145065307617 44.0400009155273509
  2.0586175918579102 15.6102142333984375 44.0400009155273509
 11.0914773941040039  6.5788145065307617 44.0400009155273509
 11.0890178680419922 15.6102142333984375 44.0400009155273509
  6.9668641090393066  2.4525938034057613 44.0400657653808665
  6.9644045829772949 11.4839935302734375 44.0400657653808665
 15.9972639083862305  2.4525938034057613 44.0400657653808665
 15.9948053359985352 11.4839935302734375 44.0400657653808665
  2.4316265583038330  2.0832188129425049 50.0684852600097656
  2.4291670322418213 11.1146183013915998 50.0684852600097656
 11.4620265960693359  2.0832188129425049 50.0684852600097656
 11.4595670700073224 11.1146183013915998 50.0684852600097656
  6.5963144302368164  6.9481806755065918 50.0684852600097656
  6.5938549041748047 15.9795799255371076 50.0684852600097656
 15.6267137527465803  6.9481806755065918 50.0684852600097656
 15.6242542266845703 15.9795799255371076 50.0684852600097656
  2.0811281204223633  6.5990090370178223 50.0690460205078125
  2.0786688327789307 15.6304082870483398 50.0690460205078125
 11.1115283966064453  6.5990090370178223 50.0690460205078125
 11.1090688705444336 15.6304082870483398 50.0690460205078125
  6.9468131065368652  2.4323906898498531 50.0690460205078125
  6.9443535804748535 11.4637899398803711 50.0690460205078125
 15.9772129058837891  2.4323906898498531 50.0690460205078125
 15.9747543334960938 11.4637899398803711 50.0690460205078125
 18.0149815902113914  0.0712944567203522 37.7308158874511719
  0.1140922009944916  9.1013383865356445 37.7564544677734375
  9.1121110916137695  0.0210719723254442 37.8338356018066406
  9.0605602264404297  9.0080833435058594 37.7336502075195312
  4.5874509811401367  4.4972434043884277 37.7528915405273438
  4.5355577468872061 13.5971736907958967 37.6801223754882812
 13.4808530807495117  4.5366663932800293 37.8172149658203125
 13.4291801452636719 13.6581897735595685 37.7500152587890625
  0.0000090280000222  0.0000090310004452 44.0429992675781250
 -0.0024502959568053  9.0314083099365234 44.0429992675781250
  9.0304088592529297  0.0000090310004452 44.0429992675781250
  9.0279493331909180  9.0314083099365234 44.0429992675781250
  4.5139703750610352  4.5156903266906738 44.0427513122558594
  4.5115113258361816 13.5470905303955078 44.0427513122558594
 13.5443706512451172  4.5156903266906738 44.0427513122558594
 13.5419111251831037 13.5470905303955078 44.0427513122558594
  0.0000000000000000  0.0000000000000000 50.4472808837890696
 -0.0024593239650130  9.0313997268676740 50.4472808837890696
  9.0304002761840803  0.0000000000000000 50.4472808837890696
  9.0279407501220685  9.0313997268676740 50.4472808837890696
  4.5139703750610352  4.5156998634338379 50.4472808837890696
  4.5115113258361816 13.5470991134643537 50.4472808837890696
 13.5443706512451172  4.5156998634338379 50.4472808837890696
 13.5419111251831055 13.5470991134643537 50.4472808837890696
