 H  C  N  I Pb 
 1.0000000000000000
    18.0608005523681641    0.0000000000000000    0.0000000000000000
    -0.0049186488613486   18.0627994537353516    0.0000000000000000
     0.0000000000000000    0.0000000000000000   62.4874992370605469
 H   C   N   I   Pb 
 143  39  47  72  24
Cartesian
  7.3526349067687988  5.1486377716064453 34.9587936401367188
  7.5266537666320792 12.5761661529541016 35.6537208557128977
 16.6863441467285156  5.2891416549682617 36.1692695617675781
 16.6932754516601562 14.6883392333984375 35.7938423156738281
  5.8237700462341300  1.6368337869644163 35.1468353271484375
  5.8856282234191895 10.2912502288818359 35.4647827148437500
 14.3430156707763672  1.9117596149444580 35.2346725463867259
  1.9532127380371067  4.3572211265563965 35.1017837524414062
  1.4251632690429692 12.3713445663452148 35.5338706970214844
 10.4930219650268555  3.3400342464447021 35.3039169311523438
 10.8126935958862305 13.8918914794921875 34.9603767395019531
  6.8535618782043457  0.3093167543411255 34.6405525207519531
  4.6267461776733398 11.2148265838623047 34.6749000549316406
 15.7613945007324201  0.9740547537803650 34.7401657104492259
  1.1188240051269509  5.2445878982543945 36.3295745849609375
 17.9228172302246094 12.5277032852172852 36.2886238098144531
  8.7861490249633789  3.1349887847900391 35.5825729370117188
  9.9880361557006818 12.6309509277343750 35.8319625854492188
  5.5135955810546866  7.8524961471557617 35.7173233032226562
  3.4421815872192383  1.1729347705841064 35.5153312683105469
 12.3081636428833008  0.5412648320198059 35.8352851867675781
  8.2663249969482422  6.6083135604858398 34.5909729003906250
  6.7543649673461914 13.7214002609252930 34.5920372009277415
 15.9545164108276367  4.4148879051208496 34.8371467590332031
 17.5015068054199219 15.7801809310913068 34.7106246948242188
  4.1292486190795898  7.1848220825195312 34.9261932373046875
  2.8580245235934854 17.6616007387638092 35.0889511108398509
 12.4000171879306436 16.9097452163696289 35.3913421630859375
 10.3023281097412109  5.5239439010620117 34.6636314392089844
  8.8233451843261719 14.7315464019775391 34.0412254333496094
 18.0417442321777344  3.6878790855407715 34.0229301452636719
  1.2434978485107415 14.3545722961425781 34.3525962829589844
  3.3634655475616455  9.2809686660766602 34.2020874023437500
  5.0057162502780557 16.8973329067230225 34.5055809020996094
 14.5720381001010537 17.0316083431243896 34.6997146606445312
  8.2210540771484375  5.4169740676879883 42.0576400756836009
  7.9586305618286124 14.7231702804565412 41.9140319824218750
 17.2569693326950109  5.1350431442260742 42.2557678222656321
 16.4716986417770421 13.3800516128540039 41.3384819030761719
  5.3311681747436523  0.7356778383255005 42.1948699951171875
  5.4320845603942871 10.1463155746459961 42.0416603088378906
 14.4017963409423828  0.9302523732185364 42.1871490478515625
 15.0420875549316388  8.4159383773803711 41.5238876342773438
  1.6336822509765623  3.0715880393981934 40.4424285888671946
  1.9592971801757812 12.6491851806640625 40.9513473510742188
 10.4081258773803711  2.9941205978393555 40.3821372985839844
 10.3508491516113281 12.1994714736938477 40.7273864746093750
  3.3395500183105469  7.4406676292419434 40.7038612365722656
  2.9651486137881875 16.8305399417877197 40.1933898925781250
 11.4510421752929670  8.8017425537109375 40.9472656250000000
 12.1422342518344522 16.5742230415344238 40.5687255859375000
  1.1325436830520630  3.3974854946136475 42.0854492187500071
  0.4267438650131226 11.8266162872314453 41.1683998107910156
  9.9152860641479492  3.4521670341491699 41.9869956970214844
  9.8275938034057617 12.9073171615600586 42.2183265686035156
  3.8155553340911865  8.1068716049194336 42.2344169616699290
  3.2948500374332070 17.2128132581710815 41.8594665527343821
 12.5895118713378906  7.7963604927062988 41.8143234252929688
 12.6115612247958779 17.0707344412803685 42.1680946350097656
  7.8369383811950684  6.0957803726196289 40.5059852600097656
  7.5031757354736328 14.9817876815795898 40.2493934631347656
 16.7057971954345703  5.7406606674194336 40.7184715270996165
 16.8091360330581665 15.0778484344482422 41.0721740722656250
  6.1822991371154785  1.1355876922607422 40.7464637756347656
  5.8026399612426758 10.5998735427856428 40.4003219604492188
 14.8662214279174805  1.4684131145477295 40.5911598205566406
 15.3682622909545898  9.7635707855224592 40.4763031005859375
  0.1115619689226151  4.5180549621582031 39.4772300720214915
  1.0034986734390259 14.7537050247192365 40.7694854736328196
  9.1695604324340820  4.6289644241333008 39.3221092224121094
  8.9383277893066406 13.4054851531982422 39.3986091613769531
  4.7401580074802041 18.0203076824545860 39.3588256835937571
  4.5359368324279776  8.9408731460571289 39.4414634704589844
 13.5111488560214621 18.0618423623964190 39.4752197265625071
 13.1141605377197248 10.1189699172973633 39.9930953979492188
  8.1032123565673828  5.4420318603515616 48.0459518432617259
  8.1007528305053711 14.4734306335449219 48.0459518432617259
 17.1336116790771484  5.4420318603515616 48.0459518432617259
 17.1311531066894531 14.4734306335449219 48.0459518432617259
  5.4410333633422852  0.9265221953392029 48.0449485778808594
  5.4385743141174316  9.9579219818115234 48.0449485778808594
 14.4714326858520490  0.9265221953392029 48.0449485778808594
 14.4689741134643555  9.9579219818115234 48.0449485778808594
  1.4218254089355467  3.0919990539550781 46.4558296203613281
  1.4193661212921143 12.1233978271484375 46.4558296203613281
 10.4522256851196289  3.0919990539550781 46.4558296203613281
 10.4497661590576172 12.1233978271484375 46.4558296203613281
  3.0899283885955806  7.6075901985168457 46.4545211791992188
  3.0874691009521484 16.6389904022216797 46.4545211791992188
 12.1203289031982422  7.6075901985168457 46.4545211791992188
 12.1178693771362305 16.6389904022216797 46.4545211791992188
  0.9247469902038573  3.5893490314483643 48.0459518432617259
  0.9222877025604248 12.6207475662231445 48.0459518432617259
  9.9551477432250977  3.5893490314483643 48.0459518432617259
  9.9526882171630859 12.6207475662231445 48.0459518432617259
  3.5868983268737793  8.1048498153686523 48.0448913574218821
  3.5844390392303462 17.1362495422363281 48.0448913574218821
 12.6172990798950195  8.1048498153686523 48.0448913574218821
 12.6148395538330078 17.1362495422363281 48.0448913574218821
  7.6061611175537109  5.9393639564514160 46.4558296203613281
  7.6037015914916992 14.9707632064819336 46.4558296203613281
 16.6365604400634766  5.9393639564514160 46.4558296203613281
 16.6341018676757812 14.9707632064819336 46.4558296203613281
  5.9380125999450684  1.4238001108169553 46.4545211791992188
  5.9355530738830566 10.4551992416381836 46.4545211791992188
 14.9684123992919904  1.4238001108169553 46.4545211791992188
 14.9659538269042951 10.4551992416381836 46.4545211791992188
 -0.0011664569610730  4.5157265663146973 45.3548011779785156
 -0.0036257810425013 13.5471258163452148 45.3548011779785156
  9.0292339324951172  4.5157265663146973 45.3548011779785156
  9.0267744064331037 13.5471258163452148 45.3548011779785156
  4.5152091979980469  0.0000000000000000 45.3536758422851562
  4.5127501487731934  9.0313997268676740 45.3536758422851562
 13.5456094741821289  0.0000000000000000 45.3536758422851562
 13.5431499481201172  9.0313997268676740 45.3536758422851562
 14.4423809051513654  9.1564388275146484 32.0986404418945312
 15.8576831817626953  9.0232000350952148 33.1652336120605540
 13.6644935607910156 11.1614522933959943 33.2449302673339844
 13.5966472625732422 11.1606979370117188 35.0047683715820312
 12.3957633972167969  7.9236536026000977 34.2718772888183594
 12.0272798538208008  9.5803174972534162 34.7589874267578125
 14.3519496917724609  7.5881576538085929 35.3464927673339915
 15.5723218917846680  8.8538284301757812 35.4976387023925781
 15.5132064819335920  6.7368507385253906 33.6091041564941406
 13.8097133636474609  6.7668023109436035 33.1749839782714844
 14.2332601547241211  6.9287357330322266 30.8430042266845703
 15.9142055511474609  7.4063405990600586 31.0583934783935582
 16.1664371490478516 11.0996484756469727 33.2923660278320312
 16.1452579498291016 10.9336528778076172 35.0647735595703125
 15.5176258087158203 12.4067478179931641 34.2990608215332031
 10.8622503280639648  9.0723762512207031 32.7158775329589915
 12.3328065872192383  8.6151771545410156 31.8369674682617223
 12.0531768798828125 10.3192062377929688 32.3235664367675852
 12.6936035156250000  8.9530477523803711 36.6511802673339844
 13.9363384246826172 10.2304134368896484 36.8687210083007884
 14.1712455749511719  8.6256093978881836 37.5409393310546875
 14.8765602111816406  4.6620254516601562 31.9553680419921911
 15.3421802520751935  4.9698820114135742 30.2873344421386719
 16.7164802551269531  2.8562982082366943 31.1874637603759801
 17.6144142150878906  6.9505457878112793 32.2041511535644531
  1.0304851531982420  2.2550003528594971 31.5287399291992188
  1.9051856994628880  6.3494534492492667 32.5512046813964844
  2.6893177032470721  4.0141010284423828 32.1850891113281250
 17.9937248229980469  4.3202929496765137 34.9109687805175781
  0.4091224670410193 14.0315589904785138 34.9881134033203125
  9.3932275772094727  4.9612216949462891 34.8827285766601562
  8.7912712097167969 13.8475885391235352 34.6820831298828125
  4.3205909729003906  9.2023687362670898 34.7246665954589844
  4.8549212673678994 17.9380293190479279 34.8087158203125000
 14.0815071323886514 17.9499318003654480 35.0336532592773438
  0.1340831667184830  4.4092597961425781 40.5632019042968750
  0.3704447448253632 13.8916473388671875 40.9715614318847656
  9.1246919631958008  4.5456080436706543 40.4073028564453125
  8.9148550033569336 13.5768508911132812 40.4733505249023438
  4.5749893188476554  9.0198688507080078 40.5301475524902344
  4.5604190090671182 18.0284306965768373 40.4346427917480540
 13.4019880294799805  9.3074483871459943 40.6632347106933665
 13.5101980427280068 18.0524561796337366 40.5690078735351562
  9.0289716720581055  4.5156092643737793 46.4455223083496165
  9.0265130996704102 13.5470085144042969 46.4455223083496165
 18.0593719482421875  4.5156092643737793 46.4455223083496165
 18.0569133758544922 13.5470085144042969 46.4455223083496165
  4.5152091979980469  0.0000180629995157 46.4442062377929759
  4.5127501487731934  9.0314178466796857 46.4442062377929759
 13.5456094741821289  0.0000180629995157 46.4442062377929759
 13.5431499481201172  9.0314178466796857 46.4442062377929759
 16.9796352386474609  4.9595980644226065 31.6380538940429688
 17.4328174591064453  3.6317269802093506 31.4705448150634801
 17.9141082763671875  5.9197864532470703 32.0312690734863281
  0.7112331390380856  3.2912023067474365 31.6643333435058594
  1.2002944946289067  5.5857071876525879 32.2195434570312500
  1.6401481628417960  4.2765731811523438 32.0307769775390625
 14.8236207962036133  8.6937341690063477 33.0124320983886719
 14.1697149276733381 10.7965583801269513 34.1467170715332102
 12.5272579193115217  8.9764499664306641 33.9928855895996094
 14.4911088943481445  8.6698141098022461 35.4531898498535156
 14.7943611145019531  7.1749916076660156 32.8999938964843750
 15.1245336532592773  6.7486152648925781 31.4644851684570348
 15.5905380249023438 11.3159828186035156 34.1990852355957031
 11.9396877288818359  9.2677698135375977 32.6268463134765625
 13.7661275863647461  9.1662387847900391 36.6774177551269602
 15.5384531021118146  5.2860441207885742 31.3260726928710973
  1.0606384277343732  4.6402597427368164 35.5007743835449219
  0.5459651947021529 12.8763284683227539 35.5994491577148509
  9.5445318222045898  3.6971909999847408 35.2015838623046875
  9.9287681579589826 13.4048538208007795 35.1589202880859375
  8.2491598129272461  5.5960159301757812 34.7725868225097656
  7.6243925094604492 13.3140487670898420 34.9485206604003906
 16.8055801391601562  4.6974244117736816 35.3289909362793040
 17.4261608123779297 14.8307504653930646 35.0939025878906250
  4.6960830688476562  8.0067844390869141 35.1162261962890625
  3.6419491767883301  0.2479564547538757 35.1396141052246165
 12.8263696888461709 17.8367222547531163 35.4021530151367188
  5.9020538330078125  0.6710439920425415 34.8233337402343750
  5.0074915885925293 10.3052768707275391 34.9316940307617188
 14.7706279754638654  1.0057448148727417 35.0105819702148438
  1.0070683956146240  3.5770351886749268 41.0810966491699219
  0.9396510124206543 12.7094612121582013 41.0436897277832031
  9.8554687499999982  3.6173744201660156 40.9767456054687571
  9.7335214614868164 12.8535175323486328 41.1963653564453196
  3.8769941329956055  8.1350231170654297 41.2120666503906321
  3.5424262741580601 17.3200160264968872 40.8732795715332102
 12.4342842102050781  8.5747947692871094 41.1628189086914062
 12.7223724583163840 17.1753712296485901 41.1536750793457031
  8.3521986007690430  5.3988218307495117 41.0416450500488281
  8.0700654983520508 14.4691858291625977 40.9260025024414134
 17.3393838405609131  5.1378421783447266 41.2405929565429688
 17.1433452367782593 14.1161708831787109 41.1124649047851634
  5.3982362747192383  0.6649179458618164 41.1778602600097727
  5.3079147338867188  9.9779052734375000 41.0369110107421875
 14.2959108352661133  0.8519237637519835 41.1703758239746165
 14.6803779602050781  9.1486530303955078 40.9104690551757812
  0.8273094892501831  3.6869695186614990 47.0359649658203125
  0.8248501420021057 12.7183685302734375 47.0359649658203125
  9.8577098846435547  3.6869695186614990 47.0359649658203125
  9.8552503585815412 12.7183685302734375 47.0359649658203125
  3.6843190193176270  8.2023353576660156 47.0346527099609375
  3.6818594932556152 17.2337341308593750 47.0346527099609375
 12.7147188186645508  8.2023353576660156 47.0346527099609375
 12.7122592926025391 17.2337341308593750 47.0346527099609375
  8.2006769180297852  5.3445744514465332 47.0360260009765696
  8.1982173919677734 14.3759746551513672 47.0360260009765696
 17.2310771942138672  5.3445744514465332 47.0360260009765696
 17.2286186218261719 14.3759746551513672 47.0360260009765696
  5.3436489105224600  0.8290914893150328 47.0346527099609375
  5.3411893844604483  9.8604917526245117 47.0346527099609375
 14.3740482330322266  0.8290914893150328 47.0346527099609375
 14.3715896606445312  9.8604917526245117 47.0346527099609375
 14.0124511718750000  9.2800025939941406 34.1476516723632884
  9.2910551289096475 17.7758998572826385 34.5752258300781321
  8.5806446075439453  9.2280931472778320 34.5635299682617259
  0.1002682596445084  0.2262697666883469 34.4669761657714844
  0.5386226177215576  8.7661323547363281 34.6227340698242188
  4.6846113204956055  4.3017601966857910 34.5887680053710938
  4.1439661979675293 13.8082628250122070 34.4057769775390625
 13.2510318756103516  4.1941366195678711 34.6423530578613352
 13.2813568115234375 14.3512630462646484 34.6156501770019602
 17.9704945543780923 17.8197207152843475 40.8868904113769602
  0.1888686269521713  9.1123962402343750 40.9265289306640625
  8.9731245040893555  0.0579344108700752 40.9207687377929688
  8.9444475173950195  9.1300973892211914 40.8635025024414062
  4.7395234107971191  4.3859395980834961 40.9308700561523438
  4.4350452423095703 13.6356391906738281 40.8416976928710938
 13.4722185134887695  4.9031243324279785 40.9401512145996165
 13.5511102676391602 13.2489051818847656 40.8814620971679759
  2.4336476325988770  2.1027207374572754 38.0033493041992188
  2.6447317600250244 10.9938249588012695 37.8833198547363352
 11.4894371032714844  2.0618877410888672 37.9861068725585938
 11.1850137710571289 11.4010591506958008 37.8996887207031250
  6.6407213211059570  6.9355845451354980 37.9743194580078125
  6.5797371864318839 15.9799060821533203 37.7943840026855540
 16.0313186645507812  6.6410641670227042 38.1741790771484446
 15.5623598098754883 16.0914554595947266 37.9332351684570312
  2.2866508960723877  6.6428842544555664 38.2364883422851634
  2.0803651809692383 15.7746734619140625 37.8561210632324219
 11.0399465560913086  6.5867509841918945 37.6525726318359446
 11.1410522460937500 15.6159391403198242 38.2824096679687500
  7.1293201446533203  2.4752888679504395 37.7433967590332031
  6.8527994155883780 11.4622488021850568 37.9241256713867188
 15.9252319335937482  2.4625616073608398 38.2528839111328125
 16.2834358215332031 11.6728105545043928 38.0870971679687571
  0.0000000000000000  0.0000000000000000 47.1735610961914062
 -0.0024593239650130  9.0313997268676740 47.1735610961914062
  9.0304002761840803  0.0000000000000000 47.1735610961914062
  9.0279407501220685  9.0313997268676740 47.1735610961914062
  4.5139794349670410  4.5156998634338379 47.1742515563964844
  4.5115203857421875 13.5470991134643537 47.1742515563964844
 13.5443792343139648  4.5156998634338379 47.1742515563964844
 13.5419197082519531 13.5470991134643537 47.1742515563964844
  2.4519233703613277  2.0629522800445557 44.0401268005371165
  2.4494640827178955 11.0943517684936523 44.0401268005371165
 11.4823226928710920  2.0629522800445557 44.0401268005371165
 11.4798641204833984 11.0943517684936523 44.0401268005371165
  6.5760178565979004  6.9684472084045410 44.0401268005371165
  6.5735583305358887 15.9998464584350586 44.0401268005371165
 15.6064186096191406  6.9684472084045410 44.0401268005371165
 15.6039590835571289 15.9998464584350586 44.0401268005371165
  2.0610768795013428  6.5788145065307617 44.0400009155273509
  2.0586175918579102 15.6102142333984375 44.0400009155273509
 11.0914773941040039  6.5788145065307617 44.0400009155273509
 11.0890178680419922 15.6102142333984375 44.0400009155273509
  6.9668641090393066  2.4525938034057613 44.0400657653808665
  6.9644045829772949 11.4839935302734375 44.0400657653808665
 15.9972639083862305  2.4525938034057613 44.0400657653808665
 15.9948053359985352 11.4839935302734375 44.0400657653808665
  2.4316265583038330  2.0832188129425049 50.0684852600097656
  2.4291670322418213 11.1146183013915998 50.0684852600097656
 11.4620265960693359  2.0832188129425049 50.0684852600097656
 11.4595670700073224 11.1146183013915998 50.0684852600097656
  6.5963144302368164  6.9481806755065918 50.0684852600097656
  6.5938549041748047 15.9795799255371076 50.0684852600097656
 15.6267137527465803  6.9481806755065918 50.0684852600097656
 15.6242542266845703 15.9795799255371076 50.0684852600097656
  2.0811281204223633  6.5990090370178223 50.0690460205078125
  2.0786688327789307 15.6304082870483398 50.0690460205078125
 11.1115283966064453  6.5990090370178223 50.0690460205078125
 11.1090688705444336 15.6304082870483398 50.0690460205078125
  6.9468131065368652  2.4323906898498531 50.0690460205078125
  6.9443535804748535 11.4637899398803711 50.0690460205078125
 15.9772129058837891  2.4323906898498531 50.0690460205078125
 15.9747543334960938 11.4637899398803711 50.0690460205078125
 17.9922832176089322  0.1205973252654076 37.7365074157714844
  0.1915218681097030  9.0530023574829084 37.7158660888671946
  9.0605091312900186 17.9424186423420906 37.7182197570800781
  9.0322866439819318  9.0388612747192383 37.6723709106445384
  4.6252045631408691  4.4601740837097168 37.8297462463378906
  4.3784933090209961 13.6370763778686523 37.6748733520507884
 13.4923362731933594  4.5544676780700684 37.8508338928222656
 13.5814828872680664 13.6760683059692383 37.7364654541015625
  0.0000090280000222  0.0000090310004452 44.0429992675781250
 -0.0024502959568053  9.0314083099365234 44.0429992675781250
  9.0304088592529297  0.0000090310004452 44.0429992675781250
  9.0279493331909180  9.0314083099365234 44.0429992675781250
  4.5139703750610352  4.5156903266906738 44.0427513122558594
  4.5115113258361816 13.5470905303955078 44.0427513122558594
 13.5443706512451172  4.5156903266906738 44.0427513122558594
 13.5419111251831037 13.5470905303955078 44.0427513122558594
  0.0000000000000000  0.0000000000000000 50.4472808837890696
 -0.0024593239650130  9.0313997268676740 50.4472808837890696
  9.0304002761840803  0.0000000000000000 50.4472808837890696
  9.0279407501220685  9.0313997268676740 50.4472808837890696
  4.5139703750610352  4.5156998634338379 50.4472808837890696
  4.5115113258361816 13.5470991134643537 50.4472808837890696
 13.5443706512451172  4.5156998634338379 50.4472808837890696
 13.5419111251831055 13.5470991134643537 50.4472808837890696
