 H  C  N  I Pb 
 1.0000000000000000
    18.0608005523681641    0.0000000000000000    0.0000000000000000
    -0.0049186488613486   18.0627994537353516    0.0000000000000000
     0.0000000000000000    0.0000000000000000   62.4874992370605469
 H   C   N   I   Pb 
 143  39  47  72  24
Cartesian
  8.3758707046508789  5.9101514816284180 35.8687171936035227
  8.1338987350463867 15.1905241012573242 35.8936424255371094
 16.6076374053955078  4.3621754646301270 36.3138580322265625
 17.0101718902587891 14.6054592132568342 36.1665077209472656
  5.5672907829284668  1.1842772960662842 35.8517189025878977
  5.8632798194885245 10.3231182098388672 35.9539146423339844
 14.3378391265869141  1.4543018341064451 36.0768089294433594
  1.9014167785644542  4.4173569679260254 34.9120903015136719
  1.6961460113525417 12.2531118392944318 35.5273170471191406
 10.1789236068725586  2.9873645305633545 34.8011436462402344
  8.9120159149169922 11.7187557220458984 35.2859382629394602
  6.5691680908203125  0.1006468981504440 34.9136657714843750
  4.9501490592956543 11.3395977020263672 34.8630027770996094
 15.6644639968872070  0.4784310758113861 35.4138526916503906
  1.0376968383789054  4.2568440437316895 36.4088668823242188
  0.3455085754394562 12.5230960845947266 36.6024284362793040
 10.3375930786132812  4.4493007659912109 35.7388725280761719
  8.3200855255126953 12.7689714431762695 36.5492973327636719
  5.1256184577941895  7.9292845726013175 36.1012496948242188
  3.1011507511138912  0.8422428369522094 35.6965713500976562
 12.0917110443115234  0.4569587409496307 35.9298477172851562
  6.9112930297851562  5.3294534683227539 35.0537681579589915
  8.9040937423706055 15.6991949081420898 34.3940887451171875
 15.8664913177490217  4.3080372810363770 34.7451133728027344
 17.6861267089843750 15.6733217239379883 34.9698333740234446
  3.6891324520111084  7.4965982437133789 35.1791572570800781
  2.5380419949069619 17.6479731202125549 34.6278648376464844
 12.0024742344394308 16.9107271432876587 35.1692810058593750
  7.9643936157226562  3.3986482620239258 34.2723274230957031
  9.4560899734497053 13.4607639312744141 33.8428611755371094
 17.9684658050537109  4.4616723060607910 33.6614379882812500
  1.3183135986328156 14.2343435287475586 34.3604965209961009
  3.4546098709106445  9.6307935714721662 34.2601852416992259
  4.7267698505893350 16.9908638000488281 34.0318222045898438
 14.2202123859897238 16.8193000555038452 34.7137260437011719
  8.3931665420532227  5.6197524070739746 42.1011238098144531
  7.9013767242431641 14.6219768524169922 42.0937461853027344
 17.2292881608009338  5.0265736579895020 42.3565483093261719
 16.6641300916671788 13.8954343795776367 42.1290550231933665
  5.5376687049865723  0.9861224889755249 42.0564918518066406
  5.2951498031616211  9.7883968353271467 42.3401069641113281
 14.2781229019165039  0.9916366338729858 42.1448936462402344
 15.3236341476440430  8.8322753906250000 41.6413307189941406
  1.6156376600265503  3.1345694065093994 40.3596611022949219
  1.7589042186737061 12.5260286331176758 40.7908134460449219
 10.4426269531250000  3.0271136760711670 40.5324935913085938
 10.3546161651611328 12.1839561462402344 40.8848190307617259
  3.2354168891906734  7.4258465766906729 40.4179191589355469
  3.1415821770206094 16.6853739023208618 40.5786590576171875
 11.7079219818115234  8.6928462982177734 41.2063369750976634
 12.1722082355991006 16.4770430326461792 40.5992469787597727
  1.0933630466461182  3.3161478042602539 42.0287437438964844
  0.6476671695709229 12.3018941879272443 42.1379737854003906
 10.2994108200073242  3.8644804954528804 42.0371246337890625
  9.6626472473144531 12.7352800369262678 42.3744964599609375
  3.6242816448211665  7.8280096054077148 42.0839042663574219
  3.6590286949649453 17.2816602587699890 42.1438026428222656
 13.0362682342529297  7.8574452400207520 42.0305480957031250
 12.5944704273715615 17.1034544706344604 42.1759796142578125
  7.4715003967285147  5.7628874778747559 40.6251487731933594
  7.6131939888000488 15.0910215377807599 40.4234123229980469
 16.7047601938247681  5.7852067947387695 40.8924484252929759
 16.6422333717346191 15.0022058486938477 40.7858123779296875
  6.0748872756958008  1.3894857168197632 40.4291267395019531
  5.7913312911987305 10.5145978927612305 40.8249588012695384
 14.8625354766845703  1.4300640821456909 40.5444641113281250
 15.4419231414794922 10.0642728805541992 40.4313278198242188
  0.1083200797438622  4.7022166252136230 39.5347557067871094
  0.5262743830680847 14.2479486465454102 39.8458518981933594
  8.6935253143310547  4.1292290687561035 39.5134086608886790
  9.1362943649291992 13.6040029525756836 39.5509262084960938
  4.6047414997592568 17.9968078881502151 39.3952636718750000
  4.5404362678527823  9.0954704284667969 39.5183982849121094
 13.5713285664096475 17.9097461104393005 39.4585533142089915
 13.1112442016601562 10.0964899063110352 40.0322113037109375
  8.1032123565673828  5.4420318603515616 48.0459518432617259
  8.1007528305053711 14.4734306335449219 48.0459518432617259
 17.1336116790771484  5.4420318603515616 48.0459518432617259
 17.1311531066894531 14.4734306335449219 48.0459518432617259
  5.4410333633422852  0.9265221953392029 48.0449485778808594
  5.4385743141174316  9.9579219818115234 48.0449485778808594
 14.4714326858520490  0.9265221953392029 48.0449485778808594
 14.4689741134643555  9.9579219818115234 48.0449485778808594
  1.4218254089355467  3.0919990539550781 46.4558296203613281
  1.4193661212921143 12.1233978271484375 46.4558296203613281
 10.4522256851196289  3.0919990539550781 46.4558296203613281
 10.4497661590576172 12.1233978271484375 46.4558296203613281
  3.0899283885955806  7.6075901985168457 46.4545211791992188
  3.0874691009521484 16.6389904022216797 46.4545211791992188
 12.1203289031982422  7.6075901985168457 46.4545211791992188
 12.1178693771362305 16.6389904022216797 46.4545211791992188
  0.9247469902038573  3.5893490314483643 48.0459518432617259
  0.9222877025604248 12.6207475662231445 48.0459518432617259
  9.9551477432250977  3.5893490314483643 48.0459518432617259
  9.9526882171630859 12.6207475662231445 48.0459518432617259
  3.5868983268737793  8.1048498153686523 48.0448913574218821
  3.5844390392303462 17.1362495422363281 48.0448913574218821
 12.6172990798950195  8.1048498153686523 48.0448913574218821
 12.6148395538330078 17.1362495422363281 48.0448913574218821
  7.6061611175537109  5.9393639564514160 46.4558296203613281
  7.6037015914916992 14.9707632064819336 46.4558296203613281
 16.6365604400634766  5.9393639564514160 46.4558296203613281
 16.6341018676757812 14.9707632064819336 46.4558296203613281
  5.9380125999450684  1.4238001108169553 46.4545211791992188
  5.9355530738830566 10.4551992416381836 46.4545211791992188
 14.9684123992919904  1.4238001108169553 46.4545211791992188
 14.9659538269042951 10.4551992416381836 46.4545211791992188
 -0.0011664569610730  4.5157265663146973 45.3548011779785156
 -0.0036257810425013 13.5471258163452148 45.3548011779785156
  9.0292339324951172  4.5157265663146973 45.3548011779785156
  9.0267744064331037 13.5471258163452148 45.3548011779785156
  4.5152091979980469  0.0000000000000000 45.3536758422851562
  4.5127501487731934  9.0313997268676740 45.3536758422851562
 13.5456094741821289  0.0000000000000000 45.3536758422851562
 13.5431499481201172  9.0313997268676740 45.3536758422851562
 12.9683246612548828  7.9122772216796866 33.8685302734375000
 13.2768650054931641  8.9625597000122070 32.4625473022460938
 11.8222665786743164  9.9991559982299805 35.0216140747070312
 12.7727880477905273 11.4864082336425781 34.8806648254394602
 15.2867231369018555  9.0757055282592773 35.7348251342773438
 14.1514215469360352 10.3216257095336914 36.3346557617187500
 15.6426334381103498 10.1128559112548828 33.2114372253417969
 14.3327217102050763 11.2906427383422852 32.9317054748535156
 15.6575956344604492  8.3839082717895508 32.4211006164550781
 15.6060571670532227  7.6615142822265616 34.0222244262695312
 15.7482671737670898  5.9135208129882812 32.4395217895507812
 14.1570920944213867  5.8261833190917969 33.1660423278808594
 11.5305223464965820  9.9401741027832031 32.5387153625488281
 12.4480695724487287 11.4641103744506818 32.3943557739257812
 10.9397878646850568 11.4210176467895508 33.2796745300292969
 13.5911207199096680  8.2008180618286133 37.3832359313964915
 13.5111160278320295  7.3258280754089355 35.8555908203125000
 12.2646627426147461  8.5232973098754883 36.2854309082031250
 14.8632497787475568 12.4161357879638672 35.0924377441406250
 16.2157516479492188 12.3195810317993146 33.9856643676757812
 16.1912231445312500 11.2176198959350586 35.3703079223632812
 14.7595701217651349  6.9717526435852042 30.3776874542236328
 14.1555480957031250  5.3785114288330078 30.7484951019287145
 11.9663963317871094  5.7522025108337402 32.6208763122558594
 13.1715183258056641  8.3241806030273438 29.3741569519043004
  9.6962385177612305  6.7825050354003906 32.5862770080566406
 10.9085836410522461  9.3387861251831055 29.3228015899658203
  9.1769514083862305  8.5506334304809570 30.9380340576171911
 17.9276866912841797  4.4028692245483398 34.7369422912597656
  0.6365280151367194 13.9345827102661133 35.1509361267089844
  8.5289096832275391  4.1395978927612305 34.8443107604980469
  8.9834976196289062 13.6761817932128906 34.8021316528320312
  4.2851195335388184  9.4268054962158203 34.9465827941894531
  4.5664729336276650 17.8397347033023834 34.7045860290527415
 13.8371013859286904 17.7063749134540558 35.2249450683593750
  0.1336023509502411  4.4554758071899414 40.6124687194824219
  0.1786049008369446 13.7684812545776367 40.7682495117187571
  8.9694261550903320  4.3932337760925293 40.5501747131347656
  8.9904375076293945 13.6333026885986328 40.6347122192382884
  4.5173783302307129  8.9704589843750000 40.6056632995605469
  4.6051201820373535  0.0005611218512058 40.4925918579101562
 13.5498561859130859  9.3908414840698242 40.7458839416503977
 13.5083870152011514 17.9728593602776527 40.5538635253906250
  9.0289716720581055  4.5156092643737793 46.4455223083496165
  9.0265130996704102 13.5470085144042969 46.4455223083496165
 18.0593719482421875  4.5156092643737793 46.4455223083496165
 18.0569133758544922 13.5470085144042969 46.4455223083496165
  4.5152091979980469  0.0000180629995157 46.4442062377929759
  4.5127501487731934  9.0314178466796857 46.4442062377929759
 13.5456094741821289  0.0000180629995157 46.4442062377929759
 13.5431499481201172  9.0314178466796857 46.4442062377929759
 12.7350454330444336  6.9702711105346671 31.0037307739257812
 11.7316532135009766  6.5244750976562500 31.8806381225585902
 12.4184074401855469  7.9718217849731445 30.0718917846679723
 10.4563465118408203  7.1052975654602051 31.8645668029785192
 11.1442632675170898  8.5522317886352539 30.0321235656738317
 10.1545419692993164  8.1173038482666016 30.9352989196777344
 13.7088575363159180  8.5714540481567383 33.3973007202148438
 12.5182275772094727 10.5504741668701172 34.3799018859863352
 14.2338027954101562  9.3982229232788086 35.7431869506835938
 14.8843164443969727 10.7329311370849609 33.6866302490234375
 15.0193738937377930  7.8011980056762695 33.1054611206054688
 14.7700519561767578  6.4217081069946289 32.4807205200195312
 11.8435907363891602 10.8457641601562482 33.0602149963378906
 13.3480548858642578  8.3115377426147461 36.3200759887695312
 15.5606727600097656 11.7110500335693359 34.6243820190429688
 14.1392688751220703  6.4202709197998047 31.0751323699951207
  1.0078926086425790  4.3153376579284668 35.3889122009277415
  0.9027233123779299 12.8255691528320312 35.8029022216796875
  9.7854509353637695  3.8727982044219971 35.1058692932128906
  8.7959861755371094 12.6839952468872070 35.6374855041503906
  7.9205522537231445  5.2501621246337891 35.2294960021972656
  8.6430416107177734 14.9312667846679688 35.0358085632324219
 16.7281475067138672  4.4310965538024902 35.2936286926269531
 17.6769618988037109 14.7296600341796857 35.3840026855468750
  4.3649630546569824  8.1985111236572266 35.4364471435546875
  3.3374786376953125  0.0694978088140488 35.0297431945800852
 12.5247768620029092 17.7497392594814301 35.3906059265136790
  5.6384720802307129  0.4181352257728577 35.1559715270996094
  5.1141567230224609 10.4043054580688459 35.2371063232421875
 14.6686143875122053  0.5843027234077453 35.6056747436523438
  0.9920912384986877  3.5868568420410156 41.0405158996582031
  0.8892378211021423 12.8093299865722656 41.2719116210937500
  9.9541893005371094  3.7443504333496094 41.0897102355957031
  9.7043075561523438 12.8122558593750000 41.3528556823730469
  3.7563335895538330  8.0096569061279297 41.0817260742187571
  3.7495402554050088 17.3049232959747314 41.1303176879882884
 12.7194604873657227  8.5607156753540039 41.3479003906250000
 12.7126049259677512 17.1397677659988403 41.1649818420410156
  8.2377052307128906  5.3273339271545410 41.1456451416015625
  8.1116971969604492 14.5069665908813477 41.1021614074707102
 17.3228372931480408  5.1179165840148917 41.3459091186523438
 17.1310487985610962 14.2618093490600586 41.2807731628418040
  5.4602713584899902  0.8493013978004456 41.0526046752929759
  5.2489347457885742  9.7976408004760742 41.3223114013671875
 14.2665491104125959  0.8421217203140259 41.1399421691894531
 14.8593912124633789  9.4234352111816406 40.9584426879882812
  0.8273094892501831  3.6869695186614990 47.0359649658203125
  0.8248501420021057 12.7183685302734375 47.0359649658203125
  9.8577098846435547  3.6869695186614990 47.0359649658203125
  9.8552503585815412 12.7183685302734375 47.0359649658203125
  3.6843190193176270  8.2023353576660156 47.0346527099609375
  3.6818594932556152 17.2337341308593750 47.0346527099609375
 12.7147188186645508  8.2023353576660156 47.0346527099609375
 12.7122592926025391 17.2337341308593750 47.0346527099609375
  8.2006769180297852  5.3445744514465332 47.0360260009765696
  8.1982173919677734 14.3759746551513672 47.0360260009765696
 17.2310771942138672  5.3445744514465332 47.0360260009765696
 17.2286186218261719 14.3759746551513672 47.0360260009765696
  5.3436489105224600  0.8290914893150328 47.0346527099609375
  5.3411893844604483  9.8604917526245117 47.0346527099609375
 14.3740482330322266  0.8290914893150328 47.0346527099609375
 14.3715896606445312  9.8604917526245117 47.0346527099609375
 13.8461751937866193  9.7771472930908203 34.3057250976562500
  9.1094961166381836  0.3258155286312103 34.5470428466796875
  8.7130079269409180  9.2601652145385742 34.7065696716308594
 17.9713509902358055  0.0964679419994354 34.4873275756835938
  0.6184144616127013  9.1475057601928711 34.6258277893066477
  4.4704442024230957  4.4922442436218262 34.6040306091308594
  4.3831701278686523 13.8149852752685547 34.5359802246093750
 13.3429737091064453  3.8308372497558589 34.7738609313964915
 12.7137432098388672 14.3285617828369141 34.4344444274902415
  0.0666940445080399 17.9931878224015271 40.9005050659179759
  0.2588292658329010  8.8884277343750000 40.9721450805664062
  9.0727176666259766  0.0172238294035196 40.9207534790039062
  9.0804243087768555  8.9264802932739258 40.9421424865722656
  4.6510868072509757  4.4360165596008301 40.9036903381347656
  4.5295081138610840 13.6051607131958008 40.9074897766113281
 13.4974956512451172  4.7069468498229980 40.9520111083984375
 13.5345544815063477 13.4257698059082031 40.8678817749023509
  2.4991796016693115  2.0753321647644043 37.9393424987792969
  2.6549983024597168 11.0550680160522461 38.1676521301269531
 11.6283149719238281  2.0217168331146240 38.1362495422363281
 11.2548332214355469 11.2990665435791016 38.3272285461425852
  6.5069947242736816  7.0750951766967765 38.0722045898437500
  6.7581534385681152 15.9282770156860352 37.8592567443847656
 15.9914102554321271  6.6892166137695312 38.2698669433593750
 15.6713056564331037 15.9219522476196289 38.1144866943359375
  2.1103215217590332  6.5671625137329102 38.0464630126953125
  2.1636104583740234 15.8118495941162109 38.0041580200195312
 10.6778097152709961  6.2470831871032715 37.7483482360839844
 11.0498218536376953 15.6158924102783203 38.1080932617187500
  6.9102377891540518  2.4035689830780029 37.9117927551269602
  6.8630399703979492 11.4575786590576172 38.3218765258789062
 16.0393791198730469  2.5773286819458008 38.3441696166992188
 16.4457893371582031 11.7283420562744141 38.5478973388671875
  0.0000000000000000  0.0000000000000000 47.1735610961914062
 -0.0024593239650130  9.0313997268676740 47.1735610961914062
  9.0304002761840803  0.0000000000000000 47.1735610961914062
  9.0279407501220685  9.0313997268676740 47.1735610961914062
  4.5139794349670410  4.5156998634338379 47.1742515563964844
  4.5115203857421875 13.5470991134643537 47.1742515563964844
 13.5443792343139648  4.5156998634338379 47.1742515563964844
 13.5419197082519531 13.5470991134643537 47.1742515563964844
  2.4519233703613277  2.0629522800445557 44.0401268005371165
  2.4494640827178955 11.0943517684936523 44.0401268005371165
 11.4823226928710920  2.0629522800445557 44.0401268005371165
 11.4798641204833984 11.0943517684936523 44.0401268005371165
  6.5760178565979004  6.9684472084045410 44.0401268005371165
  6.5735583305358887 15.9998464584350586 44.0401268005371165
 15.6064186096191406  6.9684472084045410 44.0401268005371165
 15.6039590835571289 15.9998464584350586 44.0401268005371165
  2.0610768795013428  6.5788145065307617 44.0400009155273509
  2.0586175918579102 15.6102142333984375 44.0400009155273509
 11.0914773941040039  6.5788145065307617 44.0400009155273509
 11.0890178680419922 15.6102142333984375 44.0400009155273509
  6.9668641090393066  2.4525938034057613 44.0400657653808665
  6.9644045829772949 11.4839935302734375 44.0400657653808665
 15.9972639083862305  2.4525938034057613 44.0400657653808665
 15.9948053359985352 11.4839935302734375 44.0400657653808665
  2.4316265583038330  2.0832188129425049 50.0684852600097656
  2.4291670322418213 11.1146183013915998 50.0684852600097656
 11.4620265960693359  2.0832188129425049 50.0684852600097656
 11.4595670700073224 11.1146183013915998 50.0684852600097656
  6.5963144302368164  6.9481806755065918 50.0684852600097656
  6.5938549041748047 15.9795799255371076 50.0684852600097656
 15.6267137527465803  6.9481806755065918 50.0684852600097656
 15.6242542266845703 15.9795799255371076 50.0684852600097656
  2.0811281204223633  6.5990090370178223 50.0690460205078125
  2.0786688327789307 15.6304082870483398 50.0690460205078125
 11.1115283966064453  6.5990090370178223 50.0690460205078125
 11.1090688705444336 15.6304082870483398 50.0690460205078125
  6.9468131065368652  2.4323906898498531 50.0690460205078125
  6.9443535804748535 11.4637899398803711 50.0690460205078125
 15.9772129058837891  2.4323906898498531 50.0690460205078125
 15.9747543334960938 11.4637899398803711 50.0690460205078125
 17.9968100637197495  0.0657325237989426 37.8139801025390696
  0.0977649539709091  9.1616239547729492 37.7570724487304688
  9.0954675674438477  0.1130154058337212 37.8157730102539062
  8.9921894073486328  9.0914697647094727 37.7735900878906250
  4.5074706077575684  4.5588636398315421 37.7910995483398438
  4.4508595466613770 13.6445846557617188 37.7194366455078125
 13.4942598342895508  4.6661806106567374 37.8515739440917969
 13.3370733261108381 13.6653270721435547 37.6045646667480469
  0.0000090280000222  0.0000090310004452 44.0429992675781250
 -0.0024502959568053  9.0314083099365234 44.0429992675781250
  9.0304088592529297  0.0000090310004452 44.0429992675781250
  9.0279493331909180  9.0314083099365234 44.0429992675781250
  4.5139703750610352  4.5156903266906738 44.0427513122558594
  4.5115113258361816 13.5470905303955078 44.0427513122558594
 13.5443706512451172  4.5156903266906738 44.0427513122558594
 13.5419111251831037 13.5470905303955078 44.0427513122558594
  0.0000000000000000  0.0000000000000000 50.4472808837890696
 -0.0024593239650130  9.0313997268676740 50.4472808837890696
  9.0304002761840803  0.0000000000000000 50.4472808837890696
  9.0279407501220685  9.0313997268676740 50.4472808837890696
  4.5139703750610352  4.5156998634338379 50.4472808837890696
  4.5115113258361816 13.5470991134643537 50.4472808837890696
 13.5443706512451172  4.5156998634338379 50.4472808837890696
 13.5419111251831055 13.5470991134643537 50.4472808837890696
