 H  C  N  I Pb 
 1.0000000000000000
    18.0608005523681641    0.0000000000000000    0.0000000000000000
    -0.0049186488613486   18.0627994537353516    0.0000000000000000
     0.0000000000000000    0.0000000000000000   62.4874992370605469
 H   C   N   I   Pb 
 143  39  47  72  24
Cartesian
  7.8950657844543457  5.5265240669250488 35.8466491699218750
  7.8083558082580558 15.0875015258789062 35.8665161132812500
 17.7607498168945312  5.6780643463134766 36.4047660827636719
 17.4373092651367188 14.5576133728027344 36.3396759033203196
  5.6904119709506622 17.5154563188552856 36.0217552185058594
  5.7947502136230469 10.1446552276611310 36.0310821533203125
 14.3551807403564453  1.2578511238098145 36.3296775817871094
  0.7225246429443374  2.4687602519989009 35.0816650390625000
  1.0279121398925777 11.5792636871337891 35.0259933471679688
 10.5036916732788086  3.3598754405975342 34.5498886108398509
  9.6381549835205060 12.0169706344604492 35.2297973632812500
  6.3439731597900391  0.5519514083862305 34.8482551574707031
  5.1148896217346191 11.2143793106079102 34.8339004516601562
 15.6227216720581037  0.8126655817031860 35.2364082336425781
  0.2611484527587907  3.2227065563201904 36.5740776062011719
  0.2759552001953136 12.2251853942871094 36.4571304321289134
 10.1785478591918945  4.6526007652282715 35.6815185546875000
  8.4200344085693359 12.6888446807861328 36.2987022399902344
  4.8571743965148926  7.8483734130859366 36.1534805297851562
  3.2258147457614537 17.0486652851104736 35.9279594421386790
 12.2511405944824219  0.0126891136169434 36.2385978698730469
  6.6832413673400879  4.7364215850830078 34.8726730346679688
  8.7508268356323242 15.9195032119750977 34.6505661010742259
  0.1757488250732417  6.4825472831726074 34.9266929626464844
 17.7549781799316406 15.4413385391235334 34.9004478454589915
  3.4717979431152339  7.5090436935424805 35.1195678710937500
  2.3098270157352090 17.9435235261917114 34.7523040771484446
 12.2195734241977334 16.6896599531173706 35.1471138000488281
  8.2370080947875977  3.3033416271209712 33.8658523559570312
  9.9854507446289062 14.0132064819335938 34.1083488464355469
  0.7374897003173851  4.4612011909484863 33.8671150207519531
  0.7380809783935542 13.5893125534057599 33.8570976257324219
  3.5671901702880859  9.6056566238403320 34.1129264831543040
  4.2149424552917480  0.9922544956207275 33.9294700622558665
 14.3327564457431436 17.0787051916122437 34.3625602722167969
  8.4438333511352539  5.7551717758178711 42.0915489196777344
  7.8111395835876465 14.8008975982666016 41.9373321533203125
 17.5475058555603027  4.9881386756896973 42.6312599182128906
 16.6642832756042516 13.9415283203125000 42.0784568786621094
  5.3697395324707022  0.9958760738372802 42.1679229736328125
  5.5664672851562500  9.8181343078613263 42.1586227416992188
 14.2353782653808576  1.1392935514450073 42.2049064636230469
 14.4146032333374023 10.6478567123413086 41.7752494812011790
  1.5472530126571655  3.0410656929016109 40.2901229858398509
  1.8203125000000000 12.6390771865844727 40.9866447448730469
 10.3720865249633789  2.9572095870971680 40.7344284057617259
 10.3606157302856428 12.2450618743896484 41.0979728698730469
  3.2360196113586421  7.4393763542175284 40.6090202331542969
  3.1714472034946084 16.5695248842239380 40.5728645324707031
 12.6655149459838867  7.4475107192993164 41.2714691162109375
 12.1939100483432412 16.6344333887100220 40.5304107666015696
  1.2566101551055908  3.2434561252593994 41.9930877685546875
  0.7059645652770996 12.4802360534667951 42.2854347229003906
 10.4273710250854492  4.1657404899597168 41.9827003479003977
  9.5686235427856445 12.9739952087402326 42.5093040466308665
  3.8278791904449463  7.8464431762695304 42.1656532287597656
  3.5637208679690957 17.1237717866897583 42.1431121826171875
 12.6851320266723633  8.8060092926025391 42.3740997314453125
 12.4162763813510537 17.3167299032211304 42.1035003662109375
  7.2200961112976074  5.4238672256469718 40.9145240783691477
  7.6315059661865234 15.0671339035034180 40.2277793884277344
 16.8289335966110229  5.7956614494323730 41.2421302795410156
 16.6002563238143921 14.9295597076416016 40.6422576904296875
  5.9025626182556143  1.4448562860488889 40.5854377746582031
  5.8451075553894043 10.4884586334228516 40.5924873352050852
 14.9969205856323242  1.4385486841201780 40.6839294433593750
 15.2178688049316388 10.4376716613769513 40.2566795349121165
  0.0070126056671143  4.6350173950195312 39.7032852172851562
  0.5799010396003723 14.1629772186279297 39.8498153686523438
  8.3217725753784180  3.6600975990295410 39.9654350280761719
  9.2109041213989258 13.5038976669311523 39.5998153686523438
  4.5873302677646279 18.0021755285561085 39.4699440002441406
  4.4496121406555176  9.0573797225952148 39.4986419677734446
 13.7816919544711709 17.9225390255451202 39.5239410400390625
 14.2240552902221680  8.3706178665161133 39.8496551513671875
  8.1032123565673828  5.4420318603515616 48.0459518432617259
  8.1007528305053711 14.4734306335449219 48.0459518432617259
 17.1336116790771484  5.4420318603515616 48.0459518432617259
 17.1311531066894531 14.4734306335449219 48.0459518432617259
  5.4410333633422852  0.9265221953392029 48.0449485778808594
  5.4385743141174316  9.9579219818115234 48.0449485778808594
 14.4714326858520490  0.9265221953392029 48.0449485778808594
 14.4689741134643555  9.9579219818115234 48.0449485778808594
  1.4218254089355467  3.0919990539550781 46.4558296203613281
  1.4193661212921143 12.1233978271484375 46.4558296203613281
 10.4522256851196289  3.0919990539550781 46.4558296203613281
 10.4497661590576172 12.1233978271484375 46.4558296203613281
  3.0899283885955806  7.6075901985168457 46.4545211791992188
  3.0874691009521484 16.6389904022216797 46.4545211791992188
 12.1203289031982422  7.6075901985168457 46.4545211791992188
 12.1178693771362305 16.6389904022216797 46.4545211791992188
  0.9247469902038573  3.5893490314483643 48.0459518432617259
  0.9222877025604248 12.6207475662231445 48.0459518432617259
  9.9551477432250977  3.5893490314483643 48.0459518432617259
  9.9526882171630859 12.6207475662231445 48.0459518432617259
  3.5868983268737793  8.1048498153686523 48.0448913574218821
  3.5844390392303462 17.1362495422363281 48.0448913574218821
 12.6172990798950195  8.1048498153686523 48.0448913574218821
 12.6148395538330078 17.1362495422363281 48.0448913574218821
  7.6061611175537109  5.9393639564514160 46.4558296203613281
  7.6037015914916992 14.9707632064819336 46.4558296203613281
 16.6365604400634766  5.9393639564514160 46.4558296203613281
 16.6341018676757812 14.9707632064819336 46.4558296203613281
  5.9380125999450684  1.4238001108169553 46.4545211791992188
  5.9355530738830566 10.4551992416381836 46.4545211791992188
 14.9684123992919904  1.4238001108169553 46.4545211791992188
 14.9659538269042951 10.4551992416381836 46.4545211791992188
 -0.0011664569610730  4.5157265663146973 45.3548011779785156
 -0.0036257810425013 13.5471258163452148 45.3548011779785156
  9.0292339324951172  4.5157265663146973 45.3548011779785156
  9.0267744064331037 13.5471258163452148 45.3548011779785156
  4.5152091979980469  0.0000000000000000 45.3536758422851562
  4.5127501487731934  9.0313997268676740 45.3536758422851562
 13.5456094741821289  0.0000000000000000 45.3536758422851562
 13.5431499481201172  9.0313997268676740 45.3536758422851562
 13.9906330108642560 10.0256834030151367 32.6169776916503906
 13.0401363372802734  8.5398645401000977 32.9233322143554688
 15.7504510879516602  9.0352754592895508 33.9511146545410156
 15.4336500167846680  8.6196289062500000 35.6361579895019531
 13.4029731750488281 11.5038938522338867 35.0227241516113281
 14.4947443008422852 10.7584667205810547 36.2280082702636719
 12.0177564620971662  9.8430414199829102 35.6928405761718750
 12.2294759750366211  8.1812610626220703 35.0427284240722656
 11.0947618484497070  9.9191837310791016 33.6567878723144531
 12.0410594940185547 11.4141721725463867 33.6639099121093750
 10.9731750488281232 11.6892242431640625 31.6699905395507848
 12.4130411148071289 10.8925848007202148 31.0691299438476562
 14.8580141067504865  6.9734740257263184 33.1491394042968750
 13.8052873611450195  6.7745828628540030 34.5344009399414062
 15.5111608505249023  6.5395903587341300 34.7209091186523438
 15.5980501174926758 12.4754791259765625 34.8541450500488281
 15.3220615386962873 11.5930328369140625 33.3733863830566406
 16.3904418945312500 10.9329071044921875 34.6345787048339915
 13.6856060028076172  9.3792638778686523 37.5519752502441406
 13.9379730224609375  7.7162590026855469 36.8932189941406250
 12.3375501632690430  8.1890945434570312 37.5115280151367188
  9.6671867370605469  9.6458091735839844 31.6241054534912145
 10.3833885192871076  9.9971771240234375 30.0284233093261719
 12.5968437194824219  8.7271900177001953 29.4128017425537109
 10.1062831878662109  7.5706558227539062 32.7036514282226562
 13.8073358535766602  6.5472784042358398 29.5479965209960973
 11.2859001159667969  5.4121294021606445 32.8693885803222727
 13.1396026611328107  4.8913040161132804 31.3113937377929688
  0.3955516815185556  4.4545512199401855 34.9034538269043040
  0.3619728088378916 13.5082216262817383 34.8523063659667969
  8.5432777404785156  4.0230460166931152 34.6125144958496094
  9.2121763229370117 13.9596767425537109 34.8804054260253906
  4.2850666046142578  9.3601322174072266 34.9059066772461009
  4.3219366073608398  0.2589407265186310 34.7392463684082102
 13.9166816929355264 17.7436371445655823 35.1317634582519602
  0.1468008905649185  4.4266672134399414 40.7496681213378977
  0.1767226159572601 13.7955379486083967 40.7861404418945312
  8.7867946624755859  4.1862621307373047 40.7837257385253906
  8.9964256286621094 13.6598501205444336 40.6363868713378906
  4.5314455032348633  8.9559822082519531 40.5662918090820384
  4.5416096905246377 18.0467298738658428 40.5495223999023438
 13.9316272735595703  8.9283971786499023 40.7354125976562500
 13.6161384582519513  0.0116903521120548 40.5799293518066406
  9.0289716720581055  4.5156092643737793 46.4455223083496165
  9.0265130996704102 13.5470085144042969 46.4455223083496165
 18.0593719482421875  4.5156092643737793 46.4455223083496165
 18.0569133758544922 13.5470085144042969 46.4455223083496165
  4.5152091979980469  0.0000180629995157 46.4442062377929759
  4.5127501487731934  9.0314178466796857 46.4442062377929759
 13.5456094741821289  0.0000180629995157 46.4442062377929759
 13.5431499481201172  9.0314178466796857 46.4442062377929759
 11.2799482345581055  8.3144178390502930 31.0782737731933629
 12.3240375518798828  7.9872236251831055 30.1990737915039062
 10.9185428619384766  7.3437266349792480 32.0208816528320384
 12.9754524230957031  6.7693519592285156 30.2592792510986364
 11.5679378509521467  6.1283030509948730 32.1002426147460938
 12.6092157363891602  5.8412237167358398 31.2212753295898438
 13.2011260986328107  9.5870580673217773 33.2415237426757812
 15.0146265029907227  8.5768775939941406 34.6226119995117188
 14.2699861526489258 10.8588142395019531 35.1567764282226562
 12.7219820022583008  8.9957714080810547 35.5944252014160156
 11.9272727966308594 10.4251050949096680 33.1476593017578125
 11.5209970474243146 10.7408399581909180 31.7006797790527379
 14.7598943710327131  7.1549320220947266 34.2203102111816406
 15.4610481262207031 11.4683103561401367 34.4531211853027415
 13.2251234054565430  8.5602226257324219 36.9632530212402344
 10.6277999877929688  9.6699705123901367 31.0605792999267578
  0.4579010009765657  3.3347928524017334 35.5589828491210938
  0.5864124298095730 12.3892545700073224 35.4856872558593750
  9.8143482208251935  4.0101079940795898 34.9501914978027344
  9.0945911407470685 12.8259305953979492 35.5295906066894531
  7.6708350181579590  4.8570551872253418 35.0859184265136719
  8.5120897293090820 15.0332183837890625 35.1095962524414062
 18.0352020263671875  5.5903220176696777 35.4041481018066406
 17.7605037689208984 14.5274648666381818 35.3708190917968750
  4.2169561386108398  8.1475257873535156 35.4253883361816406
  3.2350296238437295 17.6920443475246429 35.1516685485839844
 12.6897348621860147 17.5540064573287964 35.4981956481933594
  5.4943432807922363  0.0993909537792206 35.2648620605468750
  5.1208930015563965 10.2662620544433594 35.2960929870605469
 14.6921224594116211  0.6187787055969238 35.6432418823242259
  1.0492223501205444  3.4967610836029053 41.0404624938964915
  0.9453198909759521 12.8996810913085938 41.4103240966796875
  9.9559793472290021  3.7384381294250488 41.2019233703613281
  9.6745052337646484 12.9247589111328125 41.4826622009277344
  3.8314194679260254  8.0297040939331055 41.1545295715332031
  3.7160853603854771 17.2108001708984375 41.1386375427246094
 13.0399446487426758  8.3803491592407227 41.5221939086914062
 12.6913046101108193 17.3017256259918213 41.1174278259277344
  8.1310930252075195  5.1809062957763672 41.2861671447753977
  8.0979528427124023 14.5525722503662109 40.9654693603515625
 17.4937454462051392  5.0954837799072266 41.6012649536132812
 17.0800386667251622 14.2308692932128906 41.2071876525878977
  5.3073387145996094  0.8461507558822632 41.1414718627929688
  5.3544077873229980  9.8015346527099609 41.1571083068847656
 14.3113956451416016  0.9067869782447815 41.2001686096191406
 14.5182657241821289 10.0754594802856445 40.9514236450195312
  0.8273094892501831  3.6869695186614990 47.0359649658203125
  0.8248501420021057 12.7183685302734375 47.0359649658203125
  9.8577098846435547  3.6869695186614990 47.0359649658203125
  9.8552503585815412 12.7183685302734375 47.0359649658203125
  3.6843190193176270  8.2023353576660156 47.0346527099609375
  3.6818594932556152 17.2337341308593750 47.0346527099609375
 12.7147188186645508  8.2023353576660156 47.0346527099609375
 12.7122592926025391 17.2337341308593750 47.0346527099609375
  8.2006769180297852  5.3445744514465332 47.0360260009765696
  8.1982173919677734 14.3759746551513672 47.0360260009765696
 17.2310771942138672  5.3445744514465332 47.0360260009765696
 17.2286186218261719 14.3759746551513672 47.0360260009765696
  5.3436489105224600  0.8290914893150328 47.0346527099609375
  5.3411893844604483  9.8604917526245117 47.0346527099609375
 14.3740482330322266  0.8290914893150328 47.0346527099609375
 14.3715896606445312  9.8604917526245117 47.0346527099609375
 13.8157558441162109  9.5084066390991211 34.6423034667968821
  9.0913143157958984  0.4198556542396545 34.5241165161132812
  8.5075826644897461  9.1886205673217773 34.7893104553222656
 17.8329876968637144 18.0039995349943638 34.3685493469238281
  0.6741663217544556  8.9227933883666992 34.5600433349609375
  4.1470017433166504  4.2236089706420898 34.5422439575195384
  4.6757063865661621 13.7370615005493146 34.5573272705078196
 13.4136629104614258  3.7558500766754150 34.6958961486816477
 12.8831014633178711 14.2464714050292969 34.2330513000488281
  0.0238527832552791 17.9118896722793579 40.8930549621582031
  0.2283515185117721  8.9799013137817383 40.9737319946289062
  8.9868173599243164  0.1397750377655029 40.9149589538574219
  9.1070985794067383  8.9097127914428711 40.9645385742187571
  4.5854921340942374  4.4406290054321289 40.9368057250976562
  4.4376945495605469 13.6004552841186523 40.8953361511230469
 13.4308900833129865  4.7767872810363770 40.9223632812500000
 13.5784988403320312 13.6122369766235352 40.8488655090332031
  2.5273830890655518  1.8754310607910156 38.1503257751464915
  2.6495280265808105 10.9413394927978516 38.1002235412597656
 11.7332162857055664  1.8484933376312254 38.2031173706054688
 11.1453876495361310 11.5006961822509766 38.4004592895507812
  6.4197449684143066  7.0545444488525391 38.0679779052734446
  6.5420799255371094 16.0946369171142578 38.0022392272949219
 16.1283187866210938  6.5454320907592773 38.3792953491210938
 15.6387414932250977 15.9046106338500977 38.0831298828125000
  2.1257219314575195  6.4559617042541504 38.1997337341308594
  2.1398744583129883 15.6718130111694336 37.9798011779785227
 10.4447021484374982  5.9347586631774902 37.8310050964355469
 11.1033964157104492 15.6484642028808594 38.2308845520019531
  6.9235596656799308  2.3818004131317139 37.9162712097168040
  7.0176501274108887 11.5639686584472656 38.2270698547363281
 16.0584354400634766  2.5209243297576900 38.2821235656738281
 16.4787578582763672 11.6791324615478516 38.4332275390625000
  0.0000000000000000  0.0000000000000000 47.1735610961914062
 -0.0024593239650130  9.0313997268676740 47.1735610961914062
  9.0304002761840803  0.0000000000000000 47.1735610961914062
  9.0279407501220685  9.0313997268676740 47.1735610961914062
  4.5139794349670410  4.5156998634338379 47.1742515563964844
  4.5115203857421875 13.5470991134643537 47.1742515563964844
 13.5443792343139648  4.5156998634338379 47.1742515563964844
 13.5419197082519531 13.5470991134643537 47.1742515563964844
  2.4519233703613277  2.0629522800445557 44.0401268005371165
  2.4494640827178955 11.0943517684936523 44.0401268005371165
 11.4823226928710920  2.0629522800445557 44.0401268005371165
 11.4798641204833984 11.0943517684936523 44.0401268005371165
  6.5760178565979004  6.9684472084045410 44.0401268005371165
  6.5735583305358887 15.9998464584350586 44.0401268005371165
 15.6064186096191406  6.9684472084045410 44.0401268005371165
 15.6039590835571289 15.9998464584350586 44.0401268005371165
  2.0610768795013428  6.5788145065307617 44.0400009155273509
  2.0586175918579102 15.6102142333984375 44.0400009155273509
 11.0914773941040039  6.5788145065307617 44.0400009155273509
 11.0890178680419922 15.6102142333984375 44.0400009155273509
  6.9668641090393066  2.4525938034057613 44.0400657653808665
  6.9644045829772949 11.4839935302734375 44.0400657653808665
 15.9972639083862305  2.4525938034057613 44.0400657653808665
 15.9948053359985352 11.4839935302734375 44.0400657653808665
  2.4316265583038330  2.0832188129425049 50.0684852600097656
  2.4291670322418213 11.1146183013915998 50.0684852600097656
 11.4620265960693359  2.0832188129425049 50.0684852600097656
 11.4595670700073224 11.1146183013915998 50.0684852600097656
  6.5963144302368164  6.9481806755065918 50.0684852600097656
  6.5938549041748047 15.9795799255371076 50.0684852600097656
 15.6267137527465803  6.9481806755065918 50.0684852600097656
 15.6242542266845703 15.9795799255371076 50.0684852600097656
  2.0811281204223633  6.5990090370178223 50.0690460205078125
  2.0786688327789307 15.6304082870483398 50.0690460205078125
 11.1115283966064453  6.5990090370178223 50.0690460205078125
 11.1090688705444336 15.6304082870483398 50.0690460205078125
  6.9468131065368652  2.4323906898498531 50.0690460205078125
  6.9443535804748535 11.4637899398803711 50.0690460205078125
 15.9772129058837891  2.4323906898498531 50.0690460205078125
 15.9747543334960938 11.4637899398803711 50.0690460205078125
 17.9341795900836622 18.0618823260301724 37.8427047729492259
  0.1213804408907890  9.0074443817138672 37.9171485900878906
  9.0758581161499023  0.1609311103820801 37.7332344055175781
  8.9677257537841797  8.9271364212036133 37.8407478332519531
  4.4310445785522461  4.3852872848510742 37.7053604125976562
  4.4783196449279785 13.4726524353027326 37.6604003906250000
 13.4061269760131836  4.4776663780212402 37.7175445556640696
 13.3087854385375977 13.6242036819457990 37.6632461547851562
  0.0000090280000222  0.0000090310004452 44.0429992675781250
 -0.0024502959568053  9.0314083099365234 44.0429992675781250
  9.0304088592529297  0.0000090310004452 44.0429992675781250
  9.0279493331909180  9.0314083099365234 44.0429992675781250
  4.5139703750610352  4.5156903266906738 44.0427513122558594
  4.5115113258361816 13.5470905303955078 44.0427513122558594
 13.5443706512451172  4.5156903266906738 44.0427513122558594
 13.5419111251831037 13.5470905303955078 44.0427513122558594
  0.0000000000000000  0.0000000000000000 50.4472808837890696
 -0.0024593239650130  9.0313997268676740 50.4472808837890696
  9.0304002761840803  0.0000000000000000 50.4472808837890696
  9.0279407501220685  9.0313997268676740 50.4472808837890696
  4.5139703750610352  4.5156998634338379 50.4472808837890696
  4.5115113258361816 13.5470991134643537 50.4472808837890696
 13.5443706512451172  4.5156998634338379 50.4472808837890696
 13.5419111251831055 13.5470991134643537 50.4472808837890696
