 H  C  N  I Pb 
 1.0000000000000000
    18.0608005523681641    0.0000000000000000    0.0000000000000000
    -0.0049186488613486   18.0627994537353516    0.0000000000000000
     0.0000000000000000    0.0000000000000000   62.4874992370605469
 H   C   N   I   Pb 
 143  39  47  72  24
Cartesian
  7.8059701919555664  4.8885712623596191 36.4790840148925852
  7.6570363044738770 13.8427505493164045 36.2918586730957031
 16.9551124572753906  5.3240203857421875 36.4583168029785227
 17.1528949737548828 14.5552768707275391 36.3397064208984375
  5.5049638748168936  0.9231683611869812 36.3769149780273438
  5.4984798431396484 10.2572860717773420 36.0790100097656250
 14.0330038070678711  1.2048254013061523 36.3878402709961009
  1.6953067779541025  3.2829742431640621 35.1031074523925781
  1.5787944793701199 12.2635917663574219 34.9773406982421875
 10.7846136093139648  3.3582272529602051 35.0499382019043040
 11.0551252365112287 13.1374092102050781 35.0331268310546875
  6.5559563636779785  0.6517994999885559 34.9738006591796875
  5.3500590324401855 10.8651237487792969 34.4405097961425781
 15.0924882888793928  1.3525797128677368 34.9936294555664062
  1.2449207305908205  4.0733928680419922 36.5759353637695312
  0.5307769775390609 12.4825019836425781 36.3536987304687571
  9.7782764434814453  3.3459556102752686 36.4823646545410156
 10.0249090194702148 12.7761774063110352 36.3562469482421946
  4.4256682395935059  8.0312309265136719 36.5241432189941477
  3.2625767448917031 17.9469447806477547 36.3202629089355469
 12.4129213551059348 17.3988811373710668 36.3673248291015625
  7.5145311355590820  5.7583918571472159 34.9992980957031250
  7.3010454177856445 14.7739248275756836 34.8757934570312500
 16.1940765380859375  5.0975069999694815 34.9152488708496094
 17.2784843444824219 15.5675115585327148 34.9154129028320312
  3.6220965385437012  7.2466168403625488 35.1734352111816406
  2.8368598679080606 17.0371270179748535 34.8679733276367188
 12.4626783588901162 16.3015753030776978 34.9594917297363281
  9.3806352615356445  4.8374323844909668 33.9410362243652344
  9.3840475082397461 14.3937044143676758 33.9187278747558594
 17.8361167907714844  3.7976636886596680 33.9629020690917969
  0.8578453063964852 14.2398929595947266 33.9366569519043040
  4.1608400344848633  9.0101184844970703 33.7076339721679759
  4.9279603222385049 17.4615753293037415 33.8847045898437500
 14.1512817600741982 17.5195784568786621 33.9590263366699219
  7.9215703010559082  5.2526187896728516 42.1651191711425781
  7.8824534416198730 14.7740688323974609 41.9805946350097727
 17.2682960629463231  5.1905417442321777 42.4099769592285156
 16.9861075878143346 14.4440574645996094 42.2659606933593821
  5.4358119964599609  0.9301893711090087 42.1976928710937500
  5.3952121734619141 10.0337247848510724 42.2520828247070312
 14.5561523437500000  0.9245297908782959 42.2145309448242188
 14.5994224548339844 10.0139408111572266 42.1584625244140696
  1.5221518278121948  3.0969827175140381 40.4190711975097656
  1.6069991588592529 12.4119939804077148 40.7957191467285156
 10.4536972045898438  3.1434757709503169 40.4769973754882812
 10.2097721099853498 12.0319833755493164 41.1120758056640625
  3.2319641113281250  7.5030508041381836 40.6729164123535156
  3.0898255566135049 16.6735024452209473 40.5914916992187571
 12.0065803527832031  7.5609235763549796 40.9912719726562571
 12.0076736668124795 16.8335870504379308 40.6406288146972656
  1.1601165533065796  3.4042866230010986 42.0744285583496094
  0.8347563743591309 12.5910053253173810 42.3146057128906250
  9.7650661468505859  3.3617963790893555 42.0515747070312500
  9.5832538604736328 12.8116397857665998 42.5280914306640696
  3.6675927639007568  8.0536613464355469 42.2662239074707031
  3.5352052906528111 17.2062437534332275 42.1882324218750071
 12.7328739166259748  8.1011705398559570 42.4887008666992259
 12.5172447422519326 17.3238211274147034 42.2320938110351562
  7.6245455741882315  6.0036325454711905 40.6448097229003906
  7.6817803382873535 15.0795660018920898 40.2839660644531321
 16.6405501365661657  5.7974414825439453 40.9030265808105469
 16.7833200693130493 15.2065591812133789 40.7463607788086009
  6.0037074089050293  1.3692305088043213 40.6054420471191406
  5.8664612770080566 10.5421400070190430 40.6653938293457031
 15.1294260025024414  1.3242846727371216 40.6238784790039062
 14.7352857589721680 10.5130176544189453 40.5241241455078125
 17.9716158434748685  4.5986347198486319 39.5638618469238281
  0.4149680137634277 14.0441989898681641 39.7193107604980469
  9.1651697158813477  4.8185033798217773 39.4695663452148509
  9.1398506164550781 13.3835086822509766 39.6147422790527344
  4.6010283688083291 17.9979025721550023 39.4891510009765625
  4.5381045341491699  9.0172882080078125 39.5459556579589844
 13.6058124760165811 18.0453522726893425 39.5124778747558665
 13.1963310241699219  9.0571165084838867 39.6813774108886719
  8.1032123565673828  5.4420318603515616 48.0459518432617259
  8.1007528305053711 14.4734306335449219 48.0459518432617259
 17.1336116790771484  5.4420318603515616 48.0459518432617259
 17.1311531066894531 14.4734306335449219 48.0459518432617259
  5.4410333633422852  0.9265221953392029 48.0449485778808594
  5.4385743141174316  9.9579219818115234 48.0449485778808594
 14.4714326858520490  0.9265221953392029 48.0449485778808594
 14.4689741134643555  9.9579219818115234 48.0449485778808594
  1.4218254089355467  3.0919990539550781 46.4558296203613281
  1.4193661212921143 12.1233978271484375 46.4558296203613281
 10.4522256851196289  3.0919990539550781 46.4558296203613281
 10.4497661590576172 12.1233978271484375 46.4558296203613281
  3.0899283885955806  7.6075901985168457 46.4545211791992188
  3.0874691009521484 16.6389904022216797 46.4545211791992188
 12.1203289031982422  7.6075901985168457 46.4545211791992188
 12.1178693771362305 16.6389904022216797 46.4545211791992188
  0.9247469902038573  3.5893490314483643 48.0459518432617259
  0.9222877025604248 12.6207475662231445 48.0459518432617259
  9.9551477432250977  3.5893490314483643 48.0459518432617259
  9.9526882171630859 12.6207475662231445 48.0459518432617259
  3.5868983268737793  8.1048498153686523 48.0448913574218821
  3.5844390392303462 17.1362495422363281 48.0448913574218821
 12.6172990798950195  8.1048498153686523 48.0448913574218821
 12.6148395538330078 17.1362495422363281 48.0448913574218821
  7.6061611175537109  5.9393639564514160 46.4558296203613281
  7.6037015914916992 14.9707632064819336 46.4558296203613281
 16.6365604400634766  5.9393639564514160 46.4558296203613281
 16.6341018676757812 14.9707632064819336 46.4558296203613281
  5.9380125999450684  1.4238001108169553 46.4545211791992188
  5.9355530738830566 10.4551992416381836 46.4545211791992188
 14.9684123992919904  1.4238001108169553 46.4545211791992188
 14.9659538269042951 10.4551992416381836 46.4545211791992188
 -0.0011664569610730  4.5157265663146973 45.3548011779785156
 -0.0036257810425013 13.5471258163452148 45.3548011779785156
  9.0292339324951172  4.5157265663146973 45.3548011779785156
  9.0267744064331037 13.5471258163452148 45.3548011779785156
  4.5152091979980469  0.0000000000000000 45.3536758422851562
  4.5127501487731934  9.0313997268676740 45.3536758422851562
 13.5456094741821289  0.0000000000000000 45.3536758422851562
 13.5431499481201172  9.0313997268676740 45.3536758422851562
 14.0445899963378906  9.2501745223999023 32.5877799987792969
 15.6796684265136719  9.2656698226928711 33.4051933288574219
 13.7872867584228516 11.3840990066528320 33.7730369567871094
 13.8826465606689453 11.4064426422119141 35.5000419616699219
 12.2685651779174805  8.3452281951904297 35.0568809509277344
 12.2073125839233398 10.0480432510375977 35.4747085571289062
 14.5908145904541016  7.7852020263671875 35.8352851867675781
 15.7663049697875977  9.0676031112670898 35.8654479980468750
 15.5013456344604492  7.0581026077270508 34.0001220703125000
 13.7555494308471680  6.9189467430114746 33.7526664733886719
 13.9594411849975586  7.0417509078979483 31.4105873107910156
 15.5958776473999023  7.7007732391357422 31.4755363464355504
 16.1226863861083984 11.3467702865600586 33.3994789123535156
 16.4993419647216797 11.0587854385375977 35.0770111083984375
 15.7487401962280273 12.5961875915527326 34.5406532287597656
 10.7142133712768555  9.5856819152832031 33.5432701110839844
 12.0195665359497053  8.7546033859252930 32.6552124023437571
 12.0829162597656250 10.5303506851196289 32.9291152954101562
 13.2322320938110352  8.6641807556152344 37.5254325866699219
 13.5995740890502930 10.3065834045410156 37.0339927673339915
 14.7511949539184570  9.4545335769653320 37.9797325134277344
 15.1032371520996076  4.8950667381286612 32.4944915771484375
 15.2319335937500000  5.1884665489196777 30.7667369842529297
 16.9269542694091797  3.2979903221130371 31.4675998687744141
 17.5926570892333984  7.5457377433776855 32.1381225585937500
  1.2961006164550795  2.9445176124572754 31.5466728210449219
  1.8811111450195332  7.1757240295410156 32.2821083068847656
  2.8752059936523460  4.8578190803527832 31.9879341125488281
 17.9541263580322266  4.1521692276000977 35.0177917480468821
  0.4310684204101570 13.9350214004516602 34.8727455139160156
  9.1168375015258789  4.5512886047363281 34.9593238830566406
  9.1559581756591797 13.9358873367309570 34.8811645507812500
  4.4826440811157227  9.0725402832031250 34.7536315917968750
  4.6893414715304962 17.8808487355709076 34.8717498779296875
 13.7659000614657980 17.8754048049449921 34.9262275695800781
  0.0463277176022530  4.4599132537841797 40.6422080993652344
  0.1676117479801178 13.8217792510986310 40.7268180847167969
  9.0271768569946289  4.5914821624755859 40.5151290893554688
  8.9573106765747070 13.5693187713623029 40.6538963317871165
  4.5597877502441406  9.0314874649047852 40.6262245178222656
  4.5385297993198037 18.0573675050400198 40.5552825927734375
 13.3707227706909180  9.0348186492919922 40.7584686279296946
 13.5844230651855469  0.0465783998370171 40.5911865234375000
  9.0289716720581055  4.5156092643737793 46.4455223083496165
  9.0265130996704102 13.5470085144042969 46.4455223083496165
 18.0593719482421875  4.5156092643737793 46.4455223083496165
 18.0569133758544922 13.5470085144042969 46.4455223083496165
  4.5152091979980469  0.0000180629995157 46.4442062377929759
  4.5127501487731934  9.0314178466796857 46.4442062377929759
 13.5456094741821289  0.0000180629995157 46.4442062377929759
 13.5431499481201172  9.0314178466796857 46.4442062377929759
 17.0461215972900391  5.4782056808471680 31.7814559936523438
 17.6053295135498047  4.1526088714599609 31.5945091247558629
 17.9132862091064453  6.5260982513427734 31.9505538940429688
  0.9144229888916034  3.9506430625915527 31.6644992828369176
  1.2594051361084011  6.3050885200500488 32.0348815917968750
  1.7826328277587884  5.0250272750854492 31.9046249389648473
 14.6532859802246094  8.8603582382202148 33.4214096069335938
 14.3644323348999023 11.0025978088378906 34.6133804321289062
 12.5420980453491211  9.3496761322021484 34.6984138488769531
 14.6880779266357422  8.8667335510253906 35.9015808105468750
 14.6811418533325195  7.3779535293579102 33.3810882568359375
 14.9184637069702131  6.9186353683471680 31.9266090393066442
 15.7582216262817383 11.5069417953491211 34.4259147644042969
 11.8070096969604492  9.5745897293090820 33.3710441589355469
 14.0370798110961914  9.3343267440795898 37.1789436340332031
 15.5338249206542969  5.5629363059997559 31.7491760253906214
  1.0088748931884770  3.8041210174560542 35.6057701110839844
  0.8637771606445351 12.8310117721557617 35.4412803649902344
  9.9036712646484375  3.6679370403289795 35.5253334045410156
 10.0852098464965820 13.1957893371582013 35.4343070983886719
  8.0894651412963867  5.0946373939514160 35.5072021484375000
  7.9903440475463867 14.1935729980468750 35.3514747619628906
 16.9885063171386719  4.8953280448913574 35.5112876892089915
 17.5717906951904297 14.7097148895263672 35.4053077697753977
  4.1469879150390625  8.0624599456787109 35.5523109436035156
  3.5176960686221719 17.5947157442569733 35.4058837890625000
 12.8011459568515420 17.1696861982345581 35.4629478454589844
  5.6334261894226074  0.5169180035591125 35.4603843688964844
  5.1395378112792960 10.1264381408691406 35.1313514709472727
 14.3457136154174787  0.8499104380607605 35.4942779541015625
  0.9657728672027588  3.5952365398406982 41.0971107482910227
  0.9112872481346130 12.8750362396240217 41.3334770202636790
  9.8041448593139648  3.6293232440948486 41.0749130249023438
  9.6090145111083984 12.7562341690063477 41.4737968444824219
  3.7573056221008301  8.1222162246704102 41.2171630859375071
  3.6490809181705117 17.2498753070831299 41.1436157226562500
 12.6869783401489240  8.2122268676757812 41.4840850830078125
 12.6263565281406045 17.3600097298622131 41.1840934753417969
  8.1551322937011719  5.3061180114746094 41.1479721069335938
  8.1396837234497070 14.5082359313964844 40.9902267456054759
 17.2998519539833069  5.1820139884948730 41.3808097839355469
 17.2774598598480225 14.5161371231079102 41.3128204345703196
  5.4003252983093262  0.8418679237365723 41.1517982482910156
  5.3006515502929679  9.9041776657104492 41.2084236145019602
 14.4701681137084943  0.7910968065261841 41.1660499572753906
 14.2729167938232422  9.8954668045043945 41.1948280334472727
  0.8273094892501831  3.6869695186614990 47.0359649658203125
  0.8248501420021057 12.7183685302734375 47.0359649658203125
  9.8577098846435547  3.6869695186614990 47.0359649658203125
  9.8552503585815412 12.7183685302734375 47.0359649658203125
  3.6843190193176270  8.2023353576660156 47.0346527099609375
  3.6818594932556152 17.2337341308593750 47.0346527099609375
 12.7147188186645508  8.2023353576660156 47.0346527099609375
 12.7122592926025391 17.2337341308593750 47.0346527099609375
  8.2006769180297852  5.3445744514465332 47.0360260009765696
  8.1982173919677734 14.3759746551513672 47.0360260009765696
 17.2310771942138672  5.3445744514465332 47.0360260009765696
 17.2286186218261719 14.3759746551513672 47.0360260009765696
  5.3436489105224600  0.8290914893150328 47.0346527099609375
  5.3411893844604483  9.8604917526245117 47.0346527099609375
 14.3740482330322266  0.8290914893150328 47.0346527099609375
 14.3715896606445312  9.8604917526245117 47.0346527099609375
 14.0945873260498029  9.5094594955444336 34.6842079162597656
  8.9870796203613281  0.0411756001412868 34.5025978088378906
  8.4301309585571289  8.6664590835571289 34.7246971130371094
 17.8909583389759064  0.1331560611724854 34.4361686706543040
  0.5047942399978638  8.9089136123657227 34.9156951904296875
  4.6065421104431152  4.4507150650024414 34.6574401855468750
  4.4160728454589844 13.7224979400634766 34.4681663513183594
 13.3235950469970685  4.1150865554809570 34.7016868591308665
 13.0083780288696271 14.0907106399536133 34.1112060546875000
  0.1056733950972557  0.0091212065890431 40.8958435058593750
  0.0286318939179182  9.1061143875122070 41.0360069274902344
  9.0573291778564453  0.0346626155078411 40.8858261108398438
  9.0128536224365234  9.0069503784179688 40.9321899414062571
  4.5060510635375977  4.4677481651306152 40.9420394897460938
  4.5243573188781738 13.5405158996582031 40.8988838195800781
 13.4051513671875000  4.4787645339965820 40.9475326538085938
 13.5689382553100586 13.7220916748046875 40.8121185302734375
  2.6553463935852051  1.8351883888244629 38.0152359008789062
  2.7039165496826172 10.9382677078247070 38.0263900756835938
 11.5656728744506818  1.9050939083099365 38.0410346984863281
 11.0979261398315430 11.5001487731933594 38.4224014282226562
  6.4798359870910645  7.0156211853027344 38.2129898071289062
  6.4884142875671387 16.1186656951904297 37.9934310913086009
 15.9858922958374006  6.6373286247253418 38.4263076782226634
 15.4715061187744141 16.1663799285888672 37.9278106689453196
  2.0369148254394531  6.4191107749938965 38.1238327026367259
  1.9682587385177612 15.5669631958007812 37.9305305480957102
 11.1164989471435547  6.6216359138488770 37.9339866638183594
 11.0412473678588867 15.6115932464599609 38.1084518432617188
  7.1315164566040039  2.5520994663238525 38.1187553405761719
  6.9806060791015625 11.6593322753906250 37.8686523437500000
 16.0691223144531250  2.4289860725402832 38.1677207946777415
 16.4855461120605469 11.9886884689331037 38.3739166259765625
  0.0000000000000000  0.0000000000000000 47.1735610961914062
 -0.0024593239650130  9.0313997268676740 47.1735610961914062
  9.0304002761840803  0.0000000000000000 47.1735610961914062
  9.0279407501220685  9.0313997268676740 47.1735610961914062
  4.5139794349670410  4.5156998634338379 47.1742515563964844
  4.5115203857421875 13.5470991134643537 47.1742515563964844
 13.5443792343139648  4.5156998634338379 47.1742515563964844
 13.5419197082519531 13.5470991134643537 47.1742515563964844
  2.4519233703613277  2.0629522800445557 44.0401268005371165
  2.4494640827178955 11.0943517684936523 44.0401268005371165
 11.4823226928710920  2.0629522800445557 44.0401268005371165
 11.4798641204833984 11.0943517684936523 44.0401268005371165
  6.5760178565979004  6.9684472084045410 44.0401268005371165
  6.5735583305358887 15.9998464584350586 44.0401268005371165
 15.6064186096191406  6.9684472084045410 44.0401268005371165
 15.6039590835571289 15.9998464584350586 44.0401268005371165
  2.0610768795013428  6.5788145065307617 44.0400009155273509
  2.0586175918579102 15.6102142333984375 44.0400009155273509
 11.0914773941040039  6.5788145065307617 44.0400009155273509
 11.0890178680419922 15.6102142333984375 44.0400009155273509
  6.9668641090393066  2.4525938034057613 44.0400657653808665
  6.9644045829772949 11.4839935302734375 44.0400657653808665
 15.9972639083862305  2.4525938034057613 44.0400657653808665
 15.9948053359985352 11.4839935302734375 44.0400657653808665
  2.4316265583038330  2.0832188129425049 50.0684852600097656
  2.4291670322418213 11.1146183013915998 50.0684852600097656
 11.4620265960693359  2.0832188129425049 50.0684852600097656
 11.4595670700073224 11.1146183013915998 50.0684852600097656
  6.5963144302368164  6.9481806755065918 50.0684852600097656
  6.5938549041748047 15.9795799255371076 50.0684852600097656
 15.6267137527465803  6.9481806755065918 50.0684852600097656
 15.6242542266845703 15.9795799255371076 50.0684852600097656
  2.0811281204223633  6.5990090370178223 50.0690460205078125
  2.0786688327789307 15.6304082870483398 50.0690460205078125
 11.1115283966064453  6.5990090370178223 50.0690460205078125
 11.1090688705444336 15.6304082870483398 50.0690460205078125
  6.9468131065368652  2.4323906898498531 50.0690460205078125
  6.9443535804748535 11.4637899398803711 50.0690460205078125
 15.9772129058837891  2.4323906898498531 50.0690460205078125
 15.9747543334960938 11.4637899398803711 50.0690460205078125
 18.0447644293308294  0.0723160356283188 37.6440429687500000
  0.1737837642431259  9.1100645065307617 37.9736900329589844
  9.0621074894443154 18.0607365316245705 37.6459884643554759
  9.0001049041748047  8.9781303405761719 37.7400360107421875
  4.6072087287902823  4.4820032119750977 37.7478370666503977
  4.4979457855224609 13.6530027389526367 37.6782951354980469
 13.5232009887695312  4.5161876678466797 37.8428688049316406
 13.5236482620239258 13.6684684753417951 37.7871665954589915
  0.0000090280000222  0.0000090310004452 44.0429992675781250
 -0.0024502959568053  9.0314083099365234 44.0429992675781250
  9.0304088592529297  0.0000090310004452 44.0429992675781250
  9.0279493331909180  9.0314083099365234 44.0429992675781250
  4.5139703750610352  4.5156903266906738 44.0427513122558594
  4.5115113258361816 13.5470905303955078 44.0427513122558594
 13.5443706512451172  4.5156903266906738 44.0427513122558594
 13.5419111251831037 13.5470905303955078 44.0427513122558594
  0.0000000000000000  0.0000000000000000 50.4472808837890696
 -0.0024593239650130  9.0313997268676740 50.4472808837890696
  9.0304002761840803  0.0000000000000000 50.4472808837890696
  9.0279407501220685  9.0313997268676740 50.4472808837890696
  4.5139703750610352  4.5156998634338379 50.4472808837890696
  4.5115113258361816 13.5470991134643537 50.4472808837890696
 13.5443706512451172  4.5156998634338379 50.4472808837890696
 13.5419111251831055 13.5470991134643537 50.4472808837890696
