 H  C  N  I Pb 
 1.0000000000000000
    18.0608005523681641    0.0000000000000000    0.0000000000000000
    -0.0049186488613486   18.0627994537353516    0.0000000000000000
     0.0000000000000000    0.0000000000000000   62.4874992370605469
 H   C   N   I   Pb 
 143  39  47  72  24
Cartesian
  8.0665473937988281  5.4427418708801270 36.3932838439941477
  8.0161914825439453 15.0695867538452148 36.1684646606445312
 17.2003841400146484  4.8240237236022949 36.6177558898925781
 17.4895229339599609 14.5610332489013672 36.6401824951171875
  5.4248695373535156  0.7926663160324097 36.4450378417968821
  5.4800739288330078  9.9638929367065430 36.4160537719726562
 14.0033302307128906  1.2054212093353271 36.3492469787597656
  1.8792514801025393  3.5161206722259521 34.6092948913574219
  1.4880809783935551 12.2618999481201172 34.8055343627929688
 10.4771080017089844  3.2110576629638672 34.8534965515136719
  9.6682128906250000 11.8727102279663086 35.3960189819336009
  6.4289746284484863  0.8182016015052795 34.9883270263671875
  5.5967235565185547 10.8215923309326172 34.9003562927246094
 15.0903863906860334  1.3528225421905515 34.9774208068847656
  1.3429126739501966  3.6708905696868896 36.2897377014160156
  0.8144397735595716 12.4963703155517578 36.3808822631835938
 10.1507682800292969  4.0646758079528809 36.3025360107421875
  9.1357631683349609 12.8460569381713849 36.7021255493164062
  4.0521702766418457  7.8904228210449219 36.4129753112792969
  3.2542561748996377 17.6041842401027679 36.2978363037109375
 12.4122699955478311 17.3743543624877930 36.3226737976074219
  7.0143518447875977  5.3276944160461426 34.9973297119140625
  7.9690561294555664 15.4640789031982422 34.4775352478027344
 16.3433685302734375  5.2466955184936523 35.1708145141601562
 17.2764167785644531 15.5778837203979492 35.2715568542480469
  3.3232405185699463  7.4472618103027344 34.8761596679687500
  2.8542722919955850 16.9218070507049596 34.7301750183105469
 12.4978489140048623 16.2561078071594238 34.9170036315918040
  8.4800949096679688  3.8985352516174316 33.8533668518066406
  9.0237331390380859 13.5122318267822266 33.7606773376464844
 17.9988613128662109  4.5129280090332031 33.7490921020507812
  0.5471992492675791 14.1948413848876935 33.9039573669433665
  4.2475810050964355  9.2799234390258789 33.7744102478027415
  4.8720006207004181 17.6633135676383972 33.7701339721679688
 14.1617283085361105 17.4796481728553772 33.9341812133789062
  8.1761426925659180  5.5474548339843741 42.2398910522461009
  7.9344902038574219 14.7056388854980469 42.1424865722656250
 17.2257750630378723  5.2099857330322266 42.3885765075683665
 17.0177583694458008 14.5616388320922852 42.1911849975585938
  5.4713039398193359  0.8934304714202880 42.1603736877441406
  5.3289275169372550  9.9877290725708008 42.2949714660644602
 14.6334333419799805  0.8911440372467041 42.2025566101074290
 15.0463533401489258  9.7259016036987305 42.0786781311035156
  1.5304009914398193  3.0986716747283936 40.4866142272949219
  1.6004623174667358 12.3755273818969727 40.8697166442871094
 10.3080148696899414  2.9700434207916255 40.6826896667480469
 10.2767572402954102 12.0583324432373029 41.0320320129394531
  3.3606426715850826  7.4296798706054688 40.4665069580078125
  3.0576173523440957 16.6130659580230713 40.6487159729003906
 11.9110689163208008  8.0069122314453125 40.8839950561523509
 11.9974302509799600 16.8735780715942383 40.6755027770996165
  1.1305540800094604  3.4409863948822017 42.1247520446777344
  0.7961421608924866 12.7005624771118164 42.3583641052246094
 10.0212812423706055  3.6259250640869141 42.2220497131347656
  9.6893396377563459 12.7531738281250000 42.5254592895507812
  3.7024781703948975  7.9070549011230469 42.1025924682617259
  3.6044828156009316 17.1212955713272095 42.2334632873535156
 12.9764766693115234  8.0500755310058594 42.3024177551269531
 12.5782465199008584 17.3145544528961182 42.2555160522461009
  7.5028591156005859  5.8456554412841797 40.6800193786621094
  7.6572990417480469 15.0780944824218750 40.4772109985351562
 16.6115243434906006  5.7759165763854980 40.8629112243652415
 16.7689257860183751 15.1792964935302734 40.6064414978027344
  5.9405355453491211  1.3629734516143797 40.5638084411621165
  5.8780188560485840 10.6036491394042969 40.7421798706054759
 15.1533432006835938  1.3319518566131592 40.5968780517578125
 15.1567564010620117 10.4468889236450195 40.4809875488281250
 17.9809641614556313  4.5593342781066886 39.5859718322753906
  0.4042833447456360 13.9137144088745117 39.6705245971679688
  8.7478847503662109  4.2706484794616699 39.5836791992187500
  9.1164035797119141 13.4398889541625977 39.6649055480957031
  4.4799284199252725 17.9817317873239517 39.4830017089843750
  4.6585645675659180  9.0598516464233398 39.4902572631835938
 13.5619392395019531  0.0392364375293255 39.5148391723632812
 13.2415742874145508  9.4597492218017578 39.6611251831054759
  8.1032123565673828  5.4420318603515616 48.0459518432617259
  8.1007528305053711 14.4734306335449219 48.0459518432617259
 17.1336116790771484  5.4420318603515616 48.0459518432617259
 17.1311531066894531 14.4734306335449219 48.0459518432617259
  5.4410333633422852  0.9265221953392029 48.0449485778808594
  5.4385743141174316  9.9579219818115234 48.0449485778808594
 14.4714326858520490  0.9265221953392029 48.0449485778808594
 14.4689741134643555  9.9579219818115234 48.0449485778808594
  1.4218254089355467  3.0919990539550781 46.4558296203613281
  1.4193661212921143 12.1233978271484375 46.4558296203613281
 10.4522256851196289  3.0919990539550781 46.4558296203613281
 10.4497661590576172 12.1233978271484375 46.4558296203613281
  3.0899283885955806  7.6075901985168457 46.4545211791992188
  3.0874691009521484 16.6389904022216797 46.4545211791992188
 12.1203289031982422  7.6075901985168457 46.4545211791992188
 12.1178693771362305 16.6389904022216797 46.4545211791992188
  0.9247469902038573  3.5893490314483643 48.0459518432617259
  0.9222877025604248 12.6207475662231445 48.0459518432617259
  9.9551477432250977  3.5893490314483643 48.0459518432617259
  9.9526882171630859 12.6207475662231445 48.0459518432617259
  3.5868983268737793  8.1048498153686523 48.0448913574218821
  3.5844390392303462 17.1362495422363281 48.0448913574218821
 12.6172990798950195  8.1048498153686523 48.0448913574218821
 12.6148395538330078 17.1362495422363281 48.0448913574218821
  7.6061611175537109  5.9393639564514160 46.4558296203613281
  7.6037015914916992 14.9707632064819336 46.4558296203613281
 16.6365604400634766  5.9393639564514160 46.4558296203613281
 16.6341018676757812 14.9707632064819336 46.4558296203613281
  5.9380125999450684  1.4238001108169553 46.4545211791992188
  5.9355530738830566 10.4551992416381836 46.4545211791992188
 14.9684123992919904  1.4238001108169553 46.4545211791992188
 14.9659538269042951 10.4551992416381836 46.4545211791992188
 -0.0011664569610730  4.5157265663146973 45.3548011779785156
 -0.0036257810425013 13.5471258163452148 45.3548011779785156
  9.0292339324951172  4.5157265663146973 45.3548011779785156
  9.0267744064331037 13.5471258163452148 45.3548011779785156
  4.5152091979980469  0.0000000000000000 45.3536758422851562
  4.5127501487731934  9.0313997268676740 45.3536758422851562
 13.5456094741821289  0.0000000000000000 45.3536758422851562
 13.5431499481201172  9.0313997268676740 45.3536758422851562
 12.9608354568481445  8.1005287170410156 34.0856475830078125
 13.3624687194824219  9.1790628433227539 32.7426071166992188
 11.7115001678466797  9.7794971466064453 35.0326423645019531
 12.3584861755371094 11.4711494445800781 35.2081184387207031
 15.0775556564331037  9.2105979919433576 36.1145248413085938
 13.9509544372558576 10.3885803222656250 36.7057762145996094
 15.6820936203002930 10.1076316833496094 33.8220252990722656
 14.5575008392333984 11.1957225799560529 33.0170898437500000
 15.6921234130859375  8.6844997406005859 32.8019523620605469
 15.5978040695190430  8.0642585754394531 34.4170570373535156
 16.0238761901855469  6.3468561172485352 32.8941268920898438
 14.4083080291748047  6.0719270706176758 33.5443077087402344
 11.1592607498168928  9.9315843582153320 32.9005889892578125
 12.4517564773559570 11.0670328140258771 32.4107475280761719
 11.0354967117309570 11.6596755981445312 33.2660064697265625
 13.2330121994018555  8.1724586486816406 37.5899887084961009
 13.3942079544067383  7.4244785308837891 36.0557556152343750
 12.0812673568725586  8.5257472991943359 36.3663139343261790
 15.0911884307861328 12.2252759933471680 35.7286796569824219
 15.8061447143554688 12.7643899917602521 34.2046508789062500
 16.5858879089355469 11.4828567504882812 35.1704750061035156
 15.1248502731323242  7.2178001403808585 30.8019065856933594
 14.5052671432495117  5.5841722488403320 31.1885185241699254
 12.0995244979858398  5.7175536155700684 32.6639747619628906
 13.5752449035644531  8.7824954986572266 29.9951000213623047
  9.7743473052978498  6.6103329658508292 32.4220809936523438
 11.2479600906372070  9.6909875869750977 29.7549552917480504
  9.3349418640136701  8.6584854125976562 31.0298461914062500
  0.0541992187500003  4.4086732864379883 34.8376922607421946
  0.3562088012695321 13.9362325668334961 34.9575843811035227
  8.7264890670776367  4.2654018402099609 34.8527412414550781
  8.8544158935546875 13.6938714981079102 34.8557891845703125
  4.4393210411071777  9.1279258728027344 34.8422393798828125
  4.6600927570834756 17.9048364609479904 34.8178977966308594
 13.7795957783237082 17.8283973038196564 34.9024085998535156
  0.0318139344453812  4.4468746185302734 40.6442832946777344
  0.1739484071731567 13.7805728912353498 40.6970481872558594
  8.8889389038085938  4.4111795425415039 40.6368446350097656
  8.9665374755859375 13.5891017913818359 40.7131538391113352
  4.6228928565979004  9.0121183395385742 40.5655899047851562
  4.5030330875888467 18.0303440317511559 40.5635643005371094
 13.5607032775878906  9.2424669265747070 40.6775894165039134
 13.5852460861206037  0.0722246542572975 40.5960235595703125
  9.0289716720581055  4.5156092643737793 46.4455223083496165
  9.0265130996704102 13.5470085144042969 46.4455223083496165
 18.0593719482421875  4.5156092643737793 46.4455223083496165
 18.0569133758544922 13.5470085144042969 46.4455223083496165
  4.5152091979980469  0.0000180629995157 46.4442062377929759
  4.5127501487731934  9.0314178466796857 46.4442062377929759
 13.5456094741821289  0.0000180629995157 46.4442062377929759
 13.5431499481201172  9.0314178466796857 46.4442062377929759
 12.9919786453247070  7.1586561203002921 31.3555641174316442
 11.8772773742675781  6.5686969757080069 32.0208358764648509
 12.7260513305664062  8.2870740890502930 30.5034580230712891
 10.5969247817993164  7.0840296745300284 31.8912582397460902
 11.4060878753662109  8.7907276153564453 30.4018955230712891
 10.3666810989379865  8.2003555297851562 31.0772666931152379
 13.7229366302490234  8.7484874725341797 33.6508522033691406
 12.3511905670166016 10.5720977783203125 34.5833969116210938
 14.0234270095825195  9.5098686218261719 36.0569038391113352
 14.8963527679443359 10.8354816436767578 34.0283927917480540
 15.0411815643310547  8.1193838119506836 33.4778366088867259
 14.9893541336059570  6.7392768859863281 32.9152107238769531
 11.7414627075195312 10.8111753463745117 33.2001838684082031
 13.1379470825195312  8.3670721054077148 36.5216407775878906
 15.6277503967285156 11.8948030471801758 34.8396034240722656
 14.4307718276977539  6.6607604026794434 31.4860534667968750
  1.1394062042236328  3.8395948410034175 35.2818717956543040
  0.9159317016601561 12.8306503295898438 35.3975524902343821
  9.8224134445190412  3.7883908748626705 35.3885803222656321
  9.2917232513427734 12.7905168533325195 35.6924514770507812
  7.9055175781250000  5.0804314613342285 35.4379272460937571
  8.2565288543701172 14.7914686203002930 35.1614570617675852
 17.1735534667968750  4.8569197654724112 35.6017456054687500
 17.6776103973388672 14.7394876480102539 35.6793632507324219
  3.9179115295410156  8.0853576660156250 35.4226951599121094
  3.5132056931033731 17.4515980482101440 35.3314323425292969
 12.8203863361850363 17.1371735334396362 35.4231224060058594
  5.5445952415466309  0.5321410894393921 35.4701499938964844
  5.2111601829528809 10.0248975753784180 35.4450950622558594
 14.3397169113159162  0.8363194465637207 35.4715538024902344
  0.9621459841728209  3.6078555583953857 41.1328964233398509
  0.9087560772895813 12.8797130584716797 41.3730430603027415
  9.8062276840209961  3.6266758441925049 41.2302513122558665
  9.6717681884765625 12.7606382369995099 41.4747200012207102
  3.8696148395538330  8.0603580474853516 41.0687408447265625
  3.6479303101077676 17.1907327175140381 41.1809577941894531
 12.7686357498168945  8.3804588317871094 41.3392486572265625
 12.6442674854770303 17.3774861097335815 41.2062263488769602
  8.1638946533203125  5.3002724647521964 41.2181358337402344
  8.1549425125122070 14.4876871109008789 41.1304740905761790
 17.2710367441177368  5.1789803504943839 41.3602066040039134
 17.2685676813125610 14.5357112884521484 41.2182388305664134
  5.3395304679870605  0.7698240280151367 41.1216659545898438
  5.2846746444702148  9.9090652465820312 41.2413139343261790
 14.4929389953613281  0.7863516807556152 41.1589012145996165
 14.6318054199218750  9.8130369186401367 41.1143722534179688
  0.8273094892501831  3.6869695186614990 47.0359649658203125
  0.8248501420021057 12.7183685302734375 47.0359649658203125
  9.8577098846435547  3.6869695186614990 47.0359649658203125
  9.8552503585815412 12.7183685302734375 47.0359649658203125
  3.6843190193176270  8.2023353576660156 47.0346527099609375
  3.6818594932556152 17.2337341308593750 47.0346527099609375
 12.7147188186645508  8.2023353576660156 47.0346527099609375
 12.7122592926025391 17.2337341308593750 47.0346527099609375
  8.2006769180297852  5.3445744514465332 47.0360260009765696
  8.1982173919677734 14.3759746551513672 47.0360260009765696
 17.2310771942138672  5.3445744514465332 47.0360260009765696
 17.2286186218261719 14.3759746551513672 47.0360260009765696
  5.3436489105224600  0.8290914893150328 47.0346527099609375
  5.3411893844604483  9.8604917526245117 47.0346527099609375
 14.3740482330322266  0.8290914893150328 47.0346527099609375
 14.3715896606445312  9.8604917526245117 47.0346527099609375
 13.7657384872436506  9.9735336303710920 34.6238441467285156
  8.8349752426147461  0.2707808315753937 34.4696273803711009
  8.7205448150634766  9.3600378036499023 34.7568130493164134
 17.8559041470289230  0.0780600905418396 34.5515022277832102
  0.4976596832275391  9.1924648284912109 34.7431106567382812
  4.5213613510131836  4.4703040122985840 34.4712677001953125
  4.4990568161010742 13.5933599472045898 34.5065689086914134
 13.2548360824584961  3.9885799884796143 34.9345703125000071
 13.0375642776489258 14.0739755630493164 34.1197662353515625
  0.0710637792944908  0.0535010397434235 40.9392471313476634
  0.3342039883136749  9.0405521392822266 41.0000000000000000
  9.0424617985263467 18.0296804681420326 40.8884925842285156
  9.0535812377929688  8.8951187133789062 40.9548988342285156
  4.5377192497253418  4.4293069839477539 40.8333740234375000
  4.5917711257934570 13.6467771530151367 40.9377746582031321
 13.3552150726318359  4.6438980102539062 41.0258979797363281
 13.6211109161376953 13.6358509063720703 40.8594818115234375
  2.5768151283264160  1.9272171258926392 37.9457015991210938
  2.6330199241638184 11.0007963180541992 38.0696182250976562
 11.6189804077148438  1.8722000122070312 38.0842056274414062
 11.1950340270996094 11.4185628890991211 38.4199905395507812
  6.4263339042663574  7.1145100593566895 37.9532737731933665
  6.5595359802246085 16.0876274108886719 37.9788055419921946
 15.8674621582031232  6.7451233863830566 38.3239326477050781
 15.4967813491821289 16.1960086822509766 38.0617065429687500
  2.0884580612182617  6.3927564620971680 37.9818496704101562
  2.0635709762573242 15.6291732788085938 38.1061859130859375
 10.6224298477172852  6.1775951385498047 38.0333023071289062
 10.9749641418457031 15.5610322952270508 38.1312904357910156
  7.0584979057312012  2.5589737892150879 38.0605316162109375
  6.9456954002380371 11.5474529266357422 38.2483291625976634
 16.0291328430175781  2.4714474678039551 38.1964225769042969
 16.5155792236328125 11.7343406677246094 38.4605522155761719
  0.0000000000000000  0.0000000000000000 47.1735610961914062
 -0.0024593239650130  9.0313997268676740 47.1735610961914062
  9.0304002761840803  0.0000000000000000 47.1735610961914062
  9.0279407501220685  9.0313997268676740 47.1735610961914062
  4.5139794349670410  4.5156998634338379 47.1742515563964844
  4.5115203857421875 13.5470991134643537 47.1742515563964844
 13.5443792343139648  4.5156998634338379 47.1742515563964844
 13.5419197082519531 13.5470991134643537 47.1742515563964844
  2.4519233703613277  2.0629522800445557 44.0401268005371165
  2.4494640827178955 11.0943517684936523 44.0401268005371165
 11.4823226928710920  2.0629522800445557 44.0401268005371165
 11.4798641204833984 11.0943517684936523 44.0401268005371165
  6.5760178565979004  6.9684472084045410 44.0401268005371165
  6.5735583305358887 15.9998464584350586 44.0401268005371165
 15.6064186096191406  6.9684472084045410 44.0401268005371165
 15.6039590835571289 15.9998464584350586 44.0401268005371165
  2.0610768795013428  6.5788145065307617 44.0400009155273509
  2.0586175918579102 15.6102142333984375 44.0400009155273509
 11.0914773941040039  6.5788145065307617 44.0400009155273509
 11.0890178680419922 15.6102142333984375 44.0400009155273509
  6.9668641090393066  2.4525938034057613 44.0400657653808665
  6.9644045829772949 11.4839935302734375 44.0400657653808665
 15.9972639083862305  2.4525938034057613 44.0400657653808665
 15.9948053359985352 11.4839935302734375 44.0400657653808665
  2.4316265583038330  2.0832188129425049 50.0684852600097656
  2.4291670322418213 11.1146183013915998 50.0684852600097656
 11.4620265960693359  2.0832188129425049 50.0684852600097656
 11.4595670700073224 11.1146183013915998 50.0684852600097656
  6.5963144302368164  6.9481806755065918 50.0684852600097656
  6.5938549041748047 15.9795799255371076 50.0684852600097656
 15.6267137527465803  6.9481806755065918 50.0684852600097656
 15.6242542266845703 15.9795799255371076 50.0684852600097656
  2.0811281204223633  6.5990090370178223 50.0690460205078125
  2.0786688327789307 15.6304082870483398 50.0690460205078125
 11.1115283966064453  6.5990090370178223 50.0690460205078125
 11.1090688705444336 15.6304082870483398 50.0690460205078125
  6.9468131065368652  2.4323906898498531 50.0690460205078125
  6.9443535804748535 11.4637899398803711 50.0690460205078125
 15.9772129058837891  2.4323906898498531 50.0690460205078125
 15.9747543334960938 11.4637899398803711 50.0690460205078125
 18.0111351534724236  0.0954853594303131 37.7385215759277344
  0.1341120749711990  9.0642595291137695 37.8887596130371094
  8.9927244186401367  0.1246612146496773 37.6860847473144531
  8.9720659255981445  9.0094079971313477 37.7864799499511719
  4.4813399314880371  4.4884424209594727 37.6483993530273438
  4.5685400962829590 13.5765895843505842 37.7067146301269531
 13.4331722259521484  4.5565900802612305 37.9797363281250000
 13.4144287109375000 13.7606401443481445 37.7737350463867188
  0.0000090280000222  0.0000090310004452 44.0429992675781250
 -0.0024502959568053  9.0314083099365234 44.0429992675781250
  9.0304088592529297  0.0000090310004452 44.0429992675781250
  9.0279493331909180  9.0314083099365234 44.0429992675781250
  4.5139703750610352  4.5156903266906738 44.0427513122558594
  4.5115113258361816 13.5470905303955078 44.0427513122558594
 13.5443706512451172  4.5156903266906738 44.0427513122558594
 13.5419111251831037 13.5470905303955078 44.0427513122558594
  0.0000000000000000  0.0000000000000000 50.4472808837890696
 -0.0024593239650130  9.0313997268676740 50.4472808837890696
  9.0304002761840803  0.0000000000000000 50.4472808837890696
  9.0279407501220685  9.0313997268676740 50.4472808837890696
  4.5139703750610352  4.5156998634338379 50.4472808837890696
  4.5115113258361816 13.5470991134643537 50.4472808837890696
 13.5443706512451172  4.5156998634338379 50.4472808837890696
 13.5419111251831055 13.5470991134643537 50.4472808837890696
