 H  C  N  I Pb 
 1.0000000000000000
    18.0608005523681641    0.0000000000000000    0.0000000000000000
    -0.0049186488613486   18.0627994537353516    0.0000000000000000
     0.0000000000000000    0.0000000000000000   62.4874992370605469
 H   C   N   I   Pb 
 143  39  47  72  24
Cartesian
  7.3786993026733398  5.0618977546691895 35.3053855895996094
  7.4647932052612305 12.6305027008056623 35.7849998474121094
 16.7571678161621094  5.2513637542724609 36.2880668640136719
 16.8135585784912109 14.7283277511596680 35.8306503295898438
  5.8500547409057617  1.6741739511489868 35.2942504882812500
  5.7763304710388184 10.4020166397094727 35.5844383239746094
 14.4954862594604492  1.8167061805725098 35.4862098693847656
  1.9978313446044902  4.3535637855529785 35.1263008117675781
  1.4180450439453145 12.2836256027221680 35.5905914306640625
 10.6365213394165039  3.4025757312774658 35.2982292175292969
 10.8456144332885742 13.5969820022583008 34.9215965270996094
  6.8225994110107422  0.3580269515514373 34.6650466918945384
  4.5724582672119141 11.2522525787353516 34.6510086059570384
 15.8087253570556641  0.8151403069496154 34.8596115112304688
  1.1454486846923848  5.1908974647521973 36.4019927978515625
 17.9396648406982422 12.5500726699829102 36.3622169494628906
  8.9395608901977539  3.1166133880615234 35.7007865905761719
  9.9312400817871094 12.4732036590576172 35.8955650329589844
  5.5499973297119132  7.9295406341552734 35.7835693359375000
  3.4063587188720703  1.2238022089004517 35.5941314697265625
 12.2853765487670898  0.6063284873962401 35.8137855529785156
  8.1593065261840820  6.5557022094726562 34.8164329528808594
  6.7789020538330069 13.8464832305908203 34.7337875366211009
 15.9849452972412109  4.3571562767028809 35.0034828186035227
 17.6594562530517578 15.7680969238281250 34.7353324890136719
  4.2385582923889160  7.2037663459777832 34.9109306335449219
  2.7904798248782754 17.8121810853481293 34.9340629577636719
 12.2452587345615029 17.0170092582702637 35.2449340820312500
 10.2722768783569336  5.5824346542358398 34.6666679382324219
  8.9181337356567383 14.6171073913574219 34.0679512023925781
 -0.0004539489746079  3.6567325592041016 34.0918388366699219
  1.3285083770751946 14.2606878280639648 34.3891677856445312
  3.4270927906036377  9.2562494277954084 34.1285705566406250
  4.9319767216220498 17.0504472255706787 34.3138618469238281
 14.4426569202914816 17.0176994800567627 34.5890693664550781
  8.1825265884399414  5.3187828063964844 42.0580787658691406
  7.9582376480102539 14.6658334732055646 41.9430046081543040
 17.3352639675140416  5.1052169799804688 42.3506546020507884
 16.5187964439392090 13.3586730957031250 41.7099151611328196
  5.3880939483642569  0.7634838819503784 42.1717834472656250
  5.4667239189147949 10.0931463241577148 42.1045417785644531
 14.3935241699218750  0.9819658994674683 42.1754341125488281
 14.9901866912841779  8.9478302001953125 41.7909965515136790
  1.6396551132202146  3.0919816493988037 40.4102783203125000
  1.9097406864166260 12.6201581954956055 40.7928161621093750
 10.4315681457519531  2.9533772468566895 40.4208717346191477
 10.3950405120849609 12.2185068130493164 40.6931724548339844
  3.3699333667755127  7.4431962966918945 40.6785888671875071
  2.9331104019656777 16.8127065896987915 40.3568382263183594
 11.5416851043701172  8.4102754592895508 40.7347640991210938
 12.1839851597324014 16.5695232152938843 40.6119689941406321
  1.1672457456588745  3.4003765583038330 42.0588378906250000
  0.5051138997077942 11.8723993301391602 41.4911651611328196
  9.8214492797851562  3.3648157119750977 41.9997558593750000
  9.8178043365478516 12.8782052993774414 42.1964416503906250
  3.9114768505096436  8.0452499389648438 42.2280921936035156
  3.3597733238711949 17.2477779984474182 41.9974288940429688
 12.6659889221191406  7.8637700080871582 41.9345092773437500
 12.6151260593906045 17.1765761375427246 42.1977195739746094
  7.9184241294860840  6.1223702430725098 40.5362586975097656
  7.4913907051086426 14.9815883636474609 40.2978134155273509
 16.7216528654098546  5.7810173034667969 40.8585510253906250
 16.7187706232070923 15.0006952285766602 41.1264190673828125
  6.1624736785888663  1.1246410608291626 40.6696281433105540
  5.7755103111267090 10.6649332046508771 40.4945106506347656
 14.9554510116577131  1.4330992698669434 40.5924491882324219
 15.1837644577026367 10.1276769638061506 40.5392799377441406
  0.0913211926817894  4.5628905296325684 39.5268974304199219
  0.8397509455680846 14.6552572250366211 40.4179916381836009
  9.2852630615234375  4.6820545196533203 39.3600273132324290
  8.9945726394653320 13.4866743087768537 39.3900947570800781
  4.6488689640536904 17.9681337326765060 39.4055862426757812
  4.4892568588256836  9.0416221618652326 39.4762458801269602
 13.6220287540927529 17.9563238993287086 39.5009155273437500
 13.0218057632446289  9.8711423873901367 39.7407417297363281
  8.1032123565673828  5.4420318603515616 48.0459518432617259
  8.1007528305053711 14.4734306335449219 48.0459518432617259
 17.1336116790771484  5.4420318603515616 48.0459518432617259
 17.1311531066894531 14.4734306335449219 48.0459518432617259
  5.4410333633422852  0.9265221953392029 48.0449485778808594
  5.4385743141174316  9.9579219818115234 48.0449485778808594
 14.4714326858520490  0.9265221953392029 48.0449485778808594
 14.4689741134643555  9.9579219818115234 48.0449485778808594
  1.4218254089355467  3.0919990539550781 46.4558296203613281
  1.4193661212921143 12.1233978271484375 46.4558296203613281
 10.4522256851196289  3.0919990539550781 46.4558296203613281
 10.4497661590576172 12.1233978271484375 46.4558296203613281
  3.0899283885955806  7.6075901985168457 46.4545211791992188
  3.0874691009521484 16.6389904022216797 46.4545211791992188
 12.1203289031982422  7.6075901985168457 46.4545211791992188
 12.1178693771362305 16.6389904022216797 46.4545211791992188
  0.9247469902038573  3.5893490314483643 48.0459518432617259
  0.9222877025604248 12.6207475662231445 48.0459518432617259
  9.9551477432250977  3.5893490314483643 48.0459518432617259
  9.9526882171630859 12.6207475662231445 48.0459518432617259
  3.5868983268737793  8.1048498153686523 48.0448913574218821
  3.5844390392303462 17.1362495422363281 48.0448913574218821
 12.6172990798950195  8.1048498153686523 48.0448913574218821
 12.6148395538330078 17.1362495422363281 48.0448913574218821
  7.6061611175537109  5.9393639564514160 46.4558296203613281
  7.6037015914916992 14.9707632064819336 46.4558296203613281
 16.6365604400634766  5.9393639564514160 46.4558296203613281
 16.6341018676757812 14.9707632064819336 46.4558296203613281
  5.9380125999450684  1.4238001108169553 46.4545211791992188
  5.9355530738830566 10.4551992416381836 46.4545211791992188
 14.9684123992919904  1.4238001108169553 46.4545211791992188
 14.9659538269042951 10.4551992416381836 46.4545211791992188
 -0.0011664569610730  4.5157265663146973 45.3548011779785156
 -0.0036257810425013 13.5471258163452148 45.3548011779785156
  9.0292339324951172  4.5157265663146973 45.3548011779785156
  9.0267744064331037 13.5471258163452148 45.3548011779785156
  4.5152091979980469  0.0000000000000000 45.3536758422851562
  4.5127501487731934  9.0313997268676740 45.3536758422851562
 13.5456094741821289  0.0000000000000000 45.3536758422851562
 13.5431499481201172  9.0313997268676740 45.3536758422851562
 14.4479312896728516  9.1840629577636719 32.1519966125488352
 15.8692846298217773  9.0445461273193359 33.1930465698242188
 13.7530317306518537 11.2289237976074219 33.2420272827148509
 13.7259016036987305 11.2849388122558594 34.9983673095703125
 12.3960151672363281  8.0745944976806641 34.3995208740234375
 12.0925855636596680  9.7457342147827148 34.8681259155273438
 14.3883724212646484  7.6988673210144043 35.4157600402832031
 15.6395530700683576  8.9626455307006836 35.5652580261230469
 15.4840574264526367  6.7785587310791016 33.6994667053222727
 13.7755537033081055  6.8093452453613281 33.2956161499023509
 14.1391057968139648  6.9053530693054190 30.9619808197021520
 15.8138666152954102  7.3754634857177734 31.1156997680664062
 16.2180480957031250 11.1786289215087891 33.1743965148925852
 16.3210086822509766 10.9388151168823242 34.9340286254882812
 15.6681156158447266 12.4511823654174805 34.2790527343750000
 10.8368911743164062  9.2769060134887695 32.8711280822753977
 12.2833595275878906  8.7736053466796875 31.9376621246337926
 12.0434608459472656 10.4797277450561523 32.4336318969726562
 12.7811670303344727  9.1418523788452148 36.7177047729492188
 14.0477352142333984 10.3736295700073242 36.9211883544921946
 14.2471551895141602  8.7472219467163086 37.5945892333984375
 14.8392648696899396  4.6298270225524902 32.0529823303222656
 15.2632131576538068  4.9580864906311035 30.3902606964111328
 16.6995029449462891  2.8869571685791011 31.1552925109863281
 17.5702476501464844  6.9373793601989737 32.3594245910644531
  1.0090312957763683  2.2849535942077637 31.4837322235107457
  1.8371505737304694  6.3507523536682120 32.6746749877929688
  2.6491146087646471  4.0207958221435547 32.2286949157714915
 18.0289173126220703  4.2868652343750000 34.9802932739257812
  0.4869518280029329 13.9872608184814453 35.0346260070800781
  9.4187908172607422  4.9682745933532715 34.9602203369140625
  8.8357648849487305 13.7621526718139648 34.7464447021484375
  4.3437905311584473  9.2273988723754883 34.7202377319336009
  4.8125023106113076 18.0473917126655579 34.7397880554199219
 14.0249475697055441 17.9330334663391113 34.9985542297363281
  0.1443210095167160  4.4374885559082031 40.6082916259765625
  0.3008816838264465 13.8317289352416992 40.9029464721679688
  9.1777572631835938  4.5356774330139160 40.4409713745117259
  8.9501075744628906 13.6005620956420898 40.4755744934082031
  4.5735273361206046  9.0454282760620117 40.5655593872070312
  4.5398983219638458 18.0009052827954292 40.4870071411132812
 13.3594541549682617  9.2841930389404297 40.5931739807128906
 13.5698646763339621 18.0196693465113640 40.5879554748535156
  9.0289716720581055  4.5156092643737793 46.4455223083496165
  9.0265130996704102 13.5470085144042969 46.4455223083496165
 18.0593719482421875  4.5156092643737793 46.4455223083496165
 18.0569133758544922 13.5470085144042969 46.4455223083496165
  4.5152091979980469  0.0000180629995157 46.4442062377929759
  4.5127501487731934  9.0314178466796857 46.4442062377929759
 13.5456094741821289  0.0000180629995157 46.4442062377929759
 13.5431499481201172  9.0314178466796857 46.4442062377929759
 16.9387035369873047  4.9550328254699707 31.7063350677490234
 17.3968143463134766  3.6508021354675293 31.4857654571533203
 17.8714866638183594  5.9143610000610352 32.1345977783203125
  0.6874389648437492  3.3142876625061035 31.6515331268310582
  1.1524848937988312  5.5802779197692871 32.3170166015625000
  1.6037807464599609  4.2852473258972168 32.0641136169433594
 14.8288774490356428  8.7334403991699219 33.0707588195800852
 14.2735080718994141 10.8814582824707013 34.1443901062011790
 12.5537290573120099  9.1209573745727539 34.0916862487793040
 14.5563316345214826  8.7798366546630859 35.5216140747070312
 14.7557382583618164  7.2093563079833984 32.9946441650390696
 15.0497951507568359  6.7428197860717773 31.5643825531005859
 15.7104358673095703 11.3640451431274414 34.1305122375488352
 11.9250593185424805  9.4267768859863281 32.7424964904785156
 13.8505029678344709  9.3106927871704102 36.7409858703613281
 15.4789915084838849  5.2789378166198730 31.4246368408203125
  1.1066665649414056  4.6145629882812500 35.5450553894042969
  0.5674896240234388 12.8337678909301758 35.6517372131347656
  9.6572704315185529  3.7071805000305171 35.2693824768066477
  9.9303722381591797 13.1931018829345703 35.1704368591308594
  8.2203731536865234  5.5371770858764640 34.9648132324218750
  7.6186513900756836 13.3715286254882812 35.0766525268554759
 16.8584518432617188  4.6729698181152344 35.4373054504394531
 17.5351791381835938 14.8253221511840820 35.1166458129882812
  4.7459831237792969  8.0529222488403320 35.1485748291015696
  3.6054089069366455  0.3510527014732361 35.0798912048339844
 12.7577127674594522 17.8979561328887975 35.3255424499511719
  5.8843984603881827  0.7313627600669860 34.8811187744140625
  4.9578194618225089 10.3636789321899414 34.9625587463378906
 14.8220396041870117  0.9035885930061340 35.1295089721679688
  1.0262515544891357  3.5915589332580566 41.0646781921386790
  0.9261614084243774 12.7015705108642560 41.0730209350586009
  9.8377742767333984  3.5594434738159180 40.9950828552246094
  9.7642583847045881 12.8504886627197266 41.1823310852050781
  3.9142961502075195  8.1227741241455078 41.2120132446289062
  3.5412890175357457 17.3196378350257874 40.9954643249511719
 12.4818420410156250  8.4573545455932617 41.1197929382324290
 12.7463411549106240 17.2031054496765172 41.1850700378417969
  8.3767538070678711  5.3776550292968750 41.0652046203613352
  8.0814599990844727 14.4633216857910156 40.9498367309570384
 17.3723081350326538  5.1460366249084473 41.3311195373535227
 17.1140928864479100 14.0705070495605469 41.2664604187011719
  5.4134106636047363  0.6594675779342651 41.1562995910644531
  5.3167829513549805  9.9897232055664062 41.1079902648925781
 14.3478183746337873  0.8495043516159058 41.1724777221679688
 14.5836629867553711  9.4510030746459961 41.0054931640625000
  0.8273094892501831  3.6869695186614990 47.0359649658203125
  0.8248501420021057 12.7183685302734375 47.0359649658203125
  9.8577098846435547  3.6869695186614990 47.0359649658203125
  9.8552503585815412 12.7183685302734375 47.0359649658203125
  3.6843190193176270  8.2023353576660156 47.0346527099609375
  3.6818594932556152 17.2337341308593750 47.0346527099609375
 12.7147188186645508  8.2023353576660156 47.0346527099609375
 12.7122592926025391 17.2337341308593750 47.0346527099609375
  8.2006769180297852  5.3445744514465332 47.0360260009765696
  8.1982173919677734 14.3759746551513672 47.0360260009765696
 17.2310771942138672  5.3445744514465332 47.0360260009765696
 17.2286186218261719 14.3759746551513672 47.0360260009765696
  5.3436489105224600  0.8290914893150328 47.0346527099609375
  5.3411893844604483  9.8604917526245117 47.0346527099609375
 14.3740482330322266  0.8290914893150328 47.0346527099609375
 14.3715896606445312  9.8604917526245117 47.0346527099609375
 14.0653467178344709  9.3763027191162109 34.2015647888183594
  9.2005428532138467 17.6541235744953156 34.5354156494140625
  8.4898872375488281  9.1377973556518555 34.5782241821289062
  0.1513991355895996  0.2266159951686859 34.4425239562988281
  0.5922583341598511  8.8826179504394531 34.6506233215332031
  4.6138324737548828  4.3776903152465820 34.6701698303222656
  4.1733570098876953 13.8483419418334943 34.4411697387695384
 13.2879629135131836  4.0879464149475098 34.6798591613769531
 13.1293411254882812 14.3798770904541016 34.6380920410156321
 17.9788768598809838 17.7681323885917664 40.8788032531738352
  0.1147462427616119  9.0826330184936523 40.9558830261230540
  8.9793348312377930  0.0249382238835096 40.9016914367675852
  8.9727783203125000  9.0413074493408203 40.8783569335937500
  4.7639570236206055  4.3360137939453125 40.9592628479003906
  4.4329185485839844 13.6047515869140625 40.8500785827636790
 13.4296150207519531  4.7109689712524414 40.9432601928710938
 13.5482683181762695 13.3191127777099609 40.9166297912597727
  2.4689016342163086  2.1062912940979004 38.0583038330078125
  2.6468408107757568 10.9925127029418928 37.8810691833496165
 11.5672750473022443  1.9900560379028320 38.0490531921386719
 11.1487770080566406 11.3896694183349609 38.0131607055664062
  6.6444101333618155  6.9482092857360840 38.0455970764160227
  6.5832161903381339 16.0099487304687500 37.8396377563476562
 16.0298900604248047  6.5780625343322754 38.2619056701660156
 15.5821475982666016 16.0905704498291016 37.8360557556152344
  2.2801191806793213  6.6785984039306641 38.1879577636718750
  2.0999031066894531 15.7582750320434553 37.8624839782714844
 11.1545839309692383  6.6855416297912598 37.6079139709472656
 11.1141252517700195 15.6159372329711914 38.2441368103027415
  7.1782603263854980  2.5417168140411373 37.7466392517089844
  6.8395042419433594 11.4226531982421875 37.9724197387695312
 15.9274177551269531  2.3966145515441895 38.2943725585937571
 16.2991275787353516 11.7164745330810547 38.1595115661621094
  0.0000000000000000  0.0000000000000000 47.1735610961914062
 -0.0024593239650130  9.0313997268676740 47.1735610961914062
  9.0304002761840803  0.0000000000000000 47.1735610961914062
  9.0279407501220685  9.0313997268676740 47.1735610961914062
  4.5139794349670410  4.5156998634338379 47.1742515563964844
  4.5115203857421875 13.5470991134643537 47.1742515563964844
 13.5443792343139648  4.5156998634338379 47.1742515563964844
 13.5419197082519531 13.5470991134643537 47.1742515563964844
  2.4519233703613277  2.0629522800445557 44.0401268005371165
  2.4494640827178955 11.0943517684936523 44.0401268005371165
 11.4823226928710920  2.0629522800445557 44.0401268005371165
 11.4798641204833984 11.0943517684936523 44.0401268005371165
  6.5760178565979004  6.9684472084045410 44.0401268005371165
  6.5735583305358887 15.9998464584350586 44.0401268005371165
 15.6064186096191406  6.9684472084045410 44.0401268005371165
 15.6039590835571289 15.9998464584350586 44.0401268005371165
  2.0610768795013428  6.5788145065307617 44.0400009155273509
  2.0586175918579102 15.6102142333984375 44.0400009155273509
 11.0914773941040039  6.5788145065307617 44.0400009155273509
 11.0890178680419922 15.6102142333984375 44.0400009155273509
  6.9668641090393066  2.4525938034057613 44.0400657653808665
  6.9644045829772949 11.4839935302734375 44.0400657653808665
 15.9972639083862305  2.4525938034057613 44.0400657653808665
 15.9948053359985352 11.4839935302734375 44.0400657653808665
  2.4316265583038330  2.0832188129425049 50.0684852600097656
  2.4291670322418213 11.1146183013915998 50.0684852600097656
 11.4620265960693359  2.0832188129425049 50.0684852600097656
 11.4595670700073224 11.1146183013915998 50.0684852600097656
  6.5963144302368164  6.9481806755065918 50.0684852600097656
  6.5938549041748047 15.9795799255371076 50.0684852600097656
 15.6267137527465803  6.9481806755065918 50.0684852600097656
 15.6242542266845703 15.9795799255371076 50.0684852600097656
  2.0811281204223633  6.5990090370178223 50.0690460205078125
  2.0786688327789307 15.6304082870483398 50.0690460205078125
 11.1115283966064453  6.5990090370178223 50.0690460205078125
 11.1090688705444336 15.6304082870483398 50.0690460205078125
  6.9468131065368652  2.4323906898498531 50.0690460205078125
  6.9443535804748535 11.4637899398803711 50.0690460205078125
 15.9772129058837891  2.4323906898498531 50.0690460205078125
 15.9747543334960938 11.4637899398803711 50.0690460205078125
 18.0380427967757022  0.1158527359366417 37.7496032714843750
  0.1577400118112564  9.0846939086914062 37.7463531494140625
  9.0602020481601357 17.9557977095246315 37.6739273071289062
  9.0065155029296875  9.0426349639892578 37.6800765991210938
  4.6152858734130859  4.5021824836730957 37.8723526000976562
  4.4181842803955078 13.6695108413696289 37.6948051452636719
 13.5164918899536133  4.5369453430175781 37.8576507568359375
 13.5518398284912092 13.6984853744506836 37.7879142761230469
  0.0000090280000222  0.0000090310004452 44.0429992675781250
 -0.0024502959568053  9.0314083099365234 44.0429992675781250
  9.0304088592529297  0.0000090310004452 44.0429992675781250
  9.0279493331909180  9.0314083099365234 44.0429992675781250
  4.5139703750610352  4.5156903266906738 44.0427513122558594
  4.5115113258361816 13.5470905303955078 44.0427513122558594
 13.5443706512451172  4.5156903266906738 44.0427513122558594
 13.5419111251831037 13.5470905303955078 44.0427513122558594
  0.0000000000000000  0.0000000000000000 50.4472808837890696
 -0.0024593239650130  9.0313997268676740 50.4472808837890696
  9.0304002761840803  0.0000000000000000 50.4472808837890696
  9.0279407501220685  9.0313997268676740 50.4472808837890696
  4.5139703750610352  4.5156998634338379 50.4472808837890696
  4.5115113258361816 13.5470991134643537 50.4472808837890696
 13.5443706512451172  4.5156998634338379 50.4472808837890696
 13.5419111251831055 13.5470991134643537 50.4472808837890696
