 H  C  N  I Pb 
 1.0000000000000000
    18.0608005523681641    0.0000000000000000    0.0000000000000000
    -0.0049186488613486   18.0627994537353516    0.0000000000000000
     0.0000000000000000    0.0000000000000000   62.4874992370605469
 H   C   N   I   Pb 
 143  39  47  72  24
Cartesian
  8.1702604293823242  5.3954725265502921 36.2770195007324219
  8.0437793731689453 14.6357460021972656 36.2730712890625000
 17.2302207946777344  5.1176443099975586 36.6176376342773509
 17.4445152282714844 14.5339231491088867 36.5535354614257884
  5.4614610671997070  0.8371528387069701 36.3563728332519602
  5.4175052642822266  9.9184999465942383 36.3985824584960938
 14.3187255859374982  1.0033198595046997 36.3070030212402344
  1.6016330718994145  3.1340706348419189 34.6610946655273438
  1.3675003051757797 12.1352539062500000 34.7180938720703125
 10.5970726013183576  3.2592368125915527 34.6974258422851562
 10.2039194107055664 12.0632257461547852 35.1628112792968750
  6.0186023712158203  1.3064352273941038 34.8062896728515696
  5.9390516281127930 10.4660110473632812 34.8588294982910156
 14.9230203628540039  1.4245707988739014 34.7577476501464915
  1.1152095794677761  3.5253577232360840 36.3026618957519531
  0.9542675018310558 12.6415243148803711 36.2856330871582031
 10.0890865325927734  3.8007743358612056 36.2429656982421875
  9.6228313446044904 12.8196411132812500 36.6046180725097656
  3.5729460716247559  8.0952663421630859 36.3210487365722727
  3.4984122971072793 17.1911746859550476 36.3116531372070312
 12.6485008457675576 17.0839877128601074 36.3049278259277344
  7.4504241943359366  5.7499198913574219 34.7603988647460938
  7.6744089126586914 15.1297903060913086 34.6974067687988281
 16.5229282379150391  5.7632994651794434 35.1718139648437500
 16.8554553985595703 15.2667198181152326 35.0885505676269531
  3.0882852077484131  7.6495509147644043 34.7387733459472727
  2.9908315399661660 16.7359952926635742 34.7377815246582031
 12.3366655567660928 16.4177387952804565 34.7528839111328125
  8.9528713226318359  4.4926471710205078 33.5820045471191406
  9.0713157653808576 13.4790678024291974 33.7509002685546875
 17.9713630676269531  4.5674204826354980 33.7432136535644602
 18.0511550903320312 13.7717199325561523 33.7270698547363352
  4.4804582595825195  9.0875816345214844 33.6782836914062500
  4.5075597027316689 18.0462742857635021 33.6520423889160156
 13.7474455097690225 17.8585036695003510 33.6454353332519602
  8.1204433441162109  5.4816951751708984 42.1881828308105540
  8.1610040664672852 14.3472700119018555 42.2445678710937500
 17.0692907571792603  5.5727229118347168 41.9635772705078196
 17.0764825344085693 14.5358161926269531 42.1164932250976562
  5.4377255439758301  0.9014917612075806 42.1752662658691406
  5.3840241432189941  9.9456462860107422 42.1812438964843750
 14.4753341674804688  1.0447281599044800 42.1489410400390625
 14.6010885238647461  9.8377542495727539 42.1669044494628906
  1.3238044977188108  3.0280272960662842 40.7007484436035156
  1.3921179771423340 12.1045055389404297 40.6286010742187500
 10.4317083358764648  3.1190071105957031 40.5729904174804688
 10.3946962356567383 12.1725645065307617 40.3888740539550781
  3.0519971847534180  7.6026396751403809 40.5982284545898438
  3.0721739986911412 16.6577112674713135 40.5484352111816406
 11.9914560317993164  7.8571281433105469 40.6092948913574290
 12.1281246403232217 16.6727225780487061 40.6897888183593750
  0.7069987058639526  3.7037296295166011 42.1896972656250000
  0.8927413225173949 12.6525926589965820 42.2088317871093750
  9.9716110229492188  3.6169815063476562 42.1614723205566406
  9.9823160171508789 12.5469274520874023 42.0554885864257884
  3.5858430862426758  8.1117467880249023 42.1758613586425781
  3.5858549335971475 17.1650420427322388 42.1401290893554688
 12.5940361022949201  8.1696319580078125 42.2011718750000000
 12.6660293797031045 17.2673039436340332 42.2426300048828196
  7.5997128486633301  6.0360989570617676 40.6137847900390625
  7.5470352172851562 14.9931650161743164 40.7412986755371094
 16.6926609277725255  5.9961280822753906 40.2852020263671875
 16.5653990507125854 14.9299879074096680 40.4981346130371094
  5.9906945228576660  1.4308902025222778 40.6034774780273438
  5.8857340812683105 10.4946660995483381 40.6065521240234375
 14.9282560348510742  1.5192704200744629 40.5383644104003906
 15.0419178009033203 10.4357442855834943 40.6103515625000000
  0.0521544478833675  4.4258403778076172 39.3743591308593750
 17.9349068552255630 13.4621810913085938 39.4409103393554688
  9.0520133972167951  4.5964918136596680 39.4831619262695384
  8.9077339172363281 13.6684694290161133 39.4447860717773438
  4.5526056289672852  0.0617911666631699 39.4659614562988281
  4.4534597396850586  9.0204019546508789 39.4867706298828196
 13.5427942276000977  0.0603566467761993 39.5040817260742188
 13.4224739074707031  9.2941055297851562 39.5594024658203196
  8.1032123565673828  5.4420318603515616 48.0459518432617259
  8.1007528305053711 14.4734306335449219 48.0459518432617259
 17.1336116790771484  5.4420318603515616 48.0459518432617259
 17.1311531066894531 14.4734306335449219 48.0459518432617259
  5.4410333633422852  0.9265221953392029 48.0449485778808594
  5.4385743141174316  9.9579219818115234 48.0449485778808594
 14.4714326858520490  0.9265221953392029 48.0449485778808594
 14.4689741134643555  9.9579219818115234 48.0449485778808594
  1.4218254089355467  3.0919990539550781 46.4558296203613281
  1.4193661212921143 12.1233978271484375 46.4558296203613281
 10.4522256851196289  3.0919990539550781 46.4558296203613281
 10.4497661590576172 12.1233978271484375 46.4558296203613281
  3.0899283885955806  7.6075901985168457 46.4545211791992188
  3.0874691009521484 16.6389904022216797 46.4545211791992188
 12.1203289031982422  7.6075901985168457 46.4545211791992188
 12.1178693771362305 16.6389904022216797 46.4545211791992188
  0.9247469902038573  3.5893490314483643 48.0459518432617259
  0.9222877025604248 12.6207475662231445 48.0459518432617259
  9.9551477432250977  3.5893490314483643 48.0459518432617259
  9.9526882171630859 12.6207475662231445 48.0459518432617259
  3.5868983268737793  8.1048498153686523 48.0448913574218821
  3.5844390392303462 17.1362495422363281 48.0448913574218821
 12.6172990798950195  8.1048498153686523 48.0448913574218821
 12.6148395538330078 17.1362495422363281 48.0448913574218821
  7.6061611175537109  5.9393639564514160 46.4558296203613281
  7.6037015914916992 14.9707632064819336 46.4558296203613281
 16.6365604400634766  5.9393639564514160 46.4558296203613281
 16.6341018676757812 14.9707632064819336 46.4558296203613281
  5.9380125999450684  1.4238001108169553 46.4545211791992188
  5.9355530738830566 10.4551992416381836 46.4545211791992188
 14.9684123992919904  1.4238001108169553 46.4545211791992188
 14.9659538269042951 10.4551992416381836 46.4545211791992188
 -0.0011664569610730  4.5157265663146973 45.3548011779785156
 -0.0036257810425013 13.5471258163452148 45.3548011779785156
  9.0292339324951172  4.5157265663146973 45.3548011779785156
  9.0267744064331037 13.5471258163452148 45.3548011779785156
  4.5152091979980469  0.0000000000000000 45.3536758422851562
  4.5127501487731934  9.0313997268676740 45.3536758422851562
 13.5456094741821289  0.0000000000000000 45.3536758422851562
 13.5431499481201172  9.0313997268676740 45.3536758422851562
 13.0662746429443359  8.4220628738403320 34.3838577270507884
 13.4926748275756818  9.3420267105102539 33.0166168212890625
 11.8759651184082031 10.1485357284545898 35.3529243469238281
 12.5988168716430646 11.7139043807983398 35.4341850280761719
 15.1620302200317383  9.5355606079101562 36.3557662963867188
 13.9495344161987305 10.7077245712280273 36.8956565856933594
 15.8950061798095703 10.2779197692871094 34.2584381103515625
 14.8060474395751953 11.4093532562255859 33.4462699890136719
 15.8853750228881836  8.9361953735351562 33.2894248962402344
 15.6020088195800781  8.2322883605957031 34.9040946960449219
 16.0955581665039062  6.4252409934997559 33.4528694152832031
 14.4339084625244123  6.3608789443969727 34.0343132019043040
 11.3884525299072266 10.2872638702392578 33.0066528320312500
 12.8487653732299805 11.2766256332397461 32.7137069702148438
 11.5087738037109375 12.0782203674316406 33.3952980041503977
 13.2652273178100586  8.7285614013671875 37.7785987854003906
 13.5305976867675781  7.7392764091491699 36.3455352783203125
 12.2040052413940430  8.9060029983520508 36.4090614318847656
 15.0697679519653303 12.3258790969848633 36.0415191650390625
 15.7399797439575195 12.9862699508666992 34.6545906066894531
 16.6797409057617188 11.8121995925903320 35.6311264038085938
 15.2975873947143555  7.3192467689514160 31.2789535522460938
 14.6569271087646467  5.7175474166870108 31.6263446807861328
 12.2602701187133771  6.0242424011230469 33.1583213806152344
 13.8410005569458008  8.6542911529541016 30.2092895507812500
 10.0719451904296875  6.9500999450683594 32.8342819213867259
 11.5876684188842773  9.5767812728881836 29.8639202117919957
  9.7047643661499023  8.7735958099365234 31.1919498443603516
  0.0204353332519527  4.4644651412963867 34.8003120422363281
  0.0733985900878891 13.7294683456420898 34.7875595092773438
  9.0360145568847656  4.4884805679321289 34.6683807373046875
  8.9892978668212891 13.5756683349609375 34.8065109252929759
  4.5265417098999015  9.0722417831420898 34.7436180114746094
  4.4892963627353311 18.0411825440824032 34.7173538208007812
 13.6430334309116006 17.9635790139436722 34.7014923095703125
 18.0392993092536962  4.5113549232482910 40.4853858947753906
 18.0161058641970193 13.5098409652709961 40.5569229125976634
  9.0300512313842756  4.5624742507934570 40.6007118225097656
  8.9970102310180664 13.5583276748657227 40.5511703491210938
  4.4829993247985840  9.0625152587890625 40.5951309204101634
  4.5148624638095498 18.0623755846172571 40.5828323364257884
 13.5018138885498047  9.1351108551025391 40.5983085632324219
 13.5418386459350586  0.0473795086145401 40.6236381530761719
  9.0289716720581055  4.5156092643737793 46.4455223083496165
  9.0265130996704102 13.5470085144042969 46.4455223083496165
 18.0593719482421875  4.5156092643737793 46.4455223083496165
 18.0569133758544922 13.5470085144042969 46.4455223083496165
  4.5152091979980469  0.0000180629995157 46.4442062377929759
  4.5127501487731934  9.0314178466796857 46.4442062377929759
 13.5456094741821289  0.0000180629995157 46.4442062377929759
 13.5431499481201172  9.0314178466796857 46.4442062377929759
 13.2396392822265625  7.2454872131347647 31.7030239105224609
 12.1450891494750977  6.7722749710083008 32.3980064392089844
 13.0215234756469727  8.2865333557128906 30.7568645477294922
 10.8629331588745117  7.2997198104858398 32.1982688903808594
 11.7412195205688477  8.7894239425659180 30.5443992614746129
 10.6479215621948242  8.3046474456787109 31.3244457244873082
 13.8398141860961914  9.0606269836425781 33.9859657287597656
 12.5438871383666992 10.8544883728027344 34.7894935607910156
 14.1221599578857422  9.8396921157836914 36.2628211975097656
 15.0971174240112305 11.0147476196289062 34.3799209594726562
 15.1867637634277344  8.3450679779052734 33.8838195800781250
 15.1071987152099609  6.8832406997680664 33.3439521789550781
 12.0289783477783185 11.0923442840576172 33.4042243957519602
 13.2160120010375977  8.7131681442260742 36.6994552612304688
 15.7067232131958008 12.0714330673217773 35.2221260070800781
 14.5807676315307599  6.7943229675292969 31.8887538909912145
  0.9325256347656277  3.6901772022247314 35.2833671569824219
  0.8434505462646498 12.7314081192016602 35.3039474487304688
  9.9502801895141602  3.7779664993286133 35.2642745971679688
  9.6646242141723633 12.7745122909545898 35.5850906372070384
  8.1477937698364258  5.2783966064453125 35.3062133789062571
  8.1744184494018555 14.5394306182861328 35.2962379455566406
 17.2297363281250000  5.1766920089721671 35.6039237976074219
 17.4700317382812500 14.5711946487426758 35.5383415222167969
  3.6655454635620113  8.2097196578979492 35.2856483459472656
  3.6035329559817910 17.2745100855827332 35.2740211486816477
 12.8144230106845498 17.0901525616645813 35.2736892700195384
  5.3904290199279785  0.7651342749595641 35.3147468566894531
  5.3456540107727051  9.8704214096069318 35.3556327819824219
 14.3443613052368164  0.8340718150138855 35.2750854492187500
  0.6928683519363402  3.7218375205993652 41.1683616638183594
  0.7679222822189331 12.7558803558349609 41.1629371643066477
  9.8196744918823242  3.7427916526794434 41.1580429077148438
  9.8686904907226562 12.7398605346679688 41.0193710327148438
  3.6915695667266846  8.1827907562255859 41.1933135986328125
  3.6952494839206338 17.2680896520614624 41.1570053100585938
 12.6767053604125977  8.3478345870971680 41.2113037109375071
 12.7503904560580850 17.3248896598815918 41.2537040710449219
  8.1882486343383789  5.4226007461547843 41.2032508850097727
  8.1756000518798828 14.3565435409545898 41.2564888000488281
 17.1891000270843506  5.4469027519226074 40.9337005615234375
 17.2093082666397095 14.3960027694702148 41.1204071044921946
  5.3789138793945304  0.8382576704025269 41.1905212402343750
  5.2372927665710449  9.8779869079589844 41.1985359191894531
 14.3911790847778320  0.9300371408462524 41.1714782714843750
 14.4718122482299805  9.8690719604492188 41.1877479553222656
  0.8273094892501831  3.6869695186614990 47.0359649658203125
  0.8248501420021057 12.7183685302734375 47.0359649658203125
  9.8577098846435547  3.6869695186614990 47.0359649658203125
  9.8552503585815412 12.7183685302734375 47.0359649658203125
  3.6843190193176270  8.2023353576660156 47.0346527099609375
  3.6818594932556152 17.2337341308593750 47.0346527099609375
 12.7147188186645508  8.2023353576660156 47.0346527099609375
 12.7122592926025391 17.2337341308593750 47.0346527099609375
  8.2006769180297852  5.3445744514465332 47.0360260009765696
  8.1982173919677734 14.3759746551513672 47.0360260009765696
 17.2310771942138672  5.3445744514465332 47.0360260009765696
 17.2286186218261719 14.3759746551513672 47.0360260009765696
  5.3436489105224600  0.8290914893150328 47.0346527099609375
  5.3411893844604483  9.8604917526245117 47.0346527099609375
 14.3740482330322266  0.8290914893150328 47.0346527099609375
 14.3715896606445312  9.8604917526245117 47.0346527099609375
 13.9803686141967773 10.2161293029785156 34.9034118652343750
  8.9215440750122070  0.0246407315135002 34.5240859985351562
  8.8756265640258789  9.1794557571411133 34.6237983703613281
  0.0231874100863934  0.0122993765398860 34.4795188903808665
  0.1714433580636978  9.1783456802368164 34.6625747680664062
  4.5403776168823233  4.5906443595886230 34.5763740539550781
  4.5233378410339355 13.4665098190307617 34.5187454223632812
 13.3932428359985352  4.3452792167663574 34.6630249023437500
 13.3640890121459961 13.7213973999023438 34.3147735595703196
 17.9836528077721596  0.0186835732311010 40.8729934692382884
  0.0598604008555412  8.9351387023925781 40.9056625366211009
  9.0003170231357217 18.0008678399026394 40.8673095703125000
  8.9325046539306641  9.0096473693847656 40.8809967041015625
  4.5364871025085449  4.5032672882080078 40.8783416748046875
  4.4850378036499023 13.5268354415893537 40.8665580749511719
 13.6233863830566406  4.4948139190673828 40.8861961364746165
 13.5627851486206055 13.5414209365844709 40.8575019836425852
  2.6053190231323242  1.9464099407196045 37.9688720703125000
  2.5583903789520264 10.9429759979248047 37.9632835388183594
 11.6330223083496094  1.9380954504013059 37.9570655822753906
 11.4362602233886719 11.1325559616088867 38.1316528320312500
  6.4171104431152335  7.0763459205627441 37.9661483764648438
  6.4559397697448730 16.0539455413818359 37.9727134704589915
 15.6404428482055664  6.9355311393737793 38.1255035400390625
 15.4689311981201172 16.1233062744140625 37.9638557434082031
  2.0209395885467529  6.4314703941345206 37.9740562438964915
  1.9429316520690918 15.4781131744384748 37.9511756896972656
 10.7991790771484375  6.3097891807556152 37.8787078857421875
 10.9513931274414062 15.4777584075927734 37.9387969970703125
  7.0850324630737296  2.5941126346588130 37.9668998718261719
  7.1176877021789551 11.5952491760253906 37.9709358215332031
 16.1076374053955078  2.5952999591827393 37.9536170959472656
 16.2979087829589844 11.6789169311523438 38.1350822448730469
  0.0000000000000000  0.0000000000000000 47.1735610961914062
 -0.0024593239650130  9.0313997268676740 47.1735610961914062
  9.0304002761840803  0.0000000000000000 47.1735610961914062
  9.0279407501220685  9.0313997268676740 47.1735610961914062
  4.5139794349670410  4.5156998634338379 47.1742515563964844
  4.5115203857421875 13.5470991134643537 47.1742515563964844
 13.5443792343139648  4.5156998634338379 47.1742515563964844
 13.5419197082519531 13.5470991134643537 47.1742515563964844
  2.4519233703613277  2.0629522800445557 44.0401268005371165
  2.4494640827178955 11.0943517684936523 44.0401268005371165
 11.4823226928710920  2.0629522800445557 44.0401268005371165
 11.4798641204833984 11.0943517684936523 44.0401268005371165
  6.5760178565979004  6.9684472084045410 44.0401268005371165
  6.5735583305358887 15.9998464584350586 44.0401268005371165
 15.6064186096191406  6.9684472084045410 44.0401268005371165
 15.6039590835571289 15.9998464584350586 44.0401268005371165
  2.0610768795013428  6.5788145065307617 44.0400009155273509
  2.0586175918579102 15.6102142333984375 44.0400009155273509
 11.0914773941040039  6.5788145065307617 44.0400009155273509
 11.0890178680419922 15.6102142333984375 44.0400009155273509
  6.9668641090393066  2.4525938034057613 44.0400657653808665
  6.9644045829772949 11.4839935302734375 44.0400657653808665
 15.9972639083862305  2.4525938034057613 44.0400657653808665
 15.9948053359985352 11.4839935302734375 44.0400657653808665
  2.4316265583038330  2.0832188129425049 50.0684852600097656
  2.4291670322418213 11.1146183013915998 50.0684852600097656
 11.4620265960693359  2.0832188129425049 50.0684852600097656
 11.4595670700073224 11.1146183013915998 50.0684852600097656
  6.5963144302368164  6.9481806755065918 50.0684852600097656
  6.5938549041748047 15.9795799255371076 50.0684852600097656
 15.6267137527465803  6.9481806755065918 50.0684852600097656
 15.6242542266845703 15.9795799255371076 50.0684852600097656
  2.0811281204223633  6.5990090370178223 50.0690460205078125
  2.0786688327789307 15.6304082870483398 50.0690460205078125
 11.1115283966064453  6.5990090370178223 50.0690460205078125
 11.1090688705444336 15.6304082870483398 50.0690460205078125
  6.9468131065368652  2.4323906898498531 50.0690460205078125
  6.9443535804748535 11.4637899398803711 50.0690460205078125
 15.9772129058837891  2.4323906898498531 50.0690460205078125
 15.9747543334960938 11.4637899398803711 50.0690460205078125
 18.0348357921466267 18.0438146144151688 37.6585083007812571
  0.0139180552214384  9.0589084625244141 37.7839279174804688
  9.0372909763827920 18.0617331932298875 37.6644210815429688
  9.0423173904418945  9.0416669845581055 37.6657371520996094
  4.5478773117065430  4.4976601600646973 37.7051696777343750
  4.4837388992309570 13.5494880676269531 37.6180686950683665
 13.5214614868164062  4.4964246749877930 37.7559700012207102
 13.4069404602050781 13.7042036056518555 37.7807579040527415
  0.0000090280000222  0.0000090310004452 44.0429992675781250
 -0.0024502959568053  9.0314083099365234 44.0429992675781250
  9.0304088592529297  0.0000090310004452 44.0429992675781250
  9.0279493331909180  9.0314083099365234 44.0429992675781250
  4.5139703750610352  4.5156903266906738 44.0427513122558594
  4.5115113258361816 13.5470905303955078 44.0427513122558594
 13.5443706512451172  4.5156903266906738 44.0427513122558594
 13.5419111251831037 13.5470905303955078 44.0427513122558594
  0.0000000000000000  0.0000000000000000 50.4472808837890696
 -0.0024593239650130  9.0313997268676740 50.4472808837890696
  9.0304002761840803  0.0000000000000000 50.4472808837890696
  9.0279407501220685  9.0313997268676740 50.4472808837890696
  4.5139703750610352  4.5156998634338379 50.4472808837890696
  4.5115113258361816 13.5470991134643537 50.4472808837890696
 13.5443706512451172  4.5156998634338379 50.4472808837890696
 13.5419111251831055 13.5470991134643537 50.4472808837890696
