Li 
 1.0000000000000000
    14.0000000000000000    0.0000000000000000    0.0000000000000000
     0.0000000000000000   14.0000000000000000    0.0000000000000000
     0.0000000000000000    0.0000000000000000   14.0000000000000000
 Li 
   1
Cartesian
  5.2000000000000002  5.2000000000000002  5.2000000000000002
