 H  C  N  I Pb 
 1.0000000000000000
    18.0608005523681641    0.0000000000000000    0.0000000000000000
    -0.0049186488613486   18.0627994537353516    0.0000000000000000
     0.0000000000000000    0.0000000000000000   62.4874992370605469
 H   C   N   I   Pb 
 143  39  47  72  24
Cartesian
  8.5493659973144531  6.0161976814270020 35.6530303955078125
  8.1287727355957031 15.1208896636962891 35.8325119018554688
 16.6654586791992188  4.4079523086547852 36.2853050231933594
 17.0131206512451172 14.7242345809936523 35.9686775207519531
  5.7449026107788077  1.3217630386352539 35.6282424926757812
  6.1243476867675781 10.2107629776000977 35.5354118347167969
 14.3889522552490234  1.6051845550537109 35.8073692321777344
  1.8893470764160178  4.4580626487731934 34.8267822265625000
  1.5349082946777355 12.1840333938598633 35.8304977416992188
  9.9460506439208984  2.7587931156158447 34.9748001098632812
  8.9521617889404297 11.6568956375122070 35.1165122985839844
  6.6429662704467773  0.1546469628810883 34.7279243469238281
  5.1301183700561523 11.4427118301391602 34.7839851379394531
 15.6949234008789062  0.6029996871948242 35.2109489440918040
  1.0424461364746065  4.4443974494934082 36.3365592956543040
  0.0476760864257830 12.5503530502319336 36.6626243591308594
 10.3685226440429688  4.3329677581787109 35.6476440429687500
  8.1746435165405273 12.6650705337524414 36.2829170227050781
  5.0970191955566406  7.9633393287658691 35.8571701049804688
  3.2834396362304688  1.0572419166564941 35.7126083374023438
 12.1118745803833008  0.5357481837272644 35.8070831298828125
  7.0139098167419434  5.5032010078430176 34.9838790893554688
  9.0841350555419922 15.6972761154174805 34.5168151855468750
 15.8632965087890607  4.2677030563354492 34.7509803771972656
 17.8272037506103516 15.6571035385131818 34.7593460083007884
  3.5107398033142090  7.7576956748962393 35.2171592712402344
  2.5617548683658242 17.8458971977233887 34.8012733459472727
 12.0523399570956826 16.9685056209564209 35.1883087158203125
  7.7889103889465332  3.4092640876770020 34.4531440734863281
  9.7450647354125959 13.5161066055297852 33.8908920288085938
 17.9401588439941406  4.3370814323425293 33.5808372497558594
  1.4868125915527333 14.0583314895629883 34.5174865722656250
  3.3511073589324947  9.9381952285766602 34.4772682189941406
  4.6823472240939736 17.0268476009368896 34.1247444152832031
 14.2896007755771279 16.8876997232437134 34.7358970642089844
  8.3732442855834961  5.5777416229248047 42.0964546203613281
  7.9575657844543457 14.5927305221557617 42.0124130249023438
 17.1138318777084386  4.9984493255615225 42.2295188903808594
 16.6678189039230347 13.3755989074707031 42.0625190734863281
  5.5681881904602051  0.8885502815246582 41.9843063354492188
  5.3185319900512695  9.9489793777465820 42.2436828613281250
 14.3225440979003906  0.9518169164657593 42.1671905517578125
 15.2484092712402344  8.5496807098388672 41.5174522399902415
  1.6664531230926511  3.1401994228363037 40.4858551025390625
  1.9353864192962646 12.8339328765869141 40.7470855712890625
 10.4801082611083984  3.0352520942687988 40.5191535949707031
 10.3764562606811506 12.0974769592285156 40.7937278747558594
  3.3561375141143799  7.3835082054138184 40.4904327392578196
  3.0457848766818638 16.7353919744491577 40.4617767333984375
 11.6424818038940430  8.6128978729248047 41.2184371948242188
 12.2716707447543740 16.4879926443099976 40.4668273925781250
  1.0340180397033691  3.3171002864837646 42.0822944641113281
  0.8557959794998169 12.2091903686523438 41.9389495849609446
 10.1838016510009748  3.7695617675781246 42.0797729492187500
  9.7037715911865217 12.6747713088989258 42.2961578369140696
  3.6781039237976074  7.9119124412536621 42.1101531982421875
  3.5905746677890420 17.2129560708999634 42.0403633117675781
 12.9267721176147461  7.6493535041809082 41.8511886596679759
 12.6277555683627725 17.0280053615570068 42.0820884704589844
  7.6124763488769531  5.8610777854919434 40.5708465576171875
  7.6485643386840811 15.0252628326416016 40.3654365539550781
 16.7119706869125366  5.7777228355407715 40.7140922546386719
 16.4291077852249146 14.6929140090942365 40.9423370361328125
  6.0744967460632315  1.3099247217178345 40.3907852172851634
  5.8095970153808594 10.5628032684326172 40.6927070617675852
 14.8887233734130859  1.4845067262649536 40.6223754882812500
 15.3970050811767578 10.0072088241577148 40.5689849853515696
  0.2572149634361267  4.6696429252624512 39.5175399780273509
  0.4773447513580322 14.4628696441650391 40.0070648193359446
  8.8840980529785156  4.3233532905578613 39.4374542236328196
  9.1359615325927734 13.5088539123535156 39.4771575927734375
  4.5633744457736611 18.0281289219856262 39.3171386718750000
  4.6399421691894531  8.9855489730834961 39.4881858825683594
 13.6605438450351357 17.9965663850307465 39.4346733093261719
 13.0947065353393537 10.1768274307250977 40.2518768310546875
  8.1032123565673828  5.4420318603515616 48.0459518432617259
  8.1007528305053711 14.4734306335449219 48.0459518432617259
 17.1336116790771484  5.4420318603515616 48.0459518432617259
 17.1311531066894531 14.4734306335449219 48.0459518432617259
  5.4410333633422852  0.9265221953392029 48.0449485778808594
  5.4385743141174316  9.9579219818115234 48.0449485778808594
 14.4714326858520490  0.9265221953392029 48.0449485778808594
 14.4689741134643555  9.9579219818115234 48.0449485778808594
  1.4218254089355467  3.0919990539550781 46.4558296203613281
  1.4193661212921143 12.1233978271484375 46.4558296203613281
 10.4522256851196289  3.0919990539550781 46.4558296203613281
 10.4497661590576172 12.1233978271484375 46.4558296203613281
  3.0899283885955806  7.6075901985168457 46.4545211791992188
  3.0874691009521484 16.6389904022216797 46.4545211791992188
 12.1203289031982422  7.6075901985168457 46.4545211791992188
 12.1178693771362305 16.6389904022216797 46.4545211791992188
  0.9247469902038573  3.5893490314483643 48.0459518432617259
  0.9222877025604248 12.6207475662231445 48.0459518432617259
  9.9551477432250977  3.5893490314483643 48.0459518432617259
  9.9526882171630859 12.6207475662231445 48.0459518432617259
  3.5868983268737793  8.1048498153686523 48.0448913574218821
  3.5844390392303462 17.1362495422363281 48.0448913574218821
 12.6172990798950195  8.1048498153686523 48.0448913574218821
 12.6148395538330078 17.1362495422363281 48.0448913574218821
  7.6061611175537109  5.9393639564514160 46.4558296203613281
  7.6037015914916992 14.9707632064819336 46.4558296203613281
 16.6365604400634766  5.9393639564514160 46.4558296203613281
 16.6341018676757812 14.9707632064819336 46.4558296203613281
  5.9380125999450684  1.4238001108169553 46.4545211791992188
  5.9355530738830566 10.4551992416381836 46.4545211791992188
 14.9684123992919904  1.4238001108169553 46.4545211791992188
 14.9659538269042951 10.4551992416381836 46.4545211791992188
 -0.0011664569610730  4.5157265663146973 45.3548011779785156
 -0.0036257810425013 13.5471258163452148 45.3548011779785156
  9.0292339324951172  4.5157265663146973 45.3548011779785156
  9.0267744064331037 13.5471258163452148 45.3548011779785156
  4.5152091979980469  0.0000000000000000 45.3536758422851562
  4.5127501487731934  9.0313997268676740 45.3536758422851562
 13.5456094741821289  0.0000000000000000 45.3536758422851562
 13.5431499481201172  9.0313997268676740 45.3536758422851562
 12.9858064651489258  7.9648189544677725 33.8375434875488281
 13.3144836425781250  8.9001779556274414 32.4024124145507812
 11.9134616851806641  9.9891958236694336 34.9283866882324219
 12.7752885818481445 11.5305442810058594 34.7721443176269531
 15.3243312835693359  9.1535778045654297 35.5764389038085938
 14.2508621215820312 10.3964157104492188 36.1907958984375000
 15.6860599517822266 10.1536340713500959 33.1202430725097656
 14.3677377700805664 11.2820444107055664 32.7440185546875071
 15.7014312744140625  8.3614778518676758 32.4036750793457031
 15.5777673721313477  7.6519203186035156 34.0026206970214844
 15.7214250564575178  5.8833785057067871 32.3968429565429688
 14.1331577301025391  5.8145494461059570 33.1232490539550781
 11.4631633758544904  9.9525003433227539 32.4693450927734375
 12.4093055725097656 11.4631481170654297 32.2540893554687500
 10.9423646926879865 11.4325704574584961 33.2316131591796946
 13.6167516708374023  8.4203081130981445 37.3248176574707102
 13.6408166885375977  7.3976836204528809 35.8814659118652344
 12.3454923629760742  8.6010198593139648 36.1019935607910156
 14.7564992904663086 12.4661540985107422 34.9287910461425781
 16.2777576446533203 12.3600654602050781 34.0054779052734375
 16.0175552368164062 11.2772378921508789 35.3736228942871165
 14.8058328628540039  6.8858838081359863 30.3207778930664062
 14.1415224075317365  5.2884750366210938 30.7122364044189453
 11.9642877578735352  5.5946264266967773 32.5083122253417969
 13.1790580749511719  8.3238077163696289 29.3846073150634766
  9.6894655227661133  6.5738778114318848 32.4760513305664062
 10.8788080215454102  9.2722158432006836 29.3356094360351598
  9.1291809082031250  8.4114141464233398 30.9014148712158203
 17.9019050598144531  4.3762059211730957 34.6724319458007812
  0.6402683258056634 13.8919973373413086 35.1961975097656321
  8.4836473464965820  4.1253767013549805 34.8965873718261790
  9.0901899337768537 13.6757316589355469 34.7509384155273438
  4.2837362289428711  9.6036996841430664 34.9296150207519531
  4.6096581676974893 17.9419302344322205 34.7117652893066406
 13.8731769779697061 17.8044150173664093 35.1469154357910156
  0.1534425616264343  4.4700059890747070 40.5749778747558594
  0.1609794795513153 13.7939424514770508 40.8086738586425852
  9.0469417572021484  4.4555001258850098 40.4988975524902344
  9.0090112686157227 13.5583105087280273 40.5538444519042969
  4.5951828956604004  8.9630432128906250 40.5702362060546875
  4.5628623226657510 18.0574479247443378 40.4011535644531250
 13.4956665039062500  9.3492870330810547 40.8302116394043040
 13.5868190983310342 18.0176686309278011 40.5166473388671875
  9.0289716720581055  4.5156092643737793 46.4455223083496165
  9.0265130996704102 13.5470085144042969 46.4455223083496165
 18.0593719482421875  4.5156092643737793 46.4455223083496165
 18.0569133758544922 13.5470085144042969 46.4455223083496165
  4.5152091979980469  0.0000180629995157 46.4442062377929759
  4.5127501487731934  9.0314178466796857 46.4442062377929759
 13.5456094741821289  0.0000180629995157 46.4442062377929759
 13.5431499481201172  9.0314178466796857 46.4442062377929759
 12.7380695343017560  6.8935537338256836 30.9493465423583984
 11.7311067581176758  6.3990097045898438 31.8086261749267578
 12.4035196304321289  7.9218130111694336 30.0589618682861328
 10.4525623321533185  6.9321804046630859 31.7839450836181676
 11.1050777435302734  8.4539270401000977 30.0323028564453125
 10.1423292160034180  7.9745025634765625 30.8997039794921875
 13.7476978302001953  8.5787658691406250 33.3410720825195384
 12.5540781021118164 10.5805501937866211 34.2666320800781250
 14.2806997299194318  9.4691715240478516 35.6097526550293040
 14.9096841812133789 10.7807655334472656 33.5605697631835938
 15.0266742706298828  7.7926044464111328 33.0647315979003906
 14.7592411041259748  6.4156856536865234 32.4505805969238352
 11.8334407806396467 10.8552074432373047 32.9609413146972656
 13.4110250473022461  8.4065408706665039 36.2475700378417969
 15.5128602981567383 11.7721843719482422 34.5352439880371094
 14.1454601287841797  6.3508186340332031 31.0372066497802734
  0.9854907989501962  4.3846044540405273 35.3161773681640625
  0.7268638610839843 12.8075666427612287 35.9321899414062500
  9.7162265777587891  3.7436335086822510 35.1201591491699219
  8.7529048919677734 12.6178264617919922 35.4417381286621094
  8.0082674026489258  5.3262019157409668 35.1410293579101562
  8.7132892608642578 14.8932771682739258 35.0144653320312500
 16.7356700897216797  4.4195823669433594 35.2631034851074219
 17.7055549621582031 14.7483110427856445 35.2238845825195312
  4.3209066390991211  8.3492631912231445 35.3261680603027344
  3.4188423156738281  0.2870773077011108 35.0641250610351562
 12.5740055302157998 17.8270485699176788 35.3358879089355469
  5.7232661247253409  0.5146462321281433 35.0051498413085938
  5.2708778381347656 10.4564552307128906 35.0491523742675781
 14.6953105926513672  0.7245554924011229 35.4196395874023438
  0.9875937700271606  3.5894916057586670 41.0911254882812500
  1.0295255184173584 12.8759441375732422 41.1896553039550781
  9.9714841842651367  3.7116889953613281 41.0821113586425781
  9.7291107177734375 12.7304306030273438 41.2691688537597727
  3.8531401157379150  8.0249919891357422 41.1084518432617188
  3.6739861229434609 17.2962439060211182 41.0192604064941406
 12.6506032943725586  8.4642114639282227 41.3060684204101562
 12.7867311695590615 17.1234587430953979 41.0692291259765625
  8.3144369125366211  5.3499579429626465 41.0966529846191477
  8.1618232727050781 14.4345140457153320 41.0183143615722656
 17.2816717624664307  5.1245875358581543 41.2348098754882884
 17.0385197401046753 13.9824724197387695 41.3306350708007812
  5.4449810981750488  0.7633534669876099 40.9707641601562500
  5.2774271965026855  9.8618879318237287 41.2238845825195312
 14.2987451553344727  0.8420457839965819 41.1489067077636719
 14.7897148132324219  9.3021345138549805 40.9909362792968750
  0.8273094892501831  3.6869695186614990 47.0359649658203125
  0.8248501420021057 12.7183685302734375 47.0359649658203125
  9.8577098846435547  3.6869695186614990 47.0359649658203125
  9.8552503585815412 12.7183685302734375 47.0359649658203125
  3.6843190193176270  8.2023353576660156 47.0346527099609375
  3.6818594932556152 17.2337341308593750 47.0346527099609375
 12.7147188186645508  8.2023353576660156 47.0346527099609375
 12.7122592926025391 17.2337341308593750 47.0346527099609375
  8.2006769180297852  5.3445744514465332 47.0360260009765696
  8.1982173919677734 14.3759746551513672 47.0360260009765696
 17.2310771942138672  5.3445744514465332 47.0360260009765696
 17.2286186218261719 14.3759746551513672 47.0360260009765696
  5.3436489105224600  0.8290914893150328 47.0346527099609375
  5.3411893844604483  9.8604917526245117 47.0346527099609375
 14.3740482330322266  0.8290914893150328 47.0346527099609375
 14.3715896606445312  9.8604917526245117 47.0346527099609375
 13.8956985473632812  9.8298406600952148 34.1866645812988352
  9.1937208175659162  0.2634682357311249 34.4169998168945384
  8.7207603454589844  9.1560401916503906 34.6543502807617259
 18.0244783759117126  0.1536969244480133 34.4861068725585938
  0.5652787685394287  9.1391887664794922 34.6855506896972656
  4.5007143020629883  4.4818701744079590 34.5589904785156321
  4.3697390556335449 13.8373203277587891 34.5276985168457102
 13.2144041061401367  3.8035364151000977 34.7406997680664062
 12.6495571136474609 14.3657732009887678 34.6292343139648438
 18.0261841276660597 17.8783676475286484 40.9020690917968821
  0.2844240069389343  8.9400749206542969 40.9821853637695312
  9.0589599609375000  0.0884441509842872 40.8724136352539062
  9.1035385131835938  8.9494333267211914 40.9343338012695312
  4.6412920951843262  4.3805174827575684 40.9238471984863352
  4.5529270172119141 13.6764955520629883 40.8959083557128906
 13.4833593368530273  4.8587913513183594 40.9444808959960938
 13.4714374542236310 13.4418334960937482 40.8585357666015625
  2.3849136829376216  2.1612932682037354 37.9778442382812500
  2.7212209701538086 10.9594259262084961 38.1099510192871165
 11.5551309585571289  2.0603652000427246 38.1097335815429688
 11.3322954177856445 11.2272825241088867 38.1481094360351634
  6.5737242698669434  6.9981212615966797 38.0168495178222656
  6.7378716468811035 15.9392528533935547 37.8953742980957031
 16.0189399719238281  6.6988682746887207 38.1366539001464844
 15.6561708450317365 15.8905048370361310 37.9448814392089844
  2.2183520793914795  6.5987205505371094 38.0212020874023438
  2.2237691879272461 15.8454751968383789 37.9595794677734375
 10.7105493545532209  6.2432842254638672 37.6720008850097656
 11.1028938293457031 15.6422615051269531 38.2537040710449219
  6.9410681724548331  2.3886919021606445 37.8435897827148438
  6.8940520286560059 11.4190378189086914 38.2419128417968750
 15.9527845382690430  2.4796333312988281 38.2630844116210938
 16.3523921966552734 11.6464595794677717 38.4692001342773509
  0.0000000000000000  0.0000000000000000 47.1735610961914062
 -0.0024593239650130  9.0313997268676740 47.1735610961914062
  9.0304002761840803  0.0000000000000000 47.1735610961914062
  9.0279407501220685  9.0313997268676740 47.1735610961914062
  4.5139794349670410  4.5156998634338379 47.1742515563964844
  4.5115203857421875 13.5470991134643537 47.1742515563964844
 13.5443792343139648  4.5156998634338379 47.1742515563964844
 13.5419197082519531 13.5470991134643537 47.1742515563964844
  2.4519233703613277  2.0629522800445557 44.0401268005371165
  2.4494640827178955 11.0943517684936523 44.0401268005371165
 11.4823226928710920  2.0629522800445557 44.0401268005371165
 11.4798641204833984 11.0943517684936523 44.0401268005371165
  6.5760178565979004  6.9684472084045410 44.0401268005371165
  6.5735583305358887 15.9998464584350586 44.0401268005371165
 15.6064186096191406  6.9684472084045410 44.0401268005371165
 15.6039590835571289 15.9998464584350586 44.0401268005371165
  2.0610768795013428  6.5788145065307617 44.0400009155273509
  2.0586175918579102 15.6102142333984375 44.0400009155273509
 11.0914773941040039  6.5788145065307617 44.0400009155273509
 11.0890178680419922 15.6102142333984375 44.0400009155273509
  6.9668641090393066  2.4525938034057613 44.0400657653808665
  6.9644045829772949 11.4839935302734375 44.0400657653808665
 15.9972639083862305  2.4525938034057613 44.0400657653808665
 15.9948053359985352 11.4839935302734375 44.0400657653808665
  2.4316265583038330  2.0832188129425049 50.0684852600097656
  2.4291670322418213 11.1146183013915998 50.0684852600097656
 11.4620265960693359  2.0832188129425049 50.0684852600097656
 11.4595670700073224 11.1146183013915998 50.0684852600097656
  6.5963144302368164  6.9481806755065918 50.0684852600097656
  6.5938549041748047 15.9795799255371076 50.0684852600097656
 15.6267137527465803  6.9481806755065918 50.0684852600097656
 15.6242542266845703 15.9795799255371076 50.0684852600097656
  2.0811281204223633  6.5990090370178223 50.0690460205078125
  2.0786688327789307 15.6304082870483398 50.0690460205078125
 11.1115283966064453  6.5990090370178223 50.0690460205078125
 11.1090688705444336 15.6304082870483398 50.0690460205078125
  6.9468131065368652  2.4323906898498531 50.0690460205078125
  6.9443535804748535 11.4637899398803711 50.0690460205078125
 15.9772129058837891  2.4323906898498531 50.0690460205078125
 15.9747543334960938 11.4637899398803711 50.0690460205078125
 17.9983404465019738  0.0559785105288029 37.8093795776367188
  0.1114894747734070  9.1334609985351562 37.8078079223632884
  9.0654439926147461  0.0897411182522774 37.7536735534667969
  9.0673952102661133  9.0489044189453125 37.7842216491699290
  4.5408921241760254  4.5851535797119141 37.7658805847168040
  4.4587764739990234 13.5966787338256836 37.7336997985839844
 13.4715032577514648  4.6296863555908203 37.8208427429199219
 13.3884878158569336 13.6805219650268555 37.6768646240234375
  0.0000090280000222  0.0000090310004452 44.0429992675781250
 -0.0024502959568053  9.0314083099365234 44.0429992675781250
  9.0304088592529297  0.0000090310004452 44.0429992675781250
  9.0279493331909180  9.0314083099365234 44.0429992675781250
  4.5139703750610352  4.5156903266906738 44.0427513122558594
  4.5115113258361816 13.5470905303955078 44.0427513122558594
 13.5443706512451172  4.5156903266906738 44.0427513122558594
 13.5419111251831037 13.5470905303955078 44.0427513122558594
  0.0000000000000000  0.0000000000000000 50.4472808837890696
 -0.0024593239650130  9.0313997268676740 50.4472808837890696
  9.0304002761840803  0.0000000000000000 50.4472808837890696
  9.0279407501220685  9.0313997268676740 50.4472808837890696
  4.5139703750610352  4.5156998634338379 50.4472808837890696
  4.5115113258361816 13.5470991134643537 50.4472808837890696
 13.5443706512451172  4.5156998634338379 50.4472808837890696
 13.5419111251831055 13.5470991134643537 50.4472808837890696
