 H  C  N  I Pb 
 1.0000000000000000
    18.0608005523681641    0.0000000000000000    0.0000000000000000
    -0.0049186488613486   18.0627994537353516    0.0000000000000000
     0.0000000000000000    0.0000000000000000   62.4874992370605469
 H   C   N   I   Pb 
 143  39  47  72  24
Cartesian
  7.5923843383789062  4.6455373764038086 35.9341239929199219
  7.3993334770202637 12.9814281463623047 35.8870239257812500
 16.6247158050537109  5.0667996406555176 36.3052444458007812
 16.9444637298583984 14.7249488830566406 35.9866981506347656
  5.7444887161254874  1.3998801708221436 35.7734222412109446
  5.5898232460021973 10.4893121719360352 35.7505073547363281
 14.4345254898071289  1.4625420570373533 36.0223007202148438
  1.9614601135253904  4.1502308845520020 35.3125038146972656
  1.4613494873046893 12.1787843704223633 35.5906982421875000
 11.0054292678832990  3.6084275245666499 35.3414039611816406
 10.8583498001098615 13.3785285949707031 35.0276451110839844
  6.7703738212585449  0.2410536110401154 34.9346008300781250
  4.5624041557312012 11.2405557632446289 34.5384368896484375
 15.7596349716186523  0.6048633456230164 35.2285881042480469
  1.0761051177978529  5.0639529228210449 36.4958076477050781
 18.0172977447509766 12.4787893295288086 36.4250411987304688
  9.4950056076049805  3.1122817993164062 36.1201133728027344
  9.8145189285278320 12.4201583862304688 36.0486412048339844
  5.3180456161499023  8.0408411026000977 36.1360359191894531
  3.2824978828430171  0.9587225317955017 35.6963157653808594
 12.1963491439819336  0.4223654270172119 35.8413009643554688
  7.8966312408447266  6.1863355636596680 35.0743789672851562
  6.9334335327148438 14.2754859924316388 34.7947654724121094
 15.9441947937011701  4.1355128288269043 35.0181732177734446
 17.7918071746826172 15.7732067108154297 34.8979568481445312
  4.0247220993041992  7.2763090133666983 35.2551536560058665
  2.7508539417758580 17.6983394622802734 34.7035484313964844
 12.1495107868686318 16.9044840335845947 35.0282821655273438
 10.0739889144897461  5.5471854209899902 34.4883155822753906
  9.1853761672973633 14.6405677795410156 34.1378326416015625
  0.0078945159912146  3.4835174083709717 34.1739578247070384
  1.4390163421630848 14.2308731079101562 34.4763603210449219
  3.3877224922180176  9.2181959152221680 34.1373405456542969
  4.9514931896701446 17.0487718582153320 34.1561317443847656
 14.3687910297885519 16.9042056798934937 34.5228385925293040
  8.0692787170410156  5.1204051971435547 42.2560806274414062
  7.7886419296264648 14.8292522430419922 41.9682540893554688
 17.5343800783157384  5.0036153793334961 42.5625724792480469
 16.7266533374786377 13.8301477432250977 42.0567703247070384
  5.3343071937561035  0.8533738851547241 42.1744575500488281
  5.5872182846069336  9.9919528961181641 42.0187187194824219
 14.3520326614379883  1.1027593612670898 42.1729125976562571
 14.7401199340820312  9.6818094253540021 42.1543693542480469
  1.5583553314208984  2.9828002452850342 40.3234367370605540
  1.8061516284942625 12.4245767593383771 40.7893257141113281
 10.4789075851440430  3.1383736133575439 40.3394470214843750
 10.1733312606811506 12.2234287261962891 41.0117759704589844
  3.2662589550018311  7.3770079612731934 40.9197463989257812
  2.9676415184512734 16.6747993230819702 40.5094451904296875
 11.8801603317260724  7.9975724220275879 40.6073799133300852
 12.1102947453036904 16.6237349510192871 40.7744216918945384
  1.2753654718399048  3.2280070781707764 42.0359230041503906
  0.5878150463104248 12.0892286300659180 41.9778366088867188
  9.7877969741821289  3.2320530414581294 41.9447326660156250
  9.4876708984375000 12.9472408294677734 42.4398880004882884
  3.9754443168640137  8.0213565826416016 42.3829002380371094
  3.3823525169864297 17.2386530637741124 42.1178169250488352
 12.7504787445068342  8.0214395523071289 42.1193809509277344
 12.5752510288730264 17.3035567998886144 42.3166999816894531
  7.8105721473693839  6.1304984092712402 40.8560981750488281
  7.5093550682067862 15.1392250061035156 40.2502212524414134
 16.8274983167648315  5.7467269897460929 41.1820068359375071
 16.8604724407196080 15.1296453475952148 40.9148254394531321
  6.0650997161865234  1.1612884998321533 40.6284103393554688
  5.7185878753662109 10.5243921279907227 40.3507881164550852
 14.9158334732055646  1.4355375766754148 40.5337944030761719
 14.9922819137573242 10.5619382858276349 40.7299919128417969
 -0.0009590238332748  4.5597662925720215 39.6639099121093821
  0.7732313275337219 14.3178167343139648 39.9771766662597656
  9.2957162857055664  4.9775490760803223 39.5294837951660156
  8.9945440292358398 13.5233087539672852 39.5330505371093821
  4.6267079571262002 17.8383295834064484 39.4731101989746094
  4.2805562019348145  8.8857612609863281 39.5413703918457031
 13.5445560673251748 17.9210520088672638 39.5543060302734446
 13.1879949569702148  9.6170883178710938 39.6199874877929688
  8.1032123565673828  5.4420318603515616 48.0459518432617259
  8.1007528305053711 14.4734306335449219 48.0459518432617259
 17.1336116790771484  5.4420318603515616 48.0459518432617259
 17.1311531066894531 14.4734306335449219 48.0459518432617259
  5.4410333633422852  0.9265221953392029 48.0449485778808594
  5.4385743141174316  9.9579219818115234 48.0449485778808594
 14.4714326858520490  0.9265221953392029 48.0449485778808594
 14.4689741134643555  9.9579219818115234 48.0449485778808594
  1.4218254089355467  3.0919990539550781 46.4558296203613281
  1.4193661212921143 12.1233978271484375 46.4558296203613281
 10.4522256851196289  3.0919990539550781 46.4558296203613281
 10.4497661590576172 12.1233978271484375 46.4558296203613281
  3.0899283885955806  7.6075901985168457 46.4545211791992188
  3.0874691009521484 16.6389904022216797 46.4545211791992188
 12.1203289031982422  7.6075901985168457 46.4545211791992188
 12.1178693771362305 16.6389904022216797 46.4545211791992188
  0.9247469902038573  3.5893490314483643 48.0459518432617259
  0.9222877025604248 12.6207475662231445 48.0459518432617259
  9.9551477432250977  3.5893490314483643 48.0459518432617259
  9.9526882171630859 12.6207475662231445 48.0459518432617259
  3.5868983268737793  8.1048498153686523 48.0448913574218821
  3.5844390392303462 17.1362495422363281 48.0448913574218821
 12.6172990798950195  8.1048498153686523 48.0448913574218821
 12.6148395538330078 17.1362495422363281 48.0448913574218821
  7.6061611175537109  5.9393639564514160 46.4558296203613281
  7.6037015914916992 14.9707632064819336 46.4558296203613281
 16.6365604400634766  5.9393639564514160 46.4558296203613281
 16.6341018676757812 14.9707632064819336 46.4558296203613281
  5.9380125999450684  1.4238001108169553 46.4545211791992188
  5.9355530738830566 10.4551992416381836 46.4545211791992188
 14.9684123992919904  1.4238001108169553 46.4545211791992188
 14.9659538269042951 10.4551992416381836 46.4545211791992188
 -0.0011664569610730  4.5157265663146973 45.3548011779785156
 -0.0036257810425013 13.5471258163452148 45.3548011779785156
  9.0292339324951172  4.5157265663146973 45.3548011779785156
  9.0267744064331037 13.5471258163452148 45.3548011779785156
  4.5152091979980469  0.0000000000000000 45.3536758422851562
  4.5127501487731934  9.0313997268676740 45.3536758422851562
 13.5456094741821289  0.0000000000000000 45.3536758422851562
 13.5431499481201172  9.0313997268676740 45.3536758422851562
 14.3401632308959961  9.2104454040527326 32.2885894775390625
 15.7827806472778320  9.1137018203735352 33.3049583435058594
 13.6679744720458984 11.3477945327758789 33.4828186035156250
 13.8625116348266602 11.2998142242431623 35.2289237976074219
 12.3516273498535156  8.1755495071411133 34.5892524719238281
 12.0973091125488281  9.8535146713256836 35.0744895935058594
 14.4353551864624023  7.7554583549499503 35.5549507141113281
 15.6509828567504883  9.0412635803222656 35.6640129089355469
 15.5450553894042969  6.8361377716064453 33.7600135803222656
 13.8213911056518555  6.7658491134643555 33.4351234436035156
 14.0411300659179688  6.8641057014465332 31.1037158966064489
 15.6872539520263654  7.4685673713684082 31.1572990417480504
 16.2042064666748047 11.1115407943725586 33.2033386230468750
 16.3419456481933594 10.9964036941528303 34.9824256896972656
 15.7324552536010724 12.4787111282348633 34.2248191833496094
 10.7549610137939435  9.3945093154907209 33.0486373901367188
 12.1940336227416992  8.7987146377563477 32.1647224426269602
 12.0260181427001953 10.5308532714843750 32.5986366271972656
 12.9268321990966779  8.8911142349243164 37.1060905456542969
 13.8729038238525373 10.4181766510009766 36.9875144958496094
 14.5606689453125000  9.0100269317626953 37.7374916076660156
 14.9489316940307617  4.6984758377075195 32.1771507263183594
 15.2843341827392560  5.0052638053894034 30.4824371337890661
 16.8257312774658203  3.0084743499755859 31.2135353088378906
 17.5434017181396484  7.1223130226135254 32.2701034545898438
  1.2000598907470719  2.5312571525573730 31.4017963409423864
  1.9162826538085933  6.6352906227111816 32.4447669982910156
  2.7888240814208984  4.3580594062805176 31.9798240661621129
 17.9886779785156250  4.1074476242065430 35.0705528259277344
  0.5865573883056657 13.9553928375244141 35.1393623352050852
  9.4514856338500977  4.8734946250915527 35.0801429748535156
  8.9382038116455078 13.8302307128906250 34.8336982727050781
  4.2215304374694824  9.2496252059936523 34.8455009460449219
  4.7696627834811807 17.9428456127643585 34.7618942260742259
 13.9565319279208779 17.7685152292251587 35.0555343627929688
  0.1621018052101135  4.3617644309997559 40.7242965698242259
  0.3121459484100342 13.7660770416259748 40.8035545349121094
  9.1520147323608398  4.6390500068664551 40.5712471008300852
  8.8571434020996094 13.6801099777221680 40.6065750122070384
  4.4902772903442383  8.9380941390991211 40.6124343872070312
  4.5128292301669717 17.9514287933707237 40.5481986999511719
 13.4292974472045881  9.2943496704101562 40.6209945678710938
 13.5101770618930459 18.0471471846103668 40.6377677917480540
  9.0289716720581055  4.5156092643737793 46.4455223083496165
  9.0265130996704102 13.5470085144042969 46.4455223083496165
 18.0593719482421875  4.5156092643737793 46.4455223083496165
 18.0569133758544922 13.5470085144042969 46.4455223083496165
  4.5152091979980469  0.0000180629995157 46.4442062377929759
  4.5127501487731934  9.0314178466796857 46.4442062377929759
 13.5456094741821289  0.0000180629995157 46.4442062377929759
 13.5431499481201172  9.0314178466796857 46.4442062377929759
 17.0131111145019531  5.1011943817138672 31.7178001403808629
 17.5112380981445312  3.8108906745910645 31.4897270202636754
 17.9167213439941406  6.1140999794006348 32.0664100646972656
  0.8154487609863282  3.5402803421020508 31.5838298797607422
  1.2190227508544946  5.8415780067443848 32.1836738586425781
  1.7175788879394518  4.5643463134765625 31.9224853515625036
 14.7503080368041992  8.7621154785156250 33.1842308044433594
 14.2818946838378906 10.9301681518554670 34.2916107177734375
 12.5135297775268555  9.2136058807373029 34.2848815917968750
 14.5732679367065430  8.8313589096069336 35.6572608947753906
 14.7575082778930646  7.2241644859313965 33.0969963073730469
 14.9976778030395508  6.7775163650512695 31.6350135803222656
 15.7271919250488281 11.3791170120239258 34.1595115661621094
 11.8521547317504883  9.5002756118774414 32.9419212341308594
 13.9137763977050781  9.3311643600463849 36.9189376831054688
 15.5327959060668945  5.3487038612365723 31.4989814758300781
  1.0360412597656286  4.4188122749328613 35.7055397033691477
  0.6419486999511708 12.7819118499755859 35.7196998596191406
  9.9940319061279297  3.7486784458160400 35.4864006042480469
  9.9114418029785156 13.0786123275756836 35.2837944030761719
  8.1979780197143555  5.2363548278808594 35.3457031250000071
  7.6817531585693359 13.7077703475952148 35.1971435546875000
 16.7922210693359375  4.5268225669860831 35.4342308044433594
 17.6679782867431641 14.8217029571533203 35.2749290466308594
  4.5226459503173828  8.1331930160522461 35.4724159240722727
  3.5257093906402588  0.1741028875112534 35.0610427856445312
 12.6590456226840615 17.7463533878326452 35.2757797241211009
  5.8213968276977539  0.5809277296066284 35.1407356262207031
  4.8361363410949707 10.4102687835693342 35.0344543457031250
 14.7702274322509766  0.6623339056968689 35.4545135498046875
  1.0424948930740356  3.4770395755767822 41.0721740722656250
  0.9176824092864990 12.6949958801269531 41.2281646728515625
  9.8275880813598633  3.6052191257476807 40.9945106506347656
  9.5620889663696271 12.9224567413330078 41.4132957458496165
  3.8782246112823486  8.0529375076293945 41.3643569946289134
  3.5479132393375039 17.2447038292884827 41.1076164245605469
 12.6429309844970703  8.3771810531616211 41.1563987731933665
 12.6824726322665811 17.2754622697830200 41.2983932495117188
  8.2854156494140625  5.3334178924560547 41.2905616760253906
  8.0040731430053711 14.6131830215454102 40.9835472106933665
 17.4859335422515905  5.0800580978393555 41.5568161010742259
 17.2448841333389282 14.2568950653076172 41.2746086120605469
  5.3634757995605469  0.6826599836349487 41.1619796752929688
  5.3228726387023926  9.8751506805419904 41.0394287109375000
 14.3115739822387678  0.8946851491928101 41.1725234985351562
 14.4510488510131836  9.8565874099731445 41.2009391784668040
  0.8273094892501831  3.6869695186614990 47.0359649658203125
  0.8248501420021057 12.7183685302734375 47.0359649658203125
  9.8577098846435547  3.6869695186614990 47.0359649658203125
  9.8552503585815412 12.7183685302734375 47.0359649658203125
  3.6843190193176270  8.2023353576660156 47.0346527099609375
  3.6818594932556152 17.2337341308593750 47.0346527099609375
 12.7147188186645508  8.2023353576660156 47.0346527099609375
 12.7122592926025391 17.2337341308593750 47.0346527099609375
  8.2006769180297852  5.3445744514465332 47.0360260009765696
  8.1982173919677734 14.3759746551513672 47.0360260009765696
 17.2310771942138672  5.3445744514465332 47.0360260009765696
 17.2286186218261719 14.3759746551513672 47.0360260009765696
  5.3436489105224600  0.8290914893150328 47.0346527099609375
  5.3411893844604483  9.8604917526245117 47.0346527099609375
 14.3740482330322266  0.8290914893150328 47.0346527099609375
 14.3715896606445312  9.8604917526245117 47.0346527099609375
 14.0291595458984375  9.4143247604370117 34.3439331054687500
  9.1596101978793740 17.6481735408306122 34.6754798889160156
  8.2331218719482422  8.7814207077026367 34.6438598632812500
  0.0977177023887634  0.2786886096000671 34.5537300109863281
  0.6748876571655273  8.9279823303222656 34.7231445312500000
  4.5290322303771973  4.4309582710266113 34.7541007995605469
  4.2380023002624512 13.8951854705810547 34.4837532043457031
 13.4127244949340820  4.0196175575256348 34.7040748596191406
 12.9353094100952148 14.3686809539794922 34.3125915527343750
 18.0085794450715184 17.8755943030118942 40.9087371826171875
  0.0759368762373924  9.0470113754272461 40.9962196350097656
  8.9919748306274414  0.1266977190971375 40.9744110107421875
  8.9937334060668945  9.0760869979858398 40.9017219543457102
  4.6849594116210938  4.2840561866760254 40.9901618957519531
  4.4651641845703125 13.5421018600463867 40.8683509826660156
 13.3753061294555664  4.5780920982360840 40.9531593322753977
 13.6008672714233398 13.5541763305664062 40.8716964721679759
  2.6027734279632568  2.0022239685058594 38.0530166625976562
  2.5819683074951172 11.0432748794555664 38.1240692138671946
 11.6458997726440430  1.9463642835617065 38.0509185791015625
 11.0481405258178711 11.4991941452026367 38.3002281188964915
  6.5895466804504395  6.9575219154357910 38.3077392578125000
  6.5790152549743652 16.0156879425048828 37.9344520568847656
 16.0776576995849609  6.5113582611083984 38.4603080749511719
 15.6439552307128888 15.9977283477783203 37.9542198181152344
  2.1708061695098877  6.5917124748229972 38.3162612915039134
  2.1391928195953369 15.8293809890747070 37.9157752990722656
 11.1250848770141602  6.6846337318420410 37.8821525573730469
 11.2000894546508789 15.6879978179931641 38.2252578735351562
  7.1913628578186035  2.5931699275970459 37.8272247314453196
  6.8005146980285636 11.4568948745727539 37.8997840881347656
 15.9990539550781232  2.4832651615142822 38.3665084838867188
 16.4545516967773438 11.9159584045410156 38.3185348510742188
  0.0000000000000000  0.0000000000000000 47.1735610961914062
 -0.0024593239650130  9.0313997268676740 47.1735610961914062
  9.0304002761840803  0.0000000000000000 47.1735610961914062
  9.0279407501220685  9.0313997268676740 47.1735610961914062
  4.5139794349670410  4.5156998634338379 47.1742515563964844
  4.5115203857421875 13.5470991134643537 47.1742515563964844
 13.5443792343139648  4.5156998634338379 47.1742515563964844
 13.5419197082519531 13.5470991134643537 47.1742515563964844
  2.4519233703613277  2.0629522800445557 44.0401268005371165
  2.4494640827178955 11.0943517684936523 44.0401268005371165
 11.4823226928710920  2.0629522800445557 44.0401268005371165
 11.4798641204833984 11.0943517684936523 44.0401268005371165
  6.5760178565979004  6.9684472084045410 44.0401268005371165
  6.5735583305358887 15.9998464584350586 44.0401268005371165
 15.6064186096191406  6.9684472084045410 44.0401268005371165
 15.6039590835571289 15.9998464584350586 44.0401268005371165
  2.0610768795013428  6.5788145065307617 44.0400009155273509
  2.0586175918579102 15.6102142333984375 44.0400009155273509
 11.0914773941040039  6.5788145065307617 44.0400009155273509
 11.0890178680419922 15.6102142333984375 44.0400009155273509
  6.9668641090393066  2.4525938034057613 44.0400657653808665
  6.9644045829772949 11.4839935302734375 44.0400657653808665
 15.9972639083862305  2.4525938034057613 44.0400657653808665
 15.9948053359985352 11.4839935302734375 44.0400657653808665
  2.4316265583038330  2.0832188129425049 50.0684852600097656
  2.4291670322418213 11.1146183013915998 50.0684852600097656
 11.4620265960693359  2.0832188129425049 50.0684852600097656
 11.4595670700073224 11.1146183013915998 50.0684852600097656
  6.5963144302368164  6.9481806755065918 50.0684852600097656
  6.5938549041748047 15.9795799255371076 50.0684852600097656
 15.6267137527465803  6.9481806755065918 50.0684852600097656
 15.6242542266845703 15.9795799255371076 50.0684852600097656
  2.0811281204223633  6.5990090370178223 50.0690460205078125
  2.0786688327789307 15.6304082870483398 50.0690460205078125
 11.1115283966064453  6.5990090370178223 50.0690460205078125
 11.1090688705444336 15.6304082870483398 50.0690460205078125
  6.9468131065368652  2.4323906898498531 50.0690460205078125
  6.9443535804748535 11.4637899398803711 50.0690460205078125
 15.9772129058837891  2.4323906898498531 50.0690460205078125
 15.9747543334960938 11.4637899398803711 50.0690460205078125
 18.0484423460438883  0.1384603381156921 37.8023414611816406
  0.1376882791519165  9.0943574905395508 37.8198165893554688
  9.0934414127841574 17.9519147351384163 37.7787780761718821
  8.9208269119262695  9.0124006271362305 37.7009506225585938
  4.5593438148498535  4.5408396720886230 37.8867874145507812
  4.3674578666687012 13.6729888916015625 37.7150344848632812
 13.5586147308349592  4.5711197853088379 37.8802413940429688
 13.5431098937988263 13.6539993286132812 37.7255821228027415
  0.0000090280000222  0.0000090310004452 44.0429992675781250
 -0.0024502959568053  9.0314083099365234 44.0429992675781250
  9.0304088592529297  0.0000090310004452 44.0429992675781250
  9.0279493331909180  9.0314083099365234 44.0429992675781250
  4.5139703750610352  4.5156903266906738 44.0427513122558594
  4.5115113258361816 13.5470905303955078 44.0427513122558594
 13.5443706512451172  4.5156903266906738 44.0427513122558594
 13.5419111251831037 13.5470905303955078 44.0427513122558594
  0.0000000000000000  0.0000000000000000 50.4472808837890696
 -0.0024593239650130  9.0313997268676740 50.4472808837890696
  9.0304002761840803  0.0000000000000000 50.4472808837890696
  9.0279407501220685  9.0313997268676740 50.4472808837890696
  4.5139703750610352  4.5156998634338379 50.4472808837890696
  4.5115113258361816 13.5470991134643537 50.4472808837890696
 13.5443706512451172  4.5156998634338379 50.4472808837890696
 13.5419111251831055 13.5470991134643537 50.4472808837890696
