 H  C  N  I Pb 
 1.0000000000000000
    18.0608005523681641    0.0000000000000000    0.0000000000000000
    -0.0049186488613486   18.0627994537353516    0.0000000000000000
     0.0000000000000000    0.0000000000000000   62.4874992370605469
 H   C   N   I   Pb 
 143  39  47  72  24
Cartesian
  8.0778121948242188  5.4739212989807129 36.3324775695800781
  8.0422439575195312 15.1207838058471680 36.1159400939941477
 17.0631809234619141  4.7897443771362305 36.5894889831542969
 17.4358539581298828 14.5543956756591797 36.6566772460937500
  5.4236292839050293  0.8088197112083435 36.4091300964355469
  5.5063786506652832 10.0282049179077148 36.4079475402832031
 14.0086660385131836  1.2317880392074585 36.3589553833007884
  1.9164237976074194  3.6480259895324707 34.6436691284179688
  1.5542602539062502 12.2858438491821289 34.8553733825683665
 10.4101305007934570  3.2331783771514893 34.8722915649414134
  9.5204753875732422 11.8673067092895508 35.4120025634765696
  6.4730525016784659  0.6471119523048401 35.0145149230957102
  5.4554715156555176 10.9028272628784180 34.9255485534668040
 15.1895141601562500  1.2114353179931641 35.0848159790039062
  1.3061008453369132  3.7433946132659912 36.2907752990722656
  0.7614917755126981 12.4961147308349609 36.3901786804199219
 10.1358985900878888  4.1849527359008789 36.2360992431640625
  9.0187435150146484 12.8810606002807617 36.7008972167968750
  4.1756391525268555  7.8772759437561026 36.4286346435546875
  3.1793195465579629 17.7377870976924896 36.2609977722168040
 12.3204111317172647 17.4878736138343811 36.3220100402832031
  6.9337759017944336  5.2493448257446289 35.0396194458007884
  8.0811195373535156 15.5415296554565430 34.4328918457031321
 16.2513389587402344  5.1337203979492188 35.0767784118652344
 17.3375015258789062 15.6316480636596680 35.2848739624023438
  3.3848094940185547  7.4472498893737793 34.9422874450683594
  2.8166898945346475 16.9977401494979858 34.7370643615722656
 12.4573902348056436 16.2920054197311401 35.0036659240722656
  8.3439502716064453  3.8058886528015137 33.9210624694824219
  9.0267677307128906 13.5583057403564453 33.7758789062500000
 18.0320434570312500  4.5026907920837402 33.7329406738281250
  0.6911888122558623 14.2471504211425781 33.9881782531738281
  4.1044464111328125  9.3189382553100586 33.8405609130859375
  4.8817152241244912 17.5193602442741394 33.8095130920410156
 14.2592100361362100 17.3662775754928624 34.0807456970214844
  8.1875438690185547  5.5610256195068359 42.2490692138671875
  7.9146080017089835 14.7638378143310547 42.0588645935058594
 17.3191556334495544  5.1563739776611319 42.4536247253418040
 16.9352008104324341 14.5223083496093750 42.1687164306640696
  5.5174055099487305  0.9447861909866333 42.1098709106445384
  5.3389654159545898  9.9957208633422852 42.2852973937988281
 14.5955028533935547  0.9092752337455750 42.2251815795898438
 15.0917510986328125  9.6869392395019531 41.9728126525878906
  1.5157462358474731  3.1012434959411621 40.4107398986816477
  1.6644062995910645 12.4142360687255859 40.9094238281250000
 10.2953062057495117  2.9477999210357666 40.7289237976074219
 10.2683429718017560 12.1050777435302734 41.1434440612792969
  3.3464069366455074  7.4202809333801270 40.5186920166015625
  3.0675048092380166 16.6276555061340332 40.7758064270019531
 11.9074153900146484  8.0841073989868164 40.9790611267089844
 12.0113796452060342 16.8686612844467163 40.6815452575683594
  1.1437938213348389  3.4002752304077144 42.0798530578613281
  0.7949758768081665 12.6680307388305664 42.3795318603515625
 10.0239219665527344  3.6497130393981934 42.2626037597656321
  9.6101722717285156 12.8604679107666016 42.5787849426269531
  3.7404494285583492  7.9171786308288565 42.1319236755371094
  3.6622010925784707 17.2080278396606445 42.3084831237792969
 13.0466136932373029  8.1023569107055664 42.3096160888671875
 12.5642904499545693 17.3557335734367371 42.2555503845214844
  7.4778299331665039  5.8464384078979483 40.7022361755371094
  7.6889219284057608 15.1034946441650391 40.3742485046386719
 16.6477826833725011  5.8097991943359375 40.9768447875976562
 16.7739955186843872 15.1699533462524414 40.5921936035156250
  5.9646520614624023  1.3728269338607788 40.4915313720703125
  5.8415455818176270 10.6283855438232404 40.7319564819336009
 15.1843118667602521  1.3194226026535034 40.6412544250488281
 15.1633806228637678 10.4242715835571289 40.3990020751953125
 17.9825716763734818  4.6021752357482901 39.6101150512695384
  0.4746589958667755 13.9960756301879865 39.6913414001464915
  8.7210340499877930  4.2575197219848633 39.6207771301269531
  9.1604280471801758 13.4625396728515625 39.6727447509765696
  4.4887675503268838 17.9749563485383987 39.5131034851074219
  4.5973587036132812  9.0594682693481445 39.5129241943359375
 13.6495132446289062  0.0359081104397774 39.5417098999023509
 13.2247953414916992  9.5268898010253906 39.6822357177734375
  8.1032123565673828  5.4420318603515616 48.0459518432617259
  8.1007528305053711 14.4734306335449219 48.0459518432617259
 17.1336116790771484  5.4420318603515616 48.0459518432617259
 17.1311531066894531 14.4734306335449219 48.0459518432617259
  5.4410333633422852  0.9265221953392029 48.0449485778808594
  5.4385743141174316  9.9579219818115234 48.0449485778808594
 14.4714326858520490  0.9265221953392029 48.0449485778808594
 14.4689741134643555  9.9579219818115234 48.0449485778808594
  1.4218254089355467  3.0919990539550781 46.4558296203613281
  1.4193661212921143 12.1233978271484375 46.4558296203613281
 10.4522256851196289  3.0919990539550781 46.4558296203613281
 10.4497661590576172 12.1233978271484375 46.4558296203613281
  3.0899283885955806  7.6075901985168457 46.4545211791992188
  3.0874691009521484 16.6389904022216797 46.4545211791992188
 12.1203289031982422  7.6075901985168457 46.4545211791992188
 12.1178693771362305 16.6389904022216797 46.4545211791992188
  0.9247469902038573  3.5893490314483643 48.0459518432617259
  0.9222877025604248 12.6207475662231445 48.0459518432617259
  9.9551477432250977  3.5893490314483643 48.0459518432617259
  9.9526882171630859 12.6207475662231445 48.0459518432617259
  3.5868983268737793  8.1048498153686523 48.0448913574218821
  3.5844390392303462 17.1362495422363281 48.0448913574218821
 12.6172990798950195  8.1048498153686523 48.0448913574218821
 12.6148395538330078 17.1362495422363281 48.0448913574218821
  7.6061611175537109  5.9393639564514160 46.4558296203613281
  7.6037015914916992 14.9707632064819336 46.4558296203613281
 16.6365604400634766  5.9393639564514160 46.4558296203613281
 16.6341018676757812 14.9707632064819336 46.4558296203613281
  5.9380125999450684  1.4238001108169553 46.4545211791992188
  5.9355530738830566 10.4551992416381836 46.4545211791992188
 14.9684123992919904  1.4238001108169553 46.4545211791992188
 14.9659538269042951 10.4551992416381836 46.4545211791992188
 -0.0011664569610730  4.5157265663146973 45.3548011779785156
 -0.0036257810425013 13.5471258163452148 45.3548011779785156
  9.0292339324951172  4.5157265663146973 45.3548011779785156
  9.0267744064331037 13.5471258163452148 45.3548011779785156
  4.5152091979980469  0.0000000000000000 45.3536758422851562
  4.5127501487731934  9.0313997268676740 45.3536758422851562
 13.5456094741821289  0.0000000000000000 45.3536758422851562
 13.5431499481201172  9.0313997268676740 45.3536758422851562
 12.9334955215454084  8.0623273849487305 34.0305290222168040
 13.3330469131469709  9.1258144378662092 32.6754760742187500
 11.6886672973632812  9.7670965194702131 35.0292930603027344
 12.3900995254516602 11.4454517364501953 35.1859092712402415
 15.0592155456542969  9.1590089797973633 36.0181083679199219
 13.9291315078735352 10.3462352752685547 36.6704940795898438
 15.6194620132446289 10.0979576110839844 33.7119102478027415
 14.4830865859985352 11.1794643402099609 33.0211181640625000
 15.6884994506835920  8.6895837783813477 32.7182960510253906
 15.6058216094970703  8.0115098953247070 34.3309211730957031
 15.9867362976074219  6.3043565750122070 32.7806205749511719
 14.4058380126953125  6.0117864608764640 33.4732131958007812
 11.1917953491210920  9.8742923736572266 32.8402862548828125
 12.4402389526367170 11.1161718368530273 32.3936882019042969
 10.9676074981689453 11.5718259811401367 33.2676200866699290
 13.3694686889648438  8.1343975067138672 37.5368385314941406
 13.3892116546630859  7.3609743118286133 35.9788970947265625
 12.0804853439331055  8.4927940368652344 36.3949623107910227
 15.0500955581665039 12.2600145339965820 35.6600189208984446
 15.8176498413085938 12.6981410980224609 34.1131134033203125
 16.5466136932373047 11.4647979736328125 35.1512527465820312
 15.0334672927856445  7.2005815505981445 30.7361583709716797
 14.4587898254394531  5.5851764678955078 31.0921592712402344
 12.0975952148437500  5.6865010261535645 32.6185226440429759
 13.5050077438354492  8.7231216430664062 29.8812351226806676
  9.7855911254882795  6.6020064353942871 32.4217720031738352
 11.1938533782958984  9.6252288818359375 29.7047500610351598
  9.3170585632324219  8.5843286514282227 31.0400199890136719
  0.0427017211914058  4.4105153083801270 34.8030853271484375
  0.4163742065429695 13.9684696197509748 34.9947013854980540
  8.6634645462036133  4.2240839004516602 34.8756103515625000
  8.8490562438964844 13.7189979553222656 34.8418464660644531
  4.4068565368652344  9.1838474273681641 34.8794479370117188
  4.6465372303500772 17.8436569273471832 34.8239021301269531
 13.8250393131747824 17.7881563901901245 34.9875679016113281
  0.0509191825985909  4.4577226638793945 40.6831474304199290
  0.2119238972663879 13.7891407012939453 40.7252120971679688
  8.8813009262084961  4.3951992988586426 40.6925086975097656
  8.9958248138427734 13.6053485870361328 40.7332077026367259
  4.6008267402648926  9.0297441482543945 40.5981712341308594
  4.5019630650058389 18.0244767591357231 40.6062622070312500
 13.5548639297485352  9.2692670822143555 40.6619911193847656
 13.5942268371582031  0.0558663643896580 40.6345863342285227
  9.0289716720581055  4.5156092643737793 46.4455223083496165
  9.0265130996704102 13.5470085144042969 46.4455223083496165
 18.0593719482421875  4.5156092643737793 46.4455223083496165
 18.0569133758544922 13.5470085144042969 46.4455223083496165
  4.5152091979980469  0.0000180629995157 46.4442062377929759
  4.5127501487731934  9.0314178466796857 46.4442062377929759
 13.5456094741821289  0.0000180629995157 46.4442062377929759
 13.5431499481201172  9.0314178466796857 46.4442062377929759
 12.9708366394042969  7.1349811553955078 31.2655181884765661
 11.8921670913696289  6.5490221977233887 31.9659309387207067
 12.6816415786743146  8.2299566268920898 30.4298324584960973
 10.5943622589111328  7.0616378784179688 31.8547592163085973
 11.3759841918945312  8.7587347030639648 30.3373756408691406
 10.3207111358642578  8.1599445343017578 31.0600605010986328
 13.6928606033325178  8.7422676086425781 33.6268424987792969
 12.3364858627319336 10.5279541015625000 34.5620269775390696
 14.0228900909423828  9.4819021224975586 35.9895248413085938
 14.8460884094238281 10.8033256530761719 33.9861907958984375
 15.0562038421630859  8.0824956893920898 33.3909034729003906
 14.9607830047607404  6.6781158447265625 32.7975234985351562
 11.7219982147216797 10.7814865112304688 33.1837348937988352
 13.1539039611816406  8.3178310394287109 36.4767494201660156
 15.5750045776367188 11.8567466735839844 34.7856369018554759
 14.3695640563964826  6.6369671821594238 31.3972816467285192
  1.1420383453369150  3.9080531597137447 35.2828178405761719
  0.9375762939453145 12.8405094146728498 35.4569435119628906
  9.7827196121215820  3.8208935260772701 35.3786087036132884
  9.2055454254150391 12.8037481307983398 35.7060699462890625
  7.8584032058715820  5.0779705047607422 35.4496002197265625
  8.2911930084228516 14.8675518035888672 35.1437530517578125
 17.0829334259033203  4.8061304092407227 35.5595970153808594
 17.6667194366455078 14.7420234680175781 35.6975517272949219
  3.9592919349670406  8.0768098831176758 35.4365997314453196
  3.4754852512851357 17.5050042867660522 35.2954139709472656
 12.7705635288730264 17.1570992469787598 35.4542884826660156
  5.5798373222351074  0.4672405719757080 35.4469680786132884
  5.1535754203796387 10.0939292907714844 35.4372406005859375
 14.4039011001586914  0.7674167156219481 35.5213584899902344
  0.9479023218154906  3.6183938980102539 41.0897636413574219
  0.9107162952423096 12.9123477935791016 41.3828201293945312
  9.7737636566162109  3.6474888324737544 41.2670631408691477
  9.6660327911376953 12.7987594604492188 41.5333595275878977
  3.8625996112823486  8.0611867904663086 41.1240768432617188
  3.6891628960147496 17.2376309633255005 41.2807655334472656
 12.8010654449462891  8.4278259277343750 41.3574943542480469
 12.6639198521152139 17.3970050811767578 41.2365303039550781
  8.1432981491088867  5.3225483894348145 41.2660636901855469
  8.1501140594482422 14.5436382293701172 41.0892524719238281
 17.2938421368598974  5.1996889114379874 41.4446258544921875
 17.2697762250900304 14.5064535140991211 41.1909637451171875
  5.3828263282775870  0.8080655336380005 41.1118202209472656
  5.2670369148254395  9.9124431610107422 41.2612228393554759
 14.5137710571289062  0.8040079474449158 41.2141571044921875
 14.6855545043945312  9.8188695907592773 41.0506286621093750
  0.8273094892501831  3.6869695186614990 47.0359649658203125
  0.8248501420021057 12.7183685302734375 47.0359649658203125
  9.8577098846435547  3.6869695186614990 47.0359649658203125
  9.8552503585815412 12.7183685302734375 47.0359649658203125
  3.6843190193176270  8.2023353576660156 47.0346527099609375
  3.6818594932556152 17.2337341308593750 47.0346527099609375
 12.7147188186645508  8.2023353576660156 47.0346527099609375
 12.7122592926025391 17.2337341308593750 47.0346527099609375
  8.2006769180297852  5.3445744514465332 47.0360260009765696
  8.1982173919677734 14.3759746551513672 47.0360260009765696
 17.2310771942138672  5.3445744514465332 47.0360260009765696
 17.2286186218261719 14.3759746551513672 47.0360260009765696
  5.3436489105224600  0.8290914893150328 47.0346527099609375
  5.3411893844604483  9.8604917526245117 47.0346527099609375
 14.3740482330322266  0.8290914893150328 47.0346527099609375
 14.3715896606445312  9.8604917526245117 47.0346527099609375
 13.7661170959472656  9.9130229949951172 34.5654792785644602
  8.8094644546508789  0.2797360122203827 34.4651908874511719
  8.7120723724365234  9.3634328842163086 34.7655296325683594
 17.8327797651290929  0.1170687824487686 34.5419769287109375
  0.5428932905197144  9.1455430984497070 34.7099761962890625
  4.5134696960449219  4.4825882911682129 34.4713668823242259
  4.5568628311157227 13.5702934265136719 34.5452690124511719
 13.3127088546752930  3.9418928623199463 34.9449462890625000
 12.9759893417358398 14.1332788467407227 34.1209831237793040
  0.0350699238479137  0.0808385461568832 40.9147491455078196
  0.2935856580734253  8.9777021408081055 41.0040397644042969
  9.0003189304843545 18.0104660540819168 40.8812904357910227
  9.0338821411132812  8.8458547592163086 40.9572029113769531
  4.5867180824279785  4.4182958602905273 40.8308258056640625
  4.6046738624572754 13.6251516342163086 40.9244995117187571
 13.3629665374755859  4.6236581802368164 41.0393333435058594
 13.6578426361083984 13.6188459396362287 40.8664703369140625
  2.5974862575531006  1.9522255659103394 37.9669189453125071
  2.6456546783447266 11.0479145050048828 38.1056976318359375
 11.6362171173095703  1.8896943330764768 38.1189270019531250
 11.1791429519653320 11.4279394149780273 38.4481506347656321
  6.4015016555786133  7.0950198173522949 37.9833946228027415
  6.6123809814453116 16.0549869537353516 37.9712524414062500
 15.8973779678344709  6.7247185707092285 38.3443984985351562
 15.5380640029907227 16.1709232330322266 38.0805130004882884
  2.0641322135925293  6.4006958007812491 37.9922332763671875
  2.0791060924530029 15.6734180450439435 38.0591506958007812
 10.6105937957763672  6.1666879653930664 38.0354347229003977
 10.9941387176513672 15.5933952331542969 38.0930862426757812
  7.0170297622680664  2.5527873039245605 38.0852890014648438
  6.9205255508422852 11.4965124130249023 38.2961235046386719
 15.9819612503051740  2.4969649314880371 38.2919502258300852
 16.5293502807617188 11.7502403259277344 38.5065040588378977
  0.0000000000000000  0.0000000000000000 47.1735610961914062
 -0.0024593239650130  9.0313997268676740 47.1735610961914062
  9.0304002761840803  0.0000000000000000 47.1735610961914062
  9.0279407501220685  9.0313997268676740 47.1735610961914062
  4.5139794349670410  4.5156998634338379 47.1742515563964844
  4.5115203857421875 13.5470991134643537 47.1742515563964844
 13.5443792343139648  4.5156998634338379 47.1742515563964844
 13.5419197082519531 13.5470991134643537 47.1742515563964844
  2.4519233703613277  2.0629522800445557 44.0401268005371165
  2.4494640827178955 11.0943517684936523 44.0401268005371165
 11.4823226928710920  2.0629522800445557 44.0401268005371165
 11.4798641204833984 11.0943517684936523 44.0401268005371165
  6.5760178565979004  6.9684472084045410 44.0401268005371165
  6.5735583305358887 15.9998464584350586 44.0401268005371165
 15.6064186096191406  6.9684472084045410 44.0401268005371165
 15.6039590835571289 15.9998464584350586 44.0401268005371165
  2.0610768795013428  6.5788145065307617 44.0400009155273509
  2.0586175918579102 15.6102142333984375 44.0400009155273509
 11.0914773941040039  6.5788145065307617 44.0400009155273509
 11.0890178680419922 15.6102142333984375 44.0400009155273509
  6.9668641090393066  2.4525938034057613 44.0400657653808665
  6.9644045829772949 11.4839935302734375 44.0400657653808665
 15.9972639083862305  2.4525938034057613 44.0400657653808665
 15.9948053359985352 11.4839935302734375 44.0400657653808665
  2.4316265583038330  2.0832188129425049 50.0684852600097656
  2.4291670322418213 11.1146183013915998 50.0684852600097656
 11.4620265960693359  2.0832188129425049 50.0684852600097656
 11.4595670700073224 11.1146183013915998 50.0684852600097656
  6.5963144302368164  6.9481806755065918 50.0684852600097656
  6.5938549041748047 15.9795799255371076 50.0684852600097656
 15.6267137527465803  6.9481806755065918 50.0684852600097656
 15.6242542266845703 15.9795799255371076 50.0684852600097656
  2.0811281204223633  6.5990090370178223 50.0690460205078125
  2.0786688327789307 15.6304082870483398 50.0690460205078125
 11.1115283966064453  6.5990090370178223 50.0690460205078125
 11.1090688705444336 15.6304082870483398 50.0690460205078125
  6.9468131065368652  2.4323906898498531 50.0690460205078125
  6.9443535804748535 11.4637899398803711 50.0690460205078125
 15.9772129058837891  2.4323906898498531 50.0690460205078125
 15.9747543334960938 11.4637899398803711 50.0690460205078125
 17.9739360809326172  0.0958615839481354 37.7539978027343750
  0.1310017555952072  9.0717840194702131 37.8347740173339844
  9.0397825241088867  0.1246390268206596 37.6986618041992259
  8.9897556304931641  9.0486297607421857 37.7747001647949219
  4.5043134689331055  4.4702320098876953 37.6748046875000000
  4.5592665672302246 13.5921421051025391 37.6827278137207031
 13.4680061340332031  4.5611052513122559 37.9536132812500000
 13.4042911529541016 13.7369852066040039 37.7331733703613281
  0.0000090280000222  0.0000090310004452 44.0429992675781250
 -0.0024502959568053  9.0314083099365234 44.0429992675781250
  9.0304088592529297  0.0000090310004452 44.0429992675781250
  9.0279493331909180  9.0314083099365234 44.0429992675781250
  4.5139703750610352  4.5156903266906738 44.0427513122558594
  4.5115113258361816 13.5470905303955078 44.0427513122558594
 13.5443706512451172  4.5156903266906738 44.0427513122558594
 13.5419111251831037 13.5470905303955078 44.0427513122558594
  0.0000000000000000  0.0000000000000000 50.4472808837890696
 -0.0024593239650130  9.0313997268676740 50.4472808837890696
  9.0304002761840803  0.0000000000000000 50.4472808837890696
  9.0279407501220685  9.0313997268676740 50.4472808837890696
  4.5139703750610352  4.5156998634338379 50.4472808837890696
  4.5115113258361816 13.5470991134643537 50.4472808837890696
 13.5443706512451172  4.5156998634338379 50.4472808837890696
 13.5419111251831055 13.5470991134643537 50.4472808837890696
