 H  C  N  I Pb 
 1.0000000000000000
    18.0608005523681641    0.0000000000000000    0.0000000000000000
    -0.0049186488613486   18.0627994537353516    0.0000000000000000
     0.0000000000000000    0.0000000000000000   62.4874992370605469
 H   C   N   I   Pb 
 143  39  47  72  24
Cartesian
  7.3005948066711426  5.1375327110290527 34.9132804870605469
  7.5482826232910156 12.6160717010498029 35.6619148254394531
 16.6611099243164062  5.2836837768554688 36.1330108642578125
 16.6641693115234375 14.6792287826538086 35.8114509582519531
  5.7687535285949707  1.6503646373748779 35.0937805175781321
  5.9198060035705566 10.2269582748413086 35.3694000244140625
 14.2867689132690430  1.9321423768997192 35.1844635009765625
  1.9340839385986361  4.3357229232788086 35.0683174133300781
  1.4146041870117172 12.3906259536743164 35.5136451721191406
 10.4683141708374023  3.3495006561279297 35.2922668457031250
 10.8232898712158185 14.0030431747436523 34.9941291809082102
  6.8699870109558105  0.3627431392669678 34.6582107543945384
  4.6548972129821777 11.1900796890258789 34.6521530151367188
 15.7421646118164045  1.0279067754745483 34.7760429382324219
  1.0942134857177734  5.2548370361328125 36.2913436889648438
 17.9047012329101562 12.5281562805175763 36.2705268859863352
  8.7546396255493164  3.1144187450408936 35.5491218566894531
 10.0145053863525391 12.7301330566406232 35.8594398498535156
  5.4536437988281250  7.8089332580566406 35.7075881958007812
  3.4025917053222652  1.0561789274215698 35.5059242248535227
 12.2908620834350586  0.4921705722808838 35.8215408325195312
  8.2109737396240234  6.6080021858215332 34.6026687622070312
  6.7601976394653320 13.7309274673461914 34.5922317504882812
 15.9395189285278320  4.4272994995117188 34.7969894409179688
 17.4601955413818359 15.7956695556640607 34.7420501708984375
  4.0012502670288086  7.1901879310607910 35.0014495849609375
  2.9318823078647256 17.4891908168792725 35.1671142578125000
 12.4687465885654092 16.8537197113037109 35.4465026855468750
 10.2614297866821289  5.5446872711181641 34.6841278076171875
  8.8127832412719727 14.7933397293090820 34.0462799072265625
 18.0297164916992188  3.6901438236236572 33.9997329711914062
  1.2091770172119136 14.3911724090576172 34.3711013793945384
  3.2824754714965820  9.3085956573486328 34.2934036254882812
  5.1073436001315704 16.8291711807250977 34.6138763427734446
 14.6538414219394308 17.0442643165588379 34.8119506835937500
  8.2426528930664062  5.4882860183715820 42.0573081970214915
  7.9138021469116211 14.7022047042846680 41.9013175964355469
 17.2525136470794678  5.1111726760864258 42.2508850097656250
 16.4366165399551392 13.5186901092529279 41.1604156494140625
  5.3216090202331543  0.7733748555183411 42.1717948913574219
  5.4503550529479972 10.1646337509155256 42.0129089355468750
 14.4318466186523438  0.9619414806365967 42.1152343750000000
 15.0599393844604492  8.4275112152099609 41.4750022888183665
  1.6264194250106812  3.0746202468872070 40.4200439453125000
  1.9153567552566528 12.5977306365966797 40.9616432189941477
 10.3894596099853516  3.0273642539978027 40.4006652832031250
 10.4080171585082990 12.2842617034912109 40.6987457275390625
  3.3406281471252441  7.4496288299560547 40.7251548767089844
  2.9380485275760293 16.8430775403976440 40.2162017822265625
 11.4580755233764648  8.7167520523071289 41.0103645324707031
 12.1388668278232217 16.5613676309585571 40.6115264892578196
  1.1337780952453611  3.3974730968475342 42.0592880249023509
  0.3436431288719177 11.8526506423950195 41.0447616577148438
  9.9312353134155256  3.5458014011383052 42.0008506774902415
  9.8376388549804688 12.9676084518432617 42.1906471252441406
  3.8274607658386230  8.1636562347412109 42.2413558959960938
  3.2987441280856724 17.2545639276504552 41.8782920837402344
 12.6545724868774414  7.6974186897277832 41.7582206726074290
 12.6927284458652139 17.0974696874618530 42.1879615783691477
  7.7938532829284668  6.0997810363769531 40.4949913024902415
  7.4593915939331055 14.9746007919311523 40.2399063110351562
 16.6796462535858190  5.7112402915954590 40.7090606689453125
 16.9074711799621582 15.1954441070556641 41.0156097412109375
  6.1663432121276855  1.1575444936752319 40.7098236083984375
  5.8320856094360352 10.5899820327758771 40.3674697875976634
 14.8285684585571289  1.4925658702850342 40.4988670349121165
 15.3353576660156232  9.8086910247802734 40.4674453735351562
  0.0999069213867188  4.4922919273376465 39.4751052856445384
  1.0957518815994263 14.7499704360961914 40.8709068298339915
  9.1056623458862305  4.6085748672485352 39.3268852233886790
  8.9472961425781250 13.4561605453491211 39.3794631958007884
  4.6969346264377227 18.0343343876302242 39.3466377258300852
  4.5569748878478995  8.9205331802368164 39.4427375793457031
 13.4391073444858193 18.0606470583006740 39.4589538574218750
 13.0510816574096680 10.1452856063842773 40.0802345275878977
  8.1032123565673828  5.4420318603515616 48.0459518432617259
  8.1007528305053711 14.4734306335449219 48.0459518432617259
 17.1336116790771484  5.4420318603515616 48.0459518432617259
 17.1311531066894531 14.4734306335449219 48.0459518432617259
  5.4410333633422852  0.9265221953392029 48.0449485778808594
  5.4385743141174316  9.9579219818115234 48.0449485778808594
 14.4714326858520490  0.9265221953392029 48.0449485778808594
 14.4689741134643555  9.9579219818115234 48.0449485778808594
  1.4218254089355467  3.0919990539550781 46.4558296203613281
  1.4193661212921143 12.1233978271484375 46.4558296203613281
 10.4522256851196289  3.0919990539550781 46.4558296203613281
 10.4497661590576172 12.1233978271484375 46.4558296203613281
  3.0899283885955806  7.6075901985168457 46.4545211791992188
  3.0874691009521484 16.6389904022216797 46.4545211791992188
 12.1203289031982422  7.6075901985168457 46.4545211791992188
 12.1178693771362305 16.6389904022216797 46.4545211791992188
  0.9247469902038573  3.5893490314483643 48.0459518432617259
  0.9222877025604248 12.6207475662231445 48.0459518432617259
  9.9551477432250977  3.5893490314483643 48.0459518432617259
  9.9526882171630859 12.6207475662231445 48.0459518432617259
  3.5868983268737793  8.1048498153686523 48.0448913574218821
  3.5844390392303462 17.1362495422363281 48.0448913574218821
 12.6172990798950195  8.1048498153686523 48.0448913574218821
 12.6148395538330078 17.1362495422363281 48.0448913574218821
  7.6061611175537109  5.9393639564514160 46.4558296203613281
  7.6037015914916992 14.9707632064819336 46.4558296203613281
 16.6365604400634766  5.9393639564514160 46.4558296203613281
 16.6341018676757812 14.9707632064819336 46.4558296203613281
  5.9380125999450684  1.4238001108169553 46.4545211791992188
  5.9355530738830566 10.4551992416381836 46.4545211791992188
 14.9684123992919904  1.4238001108169553 46.4545211791992188
 14.9659538269042951 10.4551992416381836 46.4545211791992188
 -0.0011664569610730  4.5157265663146973 45.3548011779785156
 -0.0036257810425013 13.5471258163452148 45.3548011779785156
  9.0292339324951172  4.5157265663146973 45.3548011779785156
  9.0267744064331037 13.5471258163452148 45.3548011779785156
  4.5152091979980469  0.0000000000000000 45.3536758422851562
  4.5127501487731934  9.0313997268676740 45.3536758422851562
 13.5456094741821289  0.0000000000000000 45.3536758422851562
 13.5431499481201172  9.0313997268676740 45.3536758422851562
 14.4674301147460938  9.1557989120483398 32.0547676086425852
 15.8664913177490234  9.0191316604614258 33.1547241210937571
 13.6649026870727539 11.1417713165283203 33.2142181396484446
 13.5512838363647443 11.1239786148071289 34.9673347473144602
 12.3850173950195312  7.8798732757568359 34.1980934143066477
 11.9832344055175781  9.5298900604248047 34.6714668273925781
 14.3313722610473615  7.5568313598632812 35.2989234924316406
 15.5592098236083984  8.8342695236206055 35.4790077209472656
 15.5473480224609375  6.7385554313659668 33.5526962280273438
 13.8468675613403320  6.7344093322753906 33.1126213073730540
 14.2862930297851562  6.9425182342529288 30.7771511077880859
 15.9633731842040998  7.3935923576354980 31.0236606597900426
 16.1715850830078125 11.0598125457763672 33.3138122558593750
 16.1086215972900391 10.9347343444824219 35.0879135131835938
 15.4908561706542969 12.3823356628417969 34.2721786499023438
 10.8713264465332013  9.0428237915039062 32.6008033752441406
 12.3652210235595703  8.5289535522460938 31.7758750915527379
 12.1014547348022461 10.2418193817138672 32.2131233215332031
 12.6806774139404297  8.9057884216308594 36.6086959838867259
 13.8791637420654297 10.2171459197998047 36.8067893981933665
 14.1724901199340803  8.6219825744628906 37.4970283508300781
 14.9062957763671875  4.6581163406372070 31.9124565124511719
 15.3741464614868146  4.9468407630920410 30.2448329925537109
 16.7219676971435547  2.8354067802429199 31.2190303802490234
 17.6685428619384766  6.9478001594543457 32.1147727966308594
  1.0232295989990268  2.2137126922607422 31.6017456054687500
  1.9500026702880897  6.3275036811828604 32.4940338134765625
  2.7035064697265629  3.9740085601806641 32.1972694396972656
 17.9744243621826172  4.3242025375366211 34.8815536499023438
  0.3898906707763680 14.0583200454711914 35.0124206542968750
  9.3553438186645508  4.9699788093566895 34.8842391967773509
  8.8059291839599609 13.9149770736694336 34.6979789733886719
  4.2704625129699707  9.1949243545532227 34.7495994567871094
  4.9078745106235138 17.8731858432292938 34.8607826232910156
 14.1073908070102334 17.9478087425231934 35.0792541503906250
  0.1244256496429443  4.3933582305908203 40.5604896545410156
  0.3971045017242432 13.9118499755859375 40.9590644836425852
  9.0991754531860352  4.5640597343444824 40.4219741821289062
  8.9177503585815430 13.6106271743774396 40.4612541198730469
  4.5868563652038574  9.0148572921752930 40.5303764343261719
  4.5386103847995400 18.0481473095715046 40.4307937622070384
 13.3803958892822266  9.2976417541503906 40.6876373291015625
 13.4819196918979287 18.0559561410918832 40.5498657226562571
  9.0289716720581055  4.5156092643737793 46.4455223083496165
  9.0265130996704102 13.5470085144042969 46.4455223083496165
 18.0593719482421875  4.5156092643737793 46.4455223083496165
 18.0569133758544922 13.5470085144042969 46.4455223083496165
  4.5152091979980469  0.0000180629995157 46.4442062377929759
  4.5127501487731934  9.0314178466796857 46.4442062377929759
 13.5456094741821289  0.0000180629995157 46.4442062377929759
 13.5431499481201172  9.0314178466796857 46.4442062377929759
 17.0167274475097656  4.9382109642028809 31.5965270996093750
 17.4430999755859375  3.6095113754272456 31.4885215759277344
 17.9628295898437500  5.9066720008850098 31.9759483337402379
  0.7214965820312520  3.2567543983459473 31.6956634521484411
  1.2385501861572263  5.5583410263061523 32.1885414123535227
  1.6571712493896504  4.2345046997070312 32.0383071899414134
 14.8365983963012678  8.6847295761108398 32.9762611389160156
 14.1533794403076172 10.7706489562988281 34.1224632263183594
 12.5196981430053711  8.9350805282592773 33.9214096069335938
 14.4778614044189453  8.6393165588378906 35.4210777282714844
 14.8194684982299805  7.1682343482971191 32.8518524169921875
 15.1642475128173828  6.7520503997802734 31.4160823822021520
 15.5724906921386701 11.2899570465087891 34.2009773254394531
 11.9577112197875977  9.2028541564941406 32.5401840209960938
 13.7450361251831037  9.1464195251464844 36.6340293884277344
 15.5652160644531250  5.2760739326477051 31.2787418365478516
  1.0412158966064493  4.6383461952209473 35.4717102050781250
  0.5254611968994127 12.8884801864624023 35.5862426757812500
  9.5163116455078107  3.7016072273254390 35.1902427673339844
  9.9463577270507812 13.5039768218994141 35.1931419372558665
  8.2060413360595703  5.5936880111694336 34.7724494934082031
  7.6422338485717773 13.3489809036254883 34.9453926086425781
 16.7886390686035156  4.7105474472045898 35.2898216247558594
 17.3978805541992188 14.8373355865478516 35.1147193908691477
  4.6190705299377441  7.9870796203613281 35.1380577087402344
  3.6776394844055176  0.1241008639335632 35.1739425659179688
 12.8565782764926553 17.7974446415901220 35.4396018981933594
  5.9009361267089844  0.6696775555610657 34.8204154968261719
  5.0153660774230957 10.2600069046020508 34.8979644775390696
 14.7464084625244141  1.0282247066497803 35.0144958496093750
  1.0094535350799561  3.5683531761169429 41.0601615905761719
  0.9007655382156372 12.7063875198364258 40.9905815124511719
  9.8578014373779297  3.6624801158905025 40.9917716979980469
  9.7669982910156250 12.9128847122192383 41.1833343505859375
  3.8878889083862305  8.1551799774169922 41.2263259887695384
  3.5268687466159463 17.3446968197822571 40.8876686096191477
 12.4514389038085938  8.5077495574951172 41.1722679138183594
 12.7391990879550558 17.1778805255889893 41.1726074218750071
  8.3354854583740234  5.4340434074401855 41.0454444885253906
  8.0376291275024414 14.4710445404052734 40.9151878356933594
 17.3267722129821777  5.1198329925537109 41.2351341247558594
 17.1812187433242798 14.2126674652099609 41.0303993225097727
  5.3784718513488770  0.6938301324844359 41.1560363769531321
  5.3286576271057129  9.9857931137084961 41.0205993652343821
 14.2857599258422852  0.8767762184143066 41.1138954162597656
 14.6727571487426758  9.1582803726196289 40.8801612854003906
  0.8273094892501831  3.6869695186614990 47.0359649658203125
  0.8248501420021057 12.7183685302734375 47.0359649658203125
  9.8577098846435547  3.6869695186614990 47.0359649658203125
  9.8552503585815412 12.7183685302734375 47.0359649658203125
  3.6843190193176270  8.2023353576660156 47.0346527099609375
  3.6818594932556152 17.2337341308593750 47.0346527099609375
 12.7147188186645508  8.2023353576660156 47.0346527099609375
 12.7122592926025391 17.2337341308593750 47.0346527099609375
  8.2006769180297852  5.3445744514465332 47.0360260009765696
  8.1982173919677734 14.3759746551513672 47.0360260009765696
 17.2310771942138672  5.3445744514465332 47.0360260009765696
 17.2286186218261719 14.3759746551513672 47.0360260009765696
  5.3436489105224600  0.8290914893150328 47.0346527099609375
  5.3411893844604483  9.8604917526245117 47.0346527099609375
 14.3740482330322266  0.8290914893150328 47.0346527099609375
 14.3715896606445312  9.8604917526245117 47.0346527099609375
 14.0023326873779297  9.2561473846435529 34.1036453247070312
  9.3022379139438272 17.7850244641304052 34.5732841491699219
  8.5744428634643555  9.1892099380493164 34.5555877685546875
  0.0890071168541908  0.2416098862886429 34.4851837158203125
  0.5157946348190308  8.7245035171508789 34.6047668457031250
  4.6794333457946768  4.2606415748596191 34.6094169616699219
  4.1223449707031250 13.7983274459838867 34.4242935180664062
 13.2275295257568359  4.2333555221557617 34.6318321228027344
 13.3308801651000977 14.3420076370239258 34.5895729064941406
 17.9668659130111337 17.8385471999645233 40.8906364440917969
  0.1561384648084641  9.1162204742431641 40.9211578369140696
  8.9753370285034180  0.0710876584053040 40.9007453918457031
  8.9484672546386719  9.1707582473754865 40.8837280273437571
  4.7228899002075186  4.3789105415344238 40.9247016906738352
  4.4179439544677734 13.6218233108520508 40.8454437255859375
 13.4640073776245117  4.9177265167236328 40.9360618591308594
 13.6066017150878906 13.2695560455322266 40.8696022033691406
  2.4511594772338867  2.1120948791503906 37.9872779846191406
  2.6439354419708252 10.9929609298706055 37.8263854980468750
 11.4870643615722656  2.0871536731719971 37.9690971374511719
 11.1848173141479492 11.4171237945556623 37.8730812072753906
  6.6497702598571777  6.9404120445251456 37.9515724182128906
  6.5862140655517578 15.9606561660766602 37.7577171325683594
 16.0490856170654297  6.6587271690368652 38.1486663818359375
 15.5575485229492188 16.1021938323974609 37.9289703369140625
  2.2646601200103760  6.6170897483825684 38.1964988708496094
  2.0620672702789307 15.7731075286865217 37.8133888244628906
 11.0127801895141584  6.5821108818054199 37.6452102661132884
 11.1760673522949219 15.6246204376220685 38.2435493469238352
  7.1210021972656250  2.4509768486022949 37.7477302551269531
  6.8574385643005371 11.4758768081665021 37.9066352844238281
 15.9089908599853516  2.4653983116149902 38.2542037963867188
 16.2801151275634766 11.6590356826782209 38.0642700195312500
  0.0000000000000000  0.0000000000000000 47.1735610961914062
 -0.0024593239650130  9.0313997268676740 47.1735610961914062
  9.0304002761840803  0.0000000000000000 47.1735610961914062
  9.0279407501220685  9.0313997268676740 47.1735610961914062
  4.5139794349670410  4.5156998634338379 47.1742515563964844
  4.5115203857421875 13.5470991134643537 47.1742515563964844
 13.5443792343139648  4.5156998634338379 47.1742515563964844
 13.5419197082519531 13.5470991134643537 47.1742515563964844
  2.4519233703613277  2.0629522800445557 44.0401268005371165
  2.4494640827178955 11.0943517684936523 44.0401268005371165
 11.4823226928710920  2.0629522800445557 44.0401268005371165
 11.4798641204833984 11.0943517684936523 44.0401268005371165
  6.5760178565979004  6.9684472084045410 44.0401268005371165
  6.5735583305358887 15.9998464584350586 44.0401268005371165
 15.6064186096191406  6.9684472084045410 44.0401268005371165
 15.6039590835571289 15.9998464584350586 44.0401268005371165
  2.0610768795013428  6.5788145065307617 44.0400009155273509
  2.0586175918579102 15.6102142333984375 44.0400009155273509
 11.0914773941040039  6.5788145065307617 44.0400009155273509
 11.0890178680419922 15.6102142333984375 44.0400009155273509
  6.9668641090393066  2.4525938034057613 44.0400657653808665
  6.9644045829772949 11.4839935302734375 44.0400657653808665
 15.9972639083862305  2.4525938034057613 44.0400657653808665
 15.9948053359985352 11.4839935302734375 44.0400657653808665
  2.4316265583038330  2.0832188129425049 50.0684852600097656
  2.4291670322418213 11.1146183013915998 50.0684852600097656
 11.4620265960693359  2.0832188129425049 50.0684852600097656
 11.4595670700073224 11.1146183013915998 50.0684852600097656
  6.5963144302368164  6.9481806755065918 50.0684852600097656
  6.5938549041748047 15.9795799255371076 50.0684852600097656
 15.6267137527465803  6.9481806755065918 50.0684852600097656
 15.6242542266845703 15.9795799255371076 50.0684852600097656
  2.0811281204223633  6.5990090370178223 50.0690460205078125
  2.0786688327789307 15.6304082870483398 50.0690460205078125
 11.1115283966064453  6.5990090370178223 50.0690460205078125
 11.1090688705444336 15.6304082870483398 50.0690460205078125
  6.9468131065368652  2.4323906898498531 50.0690460205078125
  6.9443535804748535 11.4637899398803711 50.0690460205078125
 15.9772129058837891  2.4323906898498531 50.0690460205078125
 15.9747543334960938 11.4637899398803711 50.0690460205078125
 17.9848791286349297  0.1322342157363892 37.7443733215332031
  0.1879947930574417  9.0254611968994141 37.7035064697265625
  9.0557426670566201 17.9265363514423370 37.7269477844238281
  9.0254631042480469  9.0603208541870117 37.6789665222167969
  4.6306962966918936  4.4523048400878906 37.8276405334472656
  4.3762502670288086 13.6388797760009766 37.6795845031738281
 13.4866657257080060  4.5769658088684082 37.8399429321289062
 13.5989255905151367 13.6656618118286133 37.7266044616699219
  0.0000090280000222  0.0000090310004452 44.0429992675781250
 -0.0024502959568053  9.0314083099365234 44.0429992675781250
  9.0304088592529297  0.0000090310004452 44.0429992675781250
  9.0279493331909180  9.0314083099365234 44.0429992675781250
  4.5139703750610352  4.5156903266906738 44.0427513122558594
  4.5115113258361816 13.5470905303955078 44.0427513122558594
 13.5443706512451172  4.5156903266906738 44.0427513122558594
 13.5419111251831037 13.5470905303955078 44.0427513122558594
  0.0000000000000000  0.0000000000000000 50.4472808837890696
 -0.0024593239650130  9.0313997268676740 50.4472808837890696
  9.0304002761840803  0.0000000000000000 50.4472808837890696
  9.0279407501220685  9.0313997268676740 50.4472808837890696
  4.5139703750610352  4.5156998634338379 50.4472808837890696
  4.5115113258361816 13.5470991134643537 50.4472808837890696
 13.5443706512451172  4.5156998634338379 50.4472808837890696
 13.5419111251831055 13.5470991134643537 50.4472808837890696
