 H  C  N  I Pb 
 1.0000000000000000
    18.0608005523681641    0.0000000000000000    0.0000000000000000
    -0.0049186488613486   18.0627994537353516    0.0000000000000000
     0.0000000000000000    0.0000000000000000   62.4874992370605469
 H   C   N   I   Pb 
 143  39  47  72  24
Cartesian
  7.6018891334533683  4.6317052841186515 35.9913673400878906
  7.4023876190185547 13.0045042037963867 35.8991241455078196
 16.6366710662841797  5.0750675201416016 36.3034439086914062
 16.9553585052490234 14.7312202453613281 36.0095748901367188
  5.7330198287963867  1.3590363264083862 35.8176116943359446
  5.5720729827880859 10.4961004257202148 35.7809600830078125
 14.4326362609863281  1.4355161190032959 36.0604324340820312
  1.9614162445068357  4.0953660011291504 35.3193931579589844
  1.4555301666259746 12.1709403991699219 35.5863227844238281
 11.0200710296630859  3.6229372024536133 35.3286170959472656
 10.8680124282836896 13.4129686355590820 35.0483131408691406
  6.7608690261840820  0.2254870831966400 34.9508590698242259
  4.5770854949951172 11.2396421432495117 34.5348625183105469
 15.7594709396362305  0.6099355220794678 35.2374382019042969
  1.0802421569824205  5.0276012420654297 36.5050048828125000
 18.0227661132812500 12.4766750335693359 36.4374160766601562
  9.5258255004882812  3.1246809959411621 36.1606712341308665
  9.8120679855346680 12.4417362213134766 36.0709342956542969
  5.2794547080993652  8.0557174682617188 36.1863365173339844
  3.2849836349487305  0.9280431270599365 35.7277641296386719
 12.2147426605224592  0.3955175578594207 35.8845748901367188
  7.8611335754394531  6.1501927375793457 35.0838584899902344
  6.9508738517761222 14.2996454238891602 34.8018989562988281
 15.9434289932250977  4.1565546989440918 35.0044975280761790
 17.7969398498535156 15.7690124511718732 34.9081192016601562
  4.0057444572448730  7.2835350036621094 35.2840766906738281
  2.7435085037723184 17.6833098232746124 34.7136001586914062
 12.1579574802890420 16.8933656215667725 35.0405426025390625
 10.0437326431274414  5.5257196426391602 34.4523696899414062
  9.2062911987304670 14.6564750671386701 34.1538124084472656
 18.0583419799804688  3.4809439182281494 34.1707649230957031
  1.4322605133056647 14.2200231552124023 34.4729385375976562
  3.4140424728393555  9.2184619903564453 34.1206016540527415
  4.9527577618137002 17.0527695417404175 34.1420402526855469
 14.3677419880405068 16.9123671054840088 34.5074157714843750
  8.0268297195434570  5.1098337173461914 42.2510261535644531
  7.7848725318908691 14.8360176086425781 41.9825210571289062
 17.5527485609054565  4.9869508743286133 42.5849914550781321
 16.7448637485504150 13.8653802871704102 42.0739326477050781
  5.3157844543457031  0.8479920625686646 42.2007026672363352
  5.5535068511962891  9.9997148513793945 42.0306396484375071
 14.3505706787109375  1.0978145599365234 42.1830635070800781
 14.7208528518676758  9.7368125915527344 42.1786193847656250
  1.5533062219619751  2.9791758060455322 40.3065910339355469
  1.8141838312149048 12.4357423782348633 40.8097953796386790
 10.4887475967407227  3.1382770538330078 40.3875808715820312
 10.1580696105957031 12.2271175384521484 41.0002593994140625
  3.2695815563201904  7.3616647720336914 40.8990325927734446
  2.9823595741763711 16.6753766536712682 40.4923362731933594
 11.9173345565795898  7.9559206962585440 40.6120147705078125
 12.0979370335116965 16.6325244903564453 40.7657318115234446
  1.2967187166213987  3.2012050151824951 42.0260314941406321
  0.6154282093048096 12.1148061752319336 42.0232238769531250
  9.7656412124633789  3.2181549072265621 41.9744682312011790
  9.4843244552612305 12.9396181106567383 42.4367256164550781
  3.9570832252502441  8.0013494491577148 42.3716087341308665
  3.3738109329715371 17.2302104830741882 42.1080360412597727
 12.7589302062988281  8.0193948745727539 42.1356887817382812
 12.5511326054111123 17.3084126710891724 42.3109626770019531
  7.7977232933044425  6.1097998619079581 40.8393859863281250
  7.5104050636291504 15.1530342102050781 40.2689514160156250
 16.8406492471694946  5.7357559204101554 41.2147026062011719
 16.8702248334884644 15.1273584365844709 40.8911247253417969
  6.0614900588989258  1.1709073781967163 40.6683120727539062
  5.6861371994018555 10.5315103530883789 40.3712768554687500
 14.9257411956787092  1.4167208671569824 40.5515480041503906
 14.9677677154541016 10.6046924591064453 40.7402153015136719
 18.0577749609947205  4.5584020614624023 39.6669845581054688
  0.7720913887023926 14.2960443496704102 39.9619789123535156
  9.3076076507568359  4.9661092758178702 39.5521507263183594
  8.9870204925537109 13.5354681015014648 39.5378761291503906
  4.6397737720981231 17.8554843962192535 39.4885826110839844
  4.2724547386169434  8.8793964385986328 39.5407638549804688
 13.5430053928866965 17.9099937528371811 39.5611419677734375
 13.2040805816650391  9.5974988937377930 39.6175193786621094
  8.1032123565673828  5.4420318603515616 48.0459518432617259
  8.1007528305053711 14.4734306335449219 48.0459518432617259
 17.1336116790771484  5.4420318603515616 48.0459518432617259
 17.1311531066894531 14.4734306335449219 48.0459518432617259
  5.4410333633422852  0.9265221953392029 48.0449485778808594
  5.4385743141174316  9.9579219818115234 48.0449485778808594
 14.4714326858520490  0.9265221953392029 48.0449485778808594
 14.4689741134643555  9.9579219818115234 48.0449485778808594
  1.4218254089355467  3.0919990539550781 46.4558296203613281
  1.4193661212921143 12.1233978271484375 46.4558296203613281
 10.4522256851196289  3.0919990539550781 46.4558296203613281
 10.4497661590576172 12.1233978271484375 46.4558296203613281
  3.0899283885955806  7.6075901985168457 46.4545211791992188
  3.0874691009521484 16.6389904022216797 46.4545211791992188
 12.1203289031982422  7.6075901985168457 46.4545211791992188
 12.1178693771362305 16.6389904022216797 46.4545211791992188
  0.9247469902038573  3.5893490314483643 48.0459518432617259
  0.9222877025604248 12.6207475662231445 48.0459518432617259
  9.9551477432250977  3.5893490314483643 48.0459518432617259
  9.9526882171630859 12.6207475662231445 48.0459518432617259
  3.5868983268737793  8.1048498153686523 48.0448913574218821
  3.5844390392303462 17.1362495422363281 48.0448913574218821
 12.6172990798950195  8.1048498153686523 48.0448913574218821
 12.6148395538330078 17.1362495422363281 48.0448913574218821
  7.6061611175537109  5.9393639564514160 46.4558296203613281
  7.6037015914916992 14.9707632064819336 46.4558296203613281
 16.6365604400634766  5.9393639564514160 46.4558296203613281
 16.6341018676757812 14.9707632064819336 46.4558296203613281
  5.9380125999450684  1.4238001108169553 46.4545211791992188
  5.9355530738830566 10.4551992416381836 46.4545211791992188
 14.9684123992919904  1.4238001108169553 46.4545211791992188
 14.9659538269042951 10.4551992416381836 46.4545211791992188
 -0.0011664569610730  4.5157265663146973 45.3548011779785156
 -0.0036257810425013 13.5471258163452148 45.3548011779785156
  9.0292339324951172  4.5157265663146973 45.3548011779785156
  9.0267744064331037 13.5471258163452148 45.3548011779785156
  4.5152091979980469  0.0000000000000000 45.3536758422851562
  4.5127501487731934  9.0313997268676740 45.3536758422851562
 13.5456094741821289  0.0000000000000000 45.3536758422851562
 13.5431499481201172  9.0313997268676740 45.3536758422851562
 14.3245363235473633  9.2036113739013672 32.2979278564453125
 15.7695274353027326  9.1189374923706055 33.3019294738769531
 13.6505517959594727 11.3423538208007812 33.5082015991210938
 13.8593540191650391 11.2863178253173828 35.2480773925781250
 12.3445301055908203  8.1847820281982422 34.6026802062988281
 12.0911664962768555  9.8558540344238281 35.0793914794921946
 14.4280805587768537  7.7662620544433594 35.5654220581054688
 15.6414041519165039  9.0381393432617188 35.6675910949707031
 15.5457334518432599  6.8428144454956046 33.7619323730468750
 13.8294105529785156  6.7587113380432129 33.4346275329589915
 14.0461359024047852  6.8547673225402823 31.1230049133300781
 15.6881856918334943  7.4853143692016602 31.1591758728027344
 16.1969680786132812 11.1002388000488263 33.2134590148925852
 16.3124599456787109 11.0057468414306623 34.9962539672851562
 15.7190055847167969 12.4737834930419922 34.2184638977050852
 10.7445001602172852  9.4002218246459961 33.0547866821289062
 12.1861000061035156  8.7879819869995117 32.1798553466796875
 12.0188760757446289 10.5141792297363281 32.6116600036621094
 12.9252386093139631  8.8547458648681641 37.1404533386230469
 13.8221197128295881 10.4107294082641584 36.9841041564941477
 14.5645980834960920  9.0353050231933594 37.7485771179199219
 14.9740972518920898  4.7052974700927734 32.1912193298339844
 15.2976875305175763  5.0178670883178711 30.5059051513671875
 16.8419551849365234  3.0255901813507080 31.2367935180664062
 17.5577869415283203  7.1477260589599609 32.2583961486816406
  1.2217731475830089  2.5644118785858154 31.4226036071777379
  1.9344615936279279  6.6779685020446777 32.4294967651367259
  2.8042869567871125  4.3993663787841797 31.9854698181152344
 17.9894657135009766  4.1010880470275879 35.0708580017089844
  0.5876045227050815 13.9475526809692383 35.1364517211914062
  9.4399662017822266  4.8638439178466797 35.0784797668457031
  8.9485435485839844 13.8525085449218750 34.8497047424316477
  4.2227110862731934  9.2569847106933594 34.8573875427246094
  4.7624515751376748 17.9343882501125336 34.7718544006347656
 13.9582866886630654 17.7653699517250061 35.0651855468750000
  0.1620821356773376  4.3592691421508789 40.7290153503418040
  0.3161151111125946 13.7758617401123047 40.8030891418457031
  9.1496028900146467  4.6333899497985840 40.5826721191406321
  8.8481225967407227 13.6897172927856428 40.6027565002441406
  4.4786396026611328  8.9399452209472656 40.6060333251953196
  4.5204700687900186 17.9564067348837888 40.5546150207519531
 13.4362220764160156  9.2923011779785138 40.6344642639160156
 13.5129799107089639 18.0461464039981365 40.6383895874023438
  9.0289716720581055  4.5156092643737793 46.4455223083496165
  9.0265130996704102 13.5470085144042969 46.4455223083496165
 18.0593719482421875  4.5156092643737793 46.4455223083496165
 18.0569133758544922 13.5470085144042969 46.4455223083496165
  4.5152091979980469  0.0000180629995157 46.4442062377929759
  4.5127501487731934  9.0314178466796857 46.4442062377929759
 13.5456094741821289  0.0000180629995157 46.4442062377929759
 13.5431499481201172  9.0314178466796857 46.4442062377929759
 17.0261173248291016  5.1349577903747559 31.7302436828613317
 17.5347957611083984  3.8383333683013916 31.5100822448730504
 17.9243812561035156  6.1462278366088867 32.0651283264160156
  0.8362731933593753  3.5750930309295654 31.5903415679931676
  1.2309436798095714  5.8782901763916016 32.1821060180664062
  1.7345981597900373  4.6019868850708008 31.9241561889648473
 14.7443399429321289  8.7576656341552734 33.1955833435058594
 14.2695817947387678 10.9266548156738281 34.3048973083496165
 12.5047273635864258  9.2125244140625000 34.2962303161621094
 14.5602025985717773  8.8377952575683594 35.6660003662109446
 14.7566413879394531  7.2290410995483390 33.1032333374023438
 15.0089521408081055  6.7804012298583984 31.6531600952148473
 15.7118043899536133 11.3781595230102521 34.1642150878906250
 11.8414554595947266  9.4891424179077148 32.9519805908203125
 13.9026203155517578  9.3281049728393555 36.9342193603515625
 15.5432691574096680  5.3603672981262207 31.5191879272460973
  1.0394229888915998  4.3815975189208984 35.7148056030273438
  0.6485404968261722 12.7783689498901349 35.7272605895996094
 10.0125226974487305  3.7535858154296875 35.4972915649414062
  9.9209613800048810 13.1035146713256836 35.2999000549316477
  8.1946363449096680  5.2188630104064941 35.3727264404296875
  7.6968359947204590 13.7375411987304688 35.2081871032714844
 16.7953777313232422  4.5332021713256827 35.4362182617187571
 17.6798458099365234 14.8246240615844727 35.2918739318847727
  4.5031013488769531  8.1457376480102539 35.5066871643066406
  3.5143182277679443  0.1543143093585968 35.0862503051757812
 12.6626686314120889 17.7335645556449890 35.3001174926757812
  5.8137359619140625  0.5621698498725891 35.1700859069824219
  4.8344998359680176 10.4146833419799805 35.0523376464843750
 14.7739906311035156  0.6568487882614136 35.4787559509277344
  1.0481003522872925  3.4659001827239990 41.0632095336914134
  0.9356609582901001 12.7092952728271484 41.2537689208984446
  9.8256750106811523  3.5994813442230225 41.0220375061035156
  9.5542612075805664 12.9241790771484375 41.4017295837402344
  3.8654916286468506  8.0370883941650391 41.3465156555175781
  3.5511631229892369 17.2405295968055725 41.0952377319335938
 12.6690568923950195  8.3687305450439453 41.1708221435546875
 12.6677240589633584 17.2756688594818115 41.2879905700683665
  8.2689476013183594  5.3180761337280273 41.2803726196289062
  8.0038042068481445 14.6195478439331037 40.9922904968261719
 17.4972164630889893  5.0695710182189941 41.5821685791015625
 17.2537662386894262 14.2670669555664062 41.2752571105957031
  5.3655605316162100  0.6899729967117310 41.1837654113769602
  5.2903337478637695  9.8751258850097656 41.0447883605957031
 14.3100128173828125  0.8787097930908203 41.1773529052734375
 14.4342947006225568  9.8906011581420898 41.2179031372070384
  0.8273094892501831  3.6869695186614990 47.0359649658203125
  0.8248501420021057 12.7183685302734375 47.0359649658203125
  9.8577098846435547  3.6869695186614990 47.0359649658203125
  9.8552503585815412 12.7183685302734375 47.0359649658203125
  3.6843190193176270  8.2023353576660156 47.0346527099609375
  3.6818594932556152 17.2337341308593750 47.0346527099609375
 12.7147188186645508  8.2023353576660156 47.0346527099609375
 12.7122592926025391 17.2337341308593750 47.0346527099609375
  8.2006769180297852  5.3445744514465332 47.0360260009765696
  8.1982173919677734 14.3759746551513672 47.0360260009765696
 17.2310771942138672  5.3445744514465332 47.0360260009765696
 17.2286186218261719 14.3759746551513672 47.0360260009765696
  5.3436489105224600  0.8290914893150328 47.0346527099609375
  5.3411893844604483  9.8604917526245117 47.0346527099609375
 14.3740482330322266  0.8290914893150328 47.0346527099609375
 14.3715896606445312  9.8604917526245117 47.0346527099609375
 14.0189752578735352  9.4143381118774414 34.3563423156738281
  9.1342691639438272 17.6504677534103394 34.6774330139160156
  8.2247819900512695  8.7527999877929688 34.6454162597656250
  0.0720803439617157  0.2871485948562622 34.5557212829589844
  0.6759581565856934  8.9183607101440430 34.7401199340820312
  4.5081505775451660  4.4401965141296387 34.7623252868652344
  4.2256517410278320 13.8760833740234375 34.4929275512695312
 13.4247999191284180  4.0295195579528809 34.6968955993652344
 12.9265203475952148 14.3589477539062482 34.2666435241699219
 18.0284800520166755 17.8940506577491760 40.9154663085937500
  0.0791089981794357  9.0500087738037109 40.9981651306152344
  8.9939851760864258  0.1365218609571457 40.9733657836914062
  9.0048513412475586  9.0748491287231445 40.8941383361816477
  4.6744232177734375  4.2957706451416016 41.0006561279296875
  4.4603819847106934 13.5373640060424805 40.8682060241699219
 13.3753290176391602  4.5860800743103027 40.9555931091308594
 13.6031608581542969 13.5667381286621094 40.8724365234375000
  2.5944294929504395  1.9776709079742432 38.0532875061035227
  2.5867552757263184 11.0330057144165039 38.1257095336914062
 11.6525182723999023  1.9392858743667603 38.0602760314941406
 11.0409746170043945 11.5122880935668945 38.3232460021972656
  6.5782122611999512  6.9597272872924805 38.3219032287597656
  6.5660233497619620 16.0143184661865234 37.9254112243652344
 16.0807056427001953  6.5104465484619141 38.4723701477050781
 15.6393928527832031 15.9985513687133771 37.9638557434082031
  2.1575400829315186  6.5826363563537598 38.3278579711914062
  2.1396872997283936 15.8318586349487305 37.9363899230957031
 11.1152486801147443  6.6769413948059082 37.8992843627929688
 11.1999959945678711 15.6898765563964844 38.2359542846679688
  7.1739525794982910  2.5792443752288818 37.8482513427734375
  6.8109622001647940 11.4663019180297852 37.8924484252929688
 16.0089721679687500  2.4837446212768555 38.3654594421386719
 16.4707450866699219 11.9340496063232422 38.3306045532226562
  0.0000000000000000  0.0000000000000000 47.1735610961914062
 -0.0024593239650130  9.0313997268676740 47.1735610961914062
  9.0304002761840803  0.0000000000000000 47.1735610961914062
  9.0279407501220685  9.0313997268676740 47.1735610961914062
  4.5139794349670410  4.5156998634338379 47.1742515563964844
  4.5115203857421875 13.5470991134643537 47.1742515563964844
 13.5443792343139648  4.5156998634338379 47.1742515563964844
 13.5419197082519531 13.5470991134643537 47.1742515563964844
  2.4519233703613277  2.0629522800445557 44.0401268005371165
  2.4494640827178955 11.0943517684936523 44.0401268005371165
 11.4823226928710920  2.0629522800445557 44.0401268005371165
 11.4798641204833984 11.0943517684936523 44.0401268005371165
  6.5760178565979004  6.9684472084045410 44.0401268005371165
  6.5735583305358887 15.9998464584350586 44.0401268005371165
 15.6064186096191406  6.9684472084045410 44.0401268005371165
 15.6039590835571289 15.9998464584350586 44.0401268005371165
  2.0610768795013428  6.5788145065307617 44.0400009155273509
  2.0586175918579102 15.6102142333984375 44.0400009155273509
 11.0914773941040039  6.5788145065307617 44.0400009155273509
 11.0890178680419922 15.6102142333984375 44.0400009155273509
  6.9668641090393066  2.4525938034057613 44.0400657653808665
  6.9644045829772949 11.4839935302734375 44.0400657653808665
 15.9972639083862305  2.4525938034057613 44.0400657653808665
 15.9948053359985352 11.4839935302734375 44.0400657653808665
  2.4316265583038330  2.0832188129425049 50.0684852600097656
  2.4291670322418213 11.1146183013915998 50.0684852600097656
 11.4620265960693359  2.0832188129425049 50.0684852600097656
 11.4595670700073224 11.1146183013915998 50.0684852600097656
  6.5963144302368164  6.9481806755065918 50.0684852600097656
  6.5938549041748047 15.9795799255371076 50.0684852600097656
 15.6267137527465803  6.9481806755065918 50.0684852600097656
 15.6242542266845703 15.9795799255371076 50.0684852600097656
  2.0811281204223633  6.5990090370178223 50.0690460205078125
  2.0786688327789307 15.6304082870483398 50.0690460205078125
 11.1115283966064453  6.5990090370178223 50.0690460205078125
 11.1090688705444336 15.6304082870483398 50.0690460205078125
  6.9468131065368652  2.4323906898498531 50.0690460205078125
  6.9443535804748535 11.4637899398803711 50.0690460205078125
 15.9772129058837891  2.4323906898498531 50.0690460205078125
 15.9747543334960938 11.4637899398803711 50.0690460205078125
 18.0421163775026834  0.1403995752334595 37.8012504577636719
  0.1404573470354080  9.0976228713989258 37.8233871459960938
  9.1089691380038840 17.9543604254722595 37.7861633300781250
  8.9163885116577148  9.0146188735961914 37.6912078857421946
  4.5612111091613770  4.5308470726013184 37.8893203735351562
  4.3646616935729980 13.6747798919677734 37.7117233276367188
 13.5584583282470703  4.5857501029968262 37.8773040771484446
 13.5398368835449219 13.6476650238037092 37.7437400817871094
  0.0000090280000222  0.0000090310004452 44.0429992675781250
 -0.0024502959568053  9.0314083099365234 44.0429992675781250
  9.0304088592529297  0.0000090310004452 44.0429992675781250
  9.0279493331909180  9.0314083099365234 44.0429992675781250
  4.5139703750610352  4.5156903266906738 44.0427513122558594
  4.5115113258361816 13.5470905303955078 44.0427513122558594
 13.5443706512451172  4.5156903266906738 44.0427513122558594
 13.5419111251831037 13.5470905303955078 44.0427513122558594
  0.0000000000000000  0.0000000000000000 50.4472808837890696
 -0.0024593239650130  9.0313997268676740 50.4472808837890696
  9.0304002761840803  0.0000000000000000 50.4472808837890696
  9.0279407501220685  9.0313997268676740 50.4472808837890696
  4.5139703750610352  4.5156998634338379 50.4472808837890696
  4.5115113258361816 13.5470991134643537 50.4472808837890696
 13.5443706512451172  4.5156998634338379 50.4472808837890696
 13.5419111251831055 13.5470991134643537 50.4472808837890696
