 H  C  N  I Pb 
 1.0000000000000000
    18.0608005523681641    0.0000000000000000    0.0000000000000000
    -0.0049186488613486   18.0627994537353516    0.0000000000000000
     0.0000000000000000    0.0000000000000000   62.4874992370605469
 H   C   N   I   Pb 
 143  39  47  72  24
Cartesian
  7.9927878379821777  5.8650126457214355 35.6254730224609375
  7.5769801139831543 14.9567689895629865 35.5952033996582031
 17.4647006988525391  5.8067502975463867 36.1867065429687571
 17.1417560577392578 14.6658678054809570 36.0618782043457031
  5.8506316402927032 17.2206168770790100 35.7776222229003906
  6.1633481979370117 10.1707992553710938 35.5500793457031250
 14.4297723770141602  1.4129134416580200 35.9916954040527415
  0.3580207824707046  2.4730629920959473 35.1088447570800781
  1.1594028472900424 11.7520494461059570 35.4243507385253977
 10.1328611373901349  3.1483078002929683 34.5663642883300852
  9.2945995330810547 11.7839384078979492 35.1721076965332102
  6.5331859588623047  0.3755140900611877 34.7436904907226562
  5.1423130035400391 11.3508291244506836 34.7547340393066406
 15.7313508987426758  0.4301422238349914 35.3258056640625000
 17.6170578002929688  3.3632161617279053 36.3825340270996094
 18.0271224975585938 12.3802957534790039 36.5117492675781250
 10.1208190917968750  4.6198229789733887 35.5219345092773438
  7.9479222297668457 12.5113992691040039 35.9943313598632812
  5.1892013549804688  7.8797178268432608 35.8710670471191406
  3.4165117004886270 16.8292858600616455 35.6761970520019531
 12.1374931335449219  0.5137099623680115 35.7499465942382812
  6.6148614883422852  5.1214499473571777 34.8405189514160156
  8.7580223083496094 15.8048181533813477 34.6436614990234375
  0.3631763458251940  6.5558061599731436 34.9453544616699219
 17.9338417053222656 15.5626382827758789 34.7950286865234375
  3.5870146751403809  7.6391954421997070 35.2288360595703125
  2.4649452427402139 17.9087217450141942 34.6835403442382812
 12.0125526646152139 16.9647296667098999 35.0461692810058665
  7.8590636253356934  3.3300952911376953 34.0423583984375000
 10.0075893402099609 13.8547048568725586 34.2530364990234375
  0.9792385101318355  4.4806666374206543 34.0106315612792969
  1.2729473114013694 13.7910518646240234 34.1955375671386719
  3.4000992774963379  9.7844285964965820 34.4318809509277415
  4.3846116065979004  1.0464763641357422 33.9835739135742188
 14.2688001850619912 16.7801196575164795 34.6683692932128906
  8.6799468994140625  6.0221886634826660 41.7897453308105540
  7.9253678321838370 14.7066841125488281 42.0705604553222656
 17.4806973934173584  5.0585536956787100 42.4542884826660227
 16.6357029676437413 13.3450298309326172 42.0412979125976562
  5.6206088066101065  0.9614090919494629 41.9016113281250000
  5.4010949134826660  9.9279413223266584 42.2340240478515625
 14.2850503921508789  1.1344555616378784 42.1921272277832102
 13.8312263488769531 10.7519187927246094 41.5331115722656250
  1.5215106010437009  2.9621405601501465 40.3174209594726562
  1.9338531494140625 12.8742170333862305 40.7326354980468750
 10.5413675308227539  3.1498444080352779 40.6031341552734375
 10.2291917800903320 12.1536598205566406 40.7900772094726634
  3.3056652545928955  7.4797239303588858 40.4531364440917969
  3.0688199261203408 16.6566604375839233 40.6768035888671875
 12.7967939376831055  7.2860155105590820 41.3510780334472727
 12.2456745365634561 16.5423886775970459 40.6837654113769602
  1.1765050888061521  3.1919269561767578 42.0170822143554688
  0.8614163994789122 12.2419395446777344 41.9575576782226562
 10.7631158828735352  4.6442670822143555 41.4439048767089915
  9.5767917633056641 12.7125663757324219 42.2990417480468821
  3.6493194103240962  8.0266122817993164 42.0925674438476562
  3.7237483719363809 17.2671675086021423 42.1835784912109446
 12.2945814132690430  8.8410501480102539 41.9804573059082031
 12.4982876041904092 17.3211677670478821 42.2239685058593821
  7.1869029998779297  5.3105130195617676 41.1901588439941477
  7.6714553833007804 15.2286462783813459 40.4358177185058594
 16.8930559158325231  5.8702554702758789 41.0446929931640625
 16.3427418470382690 14.5800209045410138 40.8520050048828125
  6.0099382400512695  1.3281233310699463 40.2386817932128977
  5.9937295913696289 10.4807844161987305 40.6884346008300781
 15.0296249389648438  1.4051593542098999 40.6305236816406250
 15.1645011901855451 10.4418230056762695 40.4541244506836009
  0.0975469052791595  4.6304912567138672 39.5732765197753906
  0.3715817928314209 14.3940467834472656 39.9103813171386719
  8.2747135162353516  3.4637851715087891 40.2786369323730469
  9.0873079299926758 13.6859931945800781 39.5022087097167969
  4.4385966518893838 17.9432850703597069 39.3520393371582031
  4.7175545692443848  8.9803619384765625 39.4622344970703125
 13.8378967503085732 17.8098410367965698 39.5742797851562571
 14.6374654769897461  8.1839599609375000 40.2447319030761719
  8.1032123565673828  5.4420318603515616 48.0459518432617259
  8.1007528305053711 14.4734306335449219 48.0459518432617259
 17.1336116790771484  5.4420318603515616 48.0459518432617259
 17.1311531066894531 14.4734306335449219 48.0459518432617259
  5.4410333633422852  0.9265221953392029 48.0449485778808594
  5.4385743141174316  9.9579219818115234 48.0449485778808594
 14.4714326858520490  0.9265221953392029 48.0449485778808594
 14.4689741134643555  9.9579219818115234 48.0449485778808594
  1.4218254089355467  3.0919990539550781 46.4558296203613281
  1.4193661212921143 12.1233978271484375 46.4558296203613281
 10.4522256851196289  3.0919990539550781 46.4558296203613281
 10.4497661590576172 12.1233978271484375 46.4558296203613281
  3.0899283885955806  7.6075901985168457 46.4545211791992188
  3.0874691009521484 16.6389904022216797 46.4545211791992188
 12.1203289031982422  7.6075901985168457 46.4545211791992188
 12.1178693771362305 16.6389904022216797 46.4545211791992188
  0.9247469902038573  3.5893490314483643 48.0459518432617259
  0.9222877025604248 12.6207475662231445 48.0459518432617259
  9.9551477432250977  3.5893490314483643 48.0459518432617259
  9.9526882171630859 12.6207475662231445 48.0459518432617259
  3.5868983268737793  8.1048498153686523 48.0448913574218821
  3.5844390392303462 17.1362495422363281 48.0448913574218821
 12.6172990798950195  8.1048498153686523 48.0448913574218821
 12.6148395538330078 17.1362495422363281 48.0448913574218821
  7.6061611175537109  5.9393639564514160 46.4558296203613281
  7.6037015914916992 14.9707632064819336 46.4558296203613281
 16.6365604400634766  5.9393639564514160 46.4558296203613281
 16.6341018676757812 14.9707632064819336 46.4558296203613281
  5.9380125999450684  1.4238001108169553 46.4545211791992188
  5.9355530738830566 10.4551992416381836 46.4545211791992188
 14.9684123992919904  1.4238001108169553 46.4545211791992188
 14.9659538269042951 10.4551992416381836 46.4545211791992188
 -0.0011664569610730  4.5157265663146973 45.3548011779785156
 -0.0036257810425013 13.5471258163452148 45.3548011779785156
  9.0292339324951172  4.5157265663146973 45.3548011779785156
  9.0267744064331037 13.5471258163452148 45.3548011779785156
  4.5152091979980469  0.0000000000000000 45.3536758422851562
  4.5127501487731934  9.0313997268676740 45.3536758422851562
 13.5456094741821289  0.0000000000000000 45.3536758422851562
 13.5431499481201172  9.0313997268676740 45.3536758422851562
 13.9916009902954102 10.0266790390014648 32.5224380493164062
 13.0192918777465820  8.5885267257690430 32.8447875976562500
 15.7510490417480469  9.0475988388061523 33.8538093566894531
 15.4623680114746094  8.6860017776489258 35.5405960083007812
 13.4265003204345703 11.5656929016113281 34.9607238769531250
 14.5537910461425763 10.8100748062133789 36.1092987060546875
 12.0636281967163086  9.9180002212524414 35.6311988830566406
 12.2113246917724609  8.2502212524414062 35.0583915710449219
 11.1311016082763654  9.9877204895019531 33.5996246337890625
 12.1118478775024414 11.4657230377197266 33.4893341064453125
 10.9521741867065430 11.6364669799804688 31.5481929779052770
 12.3994245529174805 10.8474969863891602 30.9531250000000036
 14.3465099334716797  7.0537314414978027 33.1505279541015696
 14.0168428421020508  6.6863288879394531 34.8306694030761719
 15.6588726043701172  6.6087703704833984 34.2176437377929688
 15.6098117828369141 12.5423917770385742 34.7548599243164062
 15.2696628570556641 11.6971368789672852 33.2370834350585938
 16.3880844116210938 10.9671564102172852 34.4321670532226562
 13.6764221191406250  9.5309457778930664 37.4946060180664062
 14.0340852737426740  7.8958353996276855 36.8929901123046875
 12.4195928573608398  8.3158311843872070 37.4663009643554759
  9.6516504287719727  9.5663137435913086 31.4686431884765625
 10.3926305770874023  9.8768968582153320 29.8862342834472692
 12.5259761810302734  8.5828466415405273 29.2531394958496094
 10.1385536193847656  7.5875563621520996 32.7261466979980469
 13.7275276184082013  6.4173007011413574 29.4598579406738281
 11.3759660720825195  5.4149079322814941 32.9164581298828196
 13.1725330352783203  4.8399395942687988 31.3233547210693395
  0.3741931915283200  4.5089430809020996 34.9187011718750000
  0.5634555816650387 13.6666927337646484 35.0229301452636719
  8.3611803054809570  4.1201052665710449 34.6147422790527344
  9.0831565856933594 13.7998847961425781 34.8409881591796875
  4.3359441757202148  9.4846401214599609 34.9138145446777344
  4.4838614463806152  0.1883910298347473 34.6512145996093821
 13.8836845615878701 17.6948346495628357 35.1368560791015625
  0.1771370023488998  4.4142727851867676 40.6598281860351562
  0.1114268377423286 13.7400398254394513 40.7566757202148438
  8.8478450775146484  4.2178258895874023 40.8352012634277415
  8.9493398666381836 13.6966924667358398 40.5877990722656250
  4.6561040878295898  8.9854173660278320 40.5582008361816406
  4.5327495792880654 18.0246091000735760 40.4471969604492188
 13.9975185394287109  8.8303823471069336 40.8532180786132812
 13.6388172367587686 17.9925537109375000 40.6423568725586009
  9.0289716720581055  4.5156092643737793 46.4455223083496165
  9.0265130996704102 13.5470085144042969 46.4455223083496165
 18.0593719482421875  4.5156092643737793 46.4455223083496165
 18.0569133758544922 13.5470085144042969 46.4455223083496165
  4.5152091979980469  0.0000180629995157 46.4442062377929759
  4.5127501487731934  9.0314178466796857 46.4442062377929759
 13.5456094741821289  0.0000180629995157 46.4442062377929759
 13.5431499481201172  9.0314178466796857 46.4442062377929759
 11.2587308883666992  8.2472743988037109 30.9811325073242223
 12.2631635665893555  7.8890900611877433 30.0617313385009766
 10.9201316833496094  7.3214702606201172 31.9959278106689453
 12.9509305953979492  6.6777973175048828 30.1835365295410192
 11.6168851852416974  6.1100678443908691 32.1106185913085938
 12.6406850814819318  5.7929716110229492 31.2091255187988317
 13.2017993927001953  9.6281404495239258 33.1669692993164062
 15.0222301483154297  8.6014528274536133 34.5372581481933665
 14.3058214187622053 10.9206409454345703 35.0418319702148509
 12.7664747238159180  9.0779581069946289 35.5264625549316406
 11.9489440917968750 10.4669446945190430 33.0462837219238281
 11.5073480606079084 10.7016038894653320 31.5843639373779332
 14.7222614288330078  7.1766839027404785 34.1686592102050781
 15.4689893722534180 11.5463800430297852 34.3069648742675781
 13.2784671783447266  8.6922855377197266 36.9021720886230469
 10.6206579208374006  9.6090574264526367 30.9434223175048864
  0.1065940856933594  3.3871200084686279 35.5130310058593821
  0.5947284698486324 12.5535860061645508 35.7195587158203125
  9.6440744400024414  3.9951515197753906 34.8602790832519602
  8.7412195205688477 12.6288127899169922 35.3465042114257812
  7.6292357444763184  5.1427984237670898 35.0067901611328196
  8.3814697265625000 14.9126939773559570 34.9839553833007812
 18.0508174896240234  5.6889081001281729 35.3474884033203125
 17.8031520843505859 14.6615982055664062 35.2688598632812571
  4.4099011421203613  8.2326345443725586 35.2976417541503906
  3.3994275787845254 17.5878782570362091 34.9780158996582031
 12.5839647511020303 17.7994947135448456 35.2614212036132884
  5.6774420002475372 17.9610080868005788 35.0928955078125000
  5.2821512222290039 10.3754892349243164 35.0726051330566406
 14.7370557785034180  0.5443135499954224 35.5382232666015625
  1.0001392364501953  3.4621686935424805 41.0349845886230469
  1.0053148269653320 12.8818597793579102 41.1770896911621094
 10.1300344467163086  3.9922826290130615 40.9836502075195312
  9.6152505874633789 12.8105201721191406 41.2839393615722656
  3.8258967399597164  8.1038637161254883 41.0929641723632884
  3.7327737072482701 17.2877262830734253 41.1702079772949219
 12.9453105926513672  8.3008680343627930 41.4209327697753906
 12.7487520435824973 17.2523478865623474 41.2452468872070312
  8.2096071243286133  5.2794094085693359 41.2783088684082031
  8.1418457031250000 14.5996932983398420 41.0766410827636719
 17.4971808791160583  5.1461157798767090 41.4414329528808665
 16.9835765361785924 13.9163293838500959 41.2772369384765625
  5.4477505683898926  0.8019738197326660 40.9143333435058594
  5.3880953788757324  9.8344602584838867 41.2274818420410227
 14.3601465225219727  0.8898596763610839 41.2068557739257884
 14.3575143814086914 10.1032581329345703 40.9566917419433665
  0.8273094892501831  3.6869695186614990 47.0359649658203125
  0.8248501420021057 12.7183685302734375 47.0359649658203125
  9.8577098846435547  3.6869695186614990 47.0359649658203125
  9.8552503585815412 12.7183685302734375 47.0359649658203125
  3.6843190193176270  8.2023353576660156 47.0346527099609375
  3.6818594932556152 17.2337341308593750 47.0346527099609375
 12.7147188186645508  8.2023353576660156 47.0346527099609375
 12.7122592926025391 17.2337341308593750 47.0346527099609375
  8.2006769180297852  5.3445744514465332 47.0360260009765696
  8.1982173919677734 14.3759746551513672 47.0360260009765696
 17.2310771942138672  5.3445744514465332 47.0360260009765696
 17.2286186218261719 14.3759746551513672 47.0360260009765696
  5.3436489105224600  0.8290914893150328 47.0346527099609375
  5.3411893844604483  9.8604917526245117 47.0346527099609375
 14.3740482330322266  0.8290914893150328 47.0346527099609375
 14.3715896606445312  9.8604917526245117 47.0346527099609375
 13.8287067413330078  9.5524396896362305 34.5559043884277344
  9.1340341567993164  0.3639873266220093 34.4796333312988281
  8.5782976150512695  9.0442829132080078 34.6991882324218821
 18.0448137428611517  0.0304186325520277 34.3652572631835938
  0.7152309417724609  9.0781536102294922 34.5437355041503906
  4.1538062095642090  4.3251118659973145 34.5047988891601562
  4.4797101020812988 13.9084329605102539 34.6134834289550852
 13.2917823791503906  3.6608769893646240 34.6998214721679759
 12.7496643066406250 14.3067378997802734 34.4897499084472656
  0.0317362071946263 17.7458646595478058 40.8686370849609375
  0.1466346681118011  8.9334859848022461 40.9485321044921875
  9.0657110214233381  0.2014566212892532 40.9021759033203125
  9.3053159713745117  8.8137722015380859 40.9423217773437500
  4.6985774040222168  4.4268188476562500 40.9000320434570312
  4.5180883407592773 13.6445407867431623 40.9037170410156321
 13.6034650802612305  4.7428474426269531 40.9089317321777344
 13.4331550598144531 13.6404438018798828 40.8737602233886719
  2.4342341423034668  1.9379004240036011 37.9960441589355469
  2.6661903858184814 10.9757757186889648 38.1312065124511790
 11.7191381454467773  1.9086464643478394 38.1750526428222656
 11.1484441757202148 11.4437599182128888 38.2917709350585938
  6.5011506080627441  6.9448022842407227 37.8872566223144531
  6.6959733963012686 15.9437036514282209 37.9779701232910156
 16.1226749420166016  6.5702772140502921 38.2770881652832102
 15.7610530853271484 15.7186813354492188 37.9708938598632812
  2.2500588893890381  6.5585269927978516 38.1480598449707031
  2.2559854984283443 15.7370805740356445 37.8985404968261719
 10.5500183105468750  5.9993996620178223 37.6607398986816477
 11.1341428756713849 15.7641153335571289 38.1851539611816406
  6.9796562194824219  2.4291651248931885 37.8827590942382812
  6.9305467605590811 11.3493175506591797 38.2110061645507812
 16.0169792175292969  2.4588057994842525 38.2465591430664062
 16.3566322326660156 11.5747823715209961 38.3256111145019531
  0.0000000000000000  0.0000000000000000 47.1735610961914062
 -0.0024593239650130  9.0313997268676740 47.1735610961914062
  9.0304002761840803  0.0000000000000000 47.1735610961914062
  9.0279407501220685  9.0313997268676740 47.1735610961914062
  4.5139794349670410  4.5156998634338379 47.1742515563964844
  4.5115203857421875 13.5470991134643537 47.1742515563964844
 13.5443792343139648  4.5156998634338379 47.1742515563964844
 13.5419197082519531 13.5470991134643537 47.1742515563964844
  2.4519233703613277  2.0629522800445557 44.0401268005371165
  2.4494640827178955 11.0943517684936523 44.0401268005371165
 11.4823226928710920  2.0629522800445557 44.0401268005371165
 11.4798641204833984 11.0943517684936523 44.0401268005371165
  6.5760178565979004  6.9684472084045410 44.0401268005371165
  6.5735583305358887 15.9998464584350586 44.0401268005371165
 15.6064186096191406  6.9684472084045410 44.0401268005371165
 15.6039590835571289 15.9998464584350586 44.0401268005371165
  2.0610768795013428  6.5788145065307617 44.0400009155273509
  2.0586175918579102 15.6102142333984375 44.0400009155273509
 11.0914773941040039  6.5788145065307617 44.0400009155273509
 11.0890178680419922 15.6102142333984375 44.0400009155273509
  6.9668641090393066  2.4525938034057613 44.0400657653808665
  6.9644045829772949 11.4839935302734375 44.0400657653808665
 15.9972639083862305  2.4525938034057613 44.0400657653808665
 15.9948053359985352 11.4839935302734375 44.0400657653808665
  2.4316265583038330  2.0832188129425049 50.0684852600097656
  2.4291670322418213 11.1146183013915998 50.0684852600097656
 11.4620265960693359  2.0832188129425049 50.0684852600097656
 11.4595670700073224 11.1146183013915998 50.0684852600097656
  6.5963144302368164  6.9481806755065918 50.0684852600097656
  6.5938549041748047 15.9795799255371076 50.0684852600097656
 15.6267137527465803  6.9481806755065918 50.0684852600097656
 15.6242542266845703 15.9795799255371076 50.0684852600097656
  2.0811281204223633  6.5990090370178223 50.0690460205078125
  2.0786688327789307 15.6304082870483398 50.0690460205078125
 11.1115283966064453  6.5990090370178223 50.0690460205078125
 11.1090688705444336 15.6304082870483398 50.0690460205078125
  6.9468131065368652  2.4323906898498531 50.0690460205078125
  6.9443535804748535 11.4637899398803711 50.0690460205078125
 15.9772129058837891  2.4323906898498531 50.0690460205078125
 15.9747543334960938 11.4637899398803711 50.0690460205078125
 17.9801099384203553 18.0077435076236725 37.8326873779296946
  0.1571398526430130  9.0440063476562500 37.8453598022460938
  9.0266981124877930  0.1239669770002365 37.7429924011230540
  8.9852771759033203  8.8937797546386719 37.7751960754394531
  4.4098815917968750  4.3692622184753418 37.6678924560546946
  4.4825663566589355 13.4913320541381836 37.7430038452148438
 13.3761262893676758  4.5179553031921387 37.6604576110839844
 13.2378015518188459 13.6793222427368146 37.5971946716308594
  0.0000090280000222  0.0000090310004452 44.0429992675781250
 -0.0024502959568053  9.0314083099365234 44.0429992675781250
  9.0304088592529297  0.0000090310004452 44.0429992675781250
  9.0279493331909180  9.0314083099365234 44.0429992675781250
  4.5139703750610352  4.5156903266906738 44.0427513122558594
  4.5115113258361816 13.5470905303955078 44.0427513122558594
 13.5443706512451172  4.5156903266906738 44.0427513122558594
 13.5419111251831037 13.5470905303955078 44.0427513122558594
  0.0000000000000000  0.0000000000000000 50.4472808837890696
 -0.0024593239650130  9.0313997268676740 50.4472808837890696
  9.0304002761840803  0.0000000000000000 50.4472808837890696
  9.0279407501220685  9.0313997268676740 50.4472808837890696
  4.5139703750610352  4.5156998634338379 50.4472808837890696
  4.5115113258361816 13.5470991134643537 50.4472808837890696
 13.5443706512451172  4.5156998634338379 50.4472808837890696
 13.5419111251831055 13.5470991134643537 50.4472808837890696
