 H  C  N  I Pb 
 1.0000000000000000
    18.0608005523681641    0.0000000000000000    0.0000000000000000
    -0.0049186488613486   18.0627994537353516    0.0000000000000000
     0.0000000000000000    0.0000000000000000   62.4874992370605469
 H   C   N   I   Pb 
 143  39  47  72  24
Cartesian
  7.9262137413024893  5.4221215248107910 35.9759407043457031
  7.9357080459594727 14.9816503524780273 36.0997467041015625
 17.7580604553222656  5.5354528427124023 36.3273582458496094
 17.4975833892822266 14.4091968536376953 36.4291038513183594
  5.7332581738010049 17.9960447400808334 36.2241783142089844
  5.6727633476257324 10.0517244338989258 36.2470741271972656
 14.1383504867553711  1.2027423381805418 36.4262199401855540
  0.9916973114013686  2.4729969501495361 35.0579872131347656
  1.0095672607421891 11.6078176498413086 34.8363380432128906
 10.6675033569335938  3.5395128726959224 34.6397438049316406
  9.8837404251098633 12.1138601303100568 35.1263122558593750
  6.2001690864562988  0.8706220388412476 34.8544197082519531
  5.3269915580749503 11.0083646774291992 34.8661613464355469
 15.3044757843017578  1.1333298683166504 35.1742591857910156
  0.5534954071044902  3.2109248638153072 36.5192070007324290
  0.4597244262695300 12.1675548553466779 36.3768768310546875
 10.2160615921020508  4.6800684928894043 35.8704681396484375
  8.8360786437988281 12.6453332901000977 36.4093551635742188
  4.4397892951965332  7.8363471031188965 36.3733749389648509
  3.3667649487033486 17.1022347807884216 36.2302207946777344
 12.3114399174228311 17.5595942139625549 36.3434410095214844
  6.7693309783935547  4.7620725631713867 34.8160438537597656
  8.5071296691894531 15.8725538253784180 34.7309036254882884
 17.8635826110839844  6.3242578506469727 34.7895584106445312
 17.4334411621093750 15.3216018676757812 34.9351310729980469
  3.3525781631469727  7.5166416168212891 35.0697708129882884
  2.3853744724765420 17.6129949688911438 34.9031219482421946
 12.3967422703281045 16.4228173494338989 35.0177421569824219
  8.4238338470458984  3.5147240161895748 33.7814598083496094
  9.7962446212768555 14.0750808715820312 33.9402542114257812
  0.5844974517822298  4.2967205047607422 33.7843551635742188
  0.3361911773681640 13.5782203674316406 33.7292861938476634
  3.8458700180053706  9.4877510070800781 33.9608154296875000
  4.0759553909301758  0.7461760640144348 33.8868980407714844
 14.3084034183993918 17.3654944896697998 34.1424674987792969
  8.2772645950317383  5.6116123199462891 42.1673393249511790
  7.8261961936950675 14.7217540740966779 42.0037803649902415
 17.4915217161178589  5.0827178955078125 42.5591049194335938
 16.8119051456451416 14.2929687499999982 42.1854782104492259
  5.3837819099426270  0.9580674767494201 42.1808433532714915
  5.4587903022766113  9.8719453811645508 42.2363471984863352
 14.3706893920898420  1.0142076015472412 42.1650123596191477
 14.5028610229492188 10.5031862258911133 41.9138031005859446
  1.4873747825622559  3.0044925212860107 40.3440933227539134
  1.7559800148010252 12.5115060806274396 40.9811592102050852
 10.3281240463256836  2.9338574409484863 40.7338371276855469
 10.3692808151245117 12.2694196701049787 41.0598411560058594
  3.2140865325927734  7.4744315147399893 40.5528106689453125
  3.1804370144382119 16.5196143388748169 40.6483726501464915
 12.4979314804077148  7.5523614883422852 41.2146453857421946
 12.1111931065097451 16.6715735197067261 40.5782470703125000
  1.2032219171524046  3.2394659519195557 42.0361175537109446
  0.7657305002212523 12.5965614318847656 42.3956947326660156
 10.2633924484252930  3.9210252761840820 42.1597633361816406
  9.6298713684082031 12.9651355743408203 42.4643898010253977
  3.7859368324279785  7.9072384834289551 42.1410865783691406
  3.6185082653537393 17.1278350949287415 42.2118453979492259
 12.7948837280273420  8.7049770355224609 42.4900741577148509
 12.4844593266025168 17.3219569921493530 42.1433944702148509
  7.2394561767578125  5.5551023483276367 40.7794418334961009
  7.5290360450744620 15.0213632583618164 40.3176727294921875
 16.8132988214492798  5.8471107482910156 41.1571846008300781
 16.7420560121536255 15.1052932739257812 40.6533393859863281
  5.9443745613098145  1.4310668706893921 40.6068038940429688
  5.8316273689270011 10.5823926925659180 40.6927947998046875
 15.0978746414184570  1.3586604595184326 40.6200065612792969
 15.0979270935058594 10.4517583847045898 40.2771530151367188
 17.9887370467185974  4.6758003234863281 39.6731376647949290
  0.5501567125320435 14.1397790908813477 39.7976112365722656
  8.4657344818115234  3.8482680320739746 39.7570953369140625
  9.1507034301757812 13.4712696075439453 39.6046409606933594
  4.5915087917819619 17.9414507001638412 39.5137367248535156
  4.4340829849243164  9.1122560501098633 39.5144386291503977
 13.7657617786899209 17.9484678357839584 39.5000152587890625
 13.8994760513305646  8.5667438507080078 39.7310905456542969
  8.1032123565673828  5.4420318603515616 48.0459518432617259
  8.1007528305053711 14.4734306335449219 48.0459518432617259
 17.1336116790771484  5.4420318603515616 48.0459518432617259
 17.1311531066894531 14.4734306335449219 48.0459518432617259
  5.4410333633422852  0.9265221953392029 48.0449485778808594
  5.4385743141174316  9.9579219818115234 48.0449485778808594
 14.4714326858520490  0.9265221953392029 48.0449485778808594
 14.4689741134643555  9.9579219818115234 48.0449485778808594
  1.4218254089355467  3.0919990539550781 46.4558296203613281
  1.4193661212921143 12.1233978271484375 46.4558296203613281
 10.4522256851196289  3.0919990539550781 46.4558296203613281
 10.4497661590576172 12.1233978271484375 46.4558296203613281
  3.0899283885955806  7.6075901985168457 46.4545211791992188
  3.0874691009521484 16.6389904022216797 46.4545211791992188
 12.1203289031982422  7.6075901985168457 46.4545211791992188
 12.1178693771362305 16.6389904022216797 46.4545211791992188
  0.9247469902038573  3.5893490314483643 48.0459518432617259
  0.9222877025604248 12.6207475662231445 48.0459518432617259
  9.9551477432250977  3.5893490314483643 48.0459518432617259
  9.9526882171630859 12.6207475662231445 48.0459518432617259
  3.5868983268737793  8.1048498153686523 48.0448913574218821
  3.5844390392303462 17.1362495422363281 48.0448913574218821
 12.6172990798950195  8.1048498153686523 48.0448913574218821
 12.6148395538330078 17.1362495422363281 48.0448913574218821
  7.6061611175537109  5.9393639564514160 46.4558296203613281
  7.6037015914916992 14.9707632064819336 46.4558296203613281
 16.6365604400634766  5.9393639564514160 46.4558296203613281
 16.6341018676757812 14.9707632064819336 46.4558296203613281
  5.9380125999450684  1.4238001108169553 46.4545211791992188
  5.9355530738830566 10.4551992416381836 46.4545211791992188
 14.9684123992919904  1.4238001108169553 46.4545211791992188
 14.9659538269042951 10.4551992416381836 46.4545211791992188
 -0.0011664569610730  4.5157265663146973 45.3548011779785156
 -0.0036257810425013 13.5471258163452148 45.3548011779785156
  9.0292339324951172  4.5157265663146973 45.3548011779785156
  9.0267744064331037 13.5471258163452148 45.3548011779785156
  4.5152091979980469  0.0000000000000000 45.3536758422851562
  4.5127501487731934  9.0313997268676740 45.3536758422851562
 13.5456094741821289  0.0000000000000000 45.3536758422851562
 13.5431499481201172  9.0313997268676740 45.3536758422851562
 14.0178499221801758 10.0768575668334943 32.7402877807617188
 13.1093673706054688  8.6243114471435547 32.9896545410156250
 15.6887826919555664  9.1087446212768555 34.1006774902343821
 15.3687486648559570  8.7072124481201172 35.7671737670898438
 13.3450307846069336 11.5395526885986328 35.2000160217285156
 14.4318132400512695 10.6940879821777326 36.3357124328613281
 11.9006290435791016  9.7396211624145490 35.6899833679199219
 12.1736431121826172  8.1541786193847656 35.0733489990234375
 11.0918312072753906  9.8837442398071289 33.6658058166503906
 12.0768795013427734 11.3481817245483398 33.7986335754394531
 11.0716581344604492 11.7485599517822266 31.7793464660644531
 12.4993801116943342 10.9323368072509766 31.1666088104248047
 14.9970111846923828  7.0113825798034668 33.2647819519042969
 13.6732950210571289  6.7787852287292480 34.4288711547851634
 15.3279962539672852  6.4901623725891113 34.9443359375000071
 15.5021677017211914 12.4897708892822266 34.9378395080566406
 15.3321809768676740 11.4444818496704084 33.4968605041503906
 16.3658008575439453 10.9028749465942365 34.8852653503417969
 13.6926527023315430  9.2401971817016602 37.4840698242187500
 13.6360435485839844  7.5594844818115234 36.9688110351562500
 12.1827287673950195  8.3587303161621094 37.5717811584472656
  9.7640924453735352  9.6810436248779297 31.6797218322753942
 10.4199151992797852 10.0453548431396484 30.0990562438964879
 12.7678251266479474  8.8839502334594727 29.6177177429199254
  9.9235258102416992  7.5364079475402823 32.5557556152343750
 13.9751482009887695  6.7465968132019043 29.7727184295654297
 11.1707620620727539  5.3452839851379395 32.7258110046386719
 13.1930675506591797  4.9646377563476562 31.3394241333007812
  0.3631687164306653  4.3688039779663086 34.8496551513671875
  0.1703929901123047 13.4490213394165039 34.8254241943359375
  8.7283563613891602  4.1310229301452637 34.6365318298339844
  9.2128410339355469 13.9675817489624023 34.8604507446289134
  4.3203873634338379  9.2494306564331055 34.8988685607910156
  4.2732973098754883  0.2320934981107712 34.8141098022461009
 13.8758482197299600 17.8006823658943176 35.0289955139160156
  0.1029393672943115  4.4404687881469727 40.7513732910156250
  0.2283220291137695 13.8083496093750000 40.8090019226074219
  8.7931165695190430  4.2280592918395996 40.7394142150878977
  8.9609994888305664 13.6404657363891602 40.6895294189453125
  4.5457787513732910  9.0433073043823242 40.6158218383789062
  4.5480674961581826 17.9921578764915466 40.6121215820312500
 13.7871999740600586  8.9908819198608398 40.7351493835449219
 13.5863174656406027 18.0306785926222801 40.5855293273925781
  9.0289716720581055  4.5156092643737793 46.4455223083496165
  9.0265130996704102 13.5470085144042969 46.4455223083496165
 18.0593719482421875  4.5156092643737793 46.4455223083496165
 18.0569133758544922 13.5470085144042969 46.4455223083496165
  4.5152091979980469  0.0000180629995157 46.4442062377929759
  4.5127501487731934  9.0314178466796857 46.4442062377929759
 13.5456094741821289  0.0000180629995157 46.4442062377929759
 13.5431499481201172  9.0314178466796857 46.4442062377929759
 11.2895174026489240  8.3592157363891602 31.0752754211425781
 12.4146137237548828  8.1250562667846680 30.2763366699218750
 10.8242635726928693  7.3596172332763672 31.9395751953125036
 13.1040048599243164  6.8848967552185059 30.3623962402343750
 11.5140447616577131  6.1184973716735831 32.0303344726562500
 12.6557245254516602  5.8915138244628906 31.2545146942138672
 13.2330741882324201  9.6284484863281250 33.3573799133300781
 14.9617891311645508  8.6138782501220703 34.7538070678711009
 14.2191019058227521 10.8568572998046875 35.2761039733886719
 12.6608667373657227  8.9675312042236328 35.6116714477539062
 11.9425954818725586 10.4443845748901367 33.2339706420898509
 11.6059856414794922 10.7912549972534180 31.7776985168457031
 14.7198429107666016  7.1605896949768066 34.3193511962890625
 15.4409580230712873 11.4405364990234375 34.5969009399414062
 13.0792522430419922  8.5013504028320312 36.9751052856445312
 10.6848554611206055  9.7471752166748047 31.1165657043457067
  0.6521434783935555  3.2858622074127197 35.5438957214355469
  0.5850887298583993 12.3479642868041992 35.3938217163085938
  9.9438962936401367  4.0937676429748535 35.0929527282714844
  9.3418874740600586 12.8542318344116193 35.5406723022460938
  7.7465801239013672  4.8756604194641113 35.1650581359863281
  8.4590911865234375 14.9882326126098633 35.2509727478027344
 17.9009895324707031  5.4590158462524414 35.3372192382812571
 17.6433067321777344 14.4491367340087891 35.4220046997070312
  4.0299153327941895  8.1235609054565430 35.4598274230957031
  3.2945164898410439 17.6222335696220398 35.3281936645507812
 12.7530388096347433 17.2454576492309570 35.4644470214843750
  5.4851722717285156  0.3817527592182159 35.3251800537109375
  5.1503448486328125 10.1704196929931641 35.3607673645019531
 14.5274829864501953  0.6981797218322753 35.6014938354492188
  0.9518842697143555  3.5370819568634033 41.0640945434570384
  0.9230129718780518 12.9447612762451172 41.4284362792968750
  9.8397493362426758  3.6863548755645748 41.2445983886718750
  9.7141265869140625 12.9007177352905273 41.4711418151855540
  3.8041634559631348  8.0862808227539062 41.1627235412597656
  3.7459387043491001 17.1824560761451721 41.2186851501464844
 12.9619827270507812  8.3732957839965820 41.5420379638671875
 12.6852363804355264 17.3119602203369141 41.1647453308105469
  8.0658864974975586  5.2116208076477051 41.2861976623535227
  8.0534696578979492 14.5165472030639648 41.0498771667480469
 17.4295372962951660  5.1791677474975586 41.5763702392578125
 17.2129565477371216 14.4170284271240234 41.2390518188476634
  5.3507738113403311  0.8350803256034851 41.1996879577636790
  5.3082966804504395  9.8701419830322266 41.2470817565917969
 14.4086217880249023  0.8453313112258911 41.1900863647460938
 14.5122089385986328 10.0699520111083967 40.9712371826171946
  0.8273094892501831  3.6869695186614990 47.0359649658203125
  0.8248501420021057 12.7183685302734375 47.0359649658203125
  9.8577098846435547  3.6869695186614990 47.0359649658203125
  9.8552503585815412 12.7183685302734375 47.0359649658203125
  3.6843190193176270  8.2023353576660156 47.0346527099609375
  3.6818594932556152 17.2337341308593750 47.0346527099609375
 12.7147188186645508  8.2023353576660156 47.0346527099609375
 12.7122592926025391 17.2337341308593750 47.0346527099609375
  8.2006769180297852  5.3445744514465332 47.0360260009765696
  8.1982173919677734 14.3759746551513672 47.0360260009765696
 17.2310771942138672  5.3445744514465332 47.0360260009765696
 17.2286186218261719 14.3759746551513672 47.0360260009765696
  5.3436489105224600  0.8290914893150328 47.0346527099609375
  5.3411893844604483  9.8604917526245117 47.0346527099609375
 14.3740482330322266  0.8290914893150328 47.0346527099609375
 14.3715896606445312  9.8604917526245117 47.0346527099609375
 13.7583808898925781  9.4952621459960938 34.7495880126953125
  8.9130182266235352  0.3352908194065094 34.4700355529785156
  8.4962167739868164  9.2863111495971680 34.8737220764160156
 17.9821060905233026 17.9693427085876465 34.4213829040527344
  0.6304599046707153  8.8822889328002930 34.5044555664062500
  4.2264251708984375  4.3405771255493164 34.4958038330078125
  4.6239767074584961 13.6153125762939435 34.5445976257324219
 13.5141410827636719  3.8483490943908691 34.7286720275878977
 13.0090360641479492 14.1729612350463867 34.1837539672851634
  0.0098169753327966 17.9919285029172897 40.8776969909668040
  0.2367787659168243  9.0456037521362305 40.9250297546386719
  8.9132732609286904 18.0486912913620472 40.8492469787597656
  9.1534976959228516  8.8062353134155273 41.0187072753906250
  4.5745563507080078  4.4535880088806152 40.8709068298339915
  4.5070090293884277 13.5755653381347656 40.9037055969238281
 13.3806352615356428  4.6308960914611816 40.9533157348632812
 13.5980758666992188 13.6747369766235352 40.8508567810058594
  2.6033811569213863  1.9062986373901367 38.1566390991210938
  2.6397683620452881 10.9750127792358398 37.9670104980468750
 11.7434034347534180  1.8815456628799438 38.0538139343261719
 11.1572904586791992 11.4700908660888672 38.4014663696289062
  6.3308734893798828  7.0659747123718253 37.9569778442382884
  6.4778385162353516 16.1176548004150391 37.9428634643554688
 16.0884704589843750  6.5589623451232910 38.3937149047851562
 15.5668306350708008 16.0963649749755859 37.9411430358886719
  2.0563764572143555  6.4373073577880859 38.1611671447753977
  1.9761829376220703 15.5500450134277344 37.9036598205566406
 10.4326162338256836  5.9339561462402344 38.0212860107421946
 11.0501976013183594 15.5914154052734357 38.1215858459472656
  6.9162898063659668  2.3792548179626465 38.0276832580566406
  6.9766993522644043 11.5233631134033203 38.2783355712890625
 16.0516986846923828  2.5576064586639404 38.2478446960449219
 16.5237426757812500 11.7836780548095703 38.4399719238281250
  0.0000000000000000  0.0000000000000000 47.1735610961914062
 -0.0024593239650130  9.0313997268676740 47.1735610961914062
  9.0304002761840803  0.0000000000000000 47.1735610961914062
  9.0279407501220685  9.0313997268676740 47.1735610961914062
  4.5139794349670410  4.5156998634338379 47.1742515563964844
  4.5115203857421875 13.5470991134643537 47.1742515563964844
 13.5443792343139648  4.5156998634338379 47.1742515563964844
 13.5419197082519531 13.5470991134643537 47.1742515563964844
  2.4519233703613277  2.0629522800445557 44.0401268005371165
  2.4494640827178955 11.0943517684936523 44.0401268005371165
 11.4823226928710920  2.0629522800445557 44.0401268005371165
 11.4798641204833984 11.0943517684936523 44.0401268005371165
  6.5760178565979004  6.9684472084045410 44.0401268005371165
  6.5735583305358887 15.9998464584350586 44.0401268005371165
 15.6064186096191406  6.9684472084045410 44.0401268005371165
 15.6039590835571289 15.9998464584350586 44.0401268005371165
  2.0610768795013428  6.5788145065307617 44.0400009155273509
  2.0586175918579102 15.6102142333984375 44.0400009155273509
 11.0914773941040039  6.5788145065307617 44.0400009155273509
 11.0890178680419922 15.6102142333984375 44.0400009155273509
  6.9668641090393066  2.4525938034057613 44.0400657653808665
  6.9644045829772949 11.4839935302734375 44.0400657653808665
 15.9972639083862305  2.4525938034057613 44.0400657653808665
 15.9948053359985352 11.4839935302734375 44.0400657653808665
  2.4316265583038330  2.0832188129425049 50.0684852600097656
  2.4291670322418213 11.1146183013915998 50.0684852600097656
 11.4620265960693359  2.0832188129425049 50.0684852600097656
 11.4595670700073224 11.1146183013915998 50.0684852600097656
  6.5963144302368164  6.9481806755065918 50.0684852600097656
  6.5938549041748047 15.9795799255371076 50.0684852600097656
 15.6267137527465803  6.9481806755065918 50.0684852600097656
 15.6242542266845703 15.9795799255371076 50.0684852600097656
  2.0811281204223633  6.5990090370178223 50.0690460205078125
  2.0786688327789307 15.6304082870483398 50.0690460205078125
 11.1115283966064453  6.5990090370178223 50.0690460205078125
 11.1090688705444336 15.6304082870483398 50.0690460205078125
  6.9468131065368652  2.4323906898498531 50.0690460205078125
  6.9443535804748535 11.4637899398803711 50.0690460205078125
 15.9772129058837891  2.4323906898498531 50.0690460205078125
 15.9747543334960938 11.4637899398803711 50.0690460205078125
 17.9951978474855423  0.0103891687467694 37.7734336853027344
  0.1190167814493179  9.0366888046264648 37.8272552490234375
  9.0356149673461914  0.1018354296684265 37.6619796752929688
  8.9567050933837891  8.9686193466186523 37.8454246520996094
  4.4099798202514648  4.4717478752136230 37.6642799377441406
  4.4783620834350586 13.5003976821899396 37.6254348754882812
 13.4895439147949201  4.5213294029235831 37.7375793457031321
 13.4631671905517578 13.6494159698486310 37.7008323669433594
  0.0000090280000222  0.0000090310004452 44.0429992675781250
 -0.0024502959568053  9.0314083099365234 44.0429992675781250
  9.0304088592529297  0.0000090310004452 44.0429992675781250
  9.0279493331909180  9.0314083099365234 44.0429992675781250
  4.5139703750610352  4.5156903266906738 44.0427513122558594
  4.5115113258361816 13.5470905303955078 44.0427513122558594
 13.5443706512451172  4.5156903266906738 44.0427513122558594
 13.5419111251831037 13.5470905303955078 44.0427513122558594
  0.0000000000000000  0.0000000000000000 50.4472808837890696
 -0.0024593239650130  9.0313997268676740 50.4472808837890696
  9.0304002761840803  0.0000000000000000 50.4472808837890696
  9.0279407501220685  9.0313997268676740 50.4472808837890696
  4.5139703750610352  4.5156998634338379 50.4472808837890696
  4.5115113258361816 13.5470991134643537 50.4472808837890696
 13.5443706512451172  4.5156998634338379 50.4472808837890696
 13.5419111251831055 13.5470991134643537 50.4472808837890696
