 H  C  N  I Pb 
 1.0000000000000000
    18.0608005523681641    0.0000000000000000    0.0000000000000000
    -0.0049186488613486   18.0627994537353516    0.0000000000000000
     0.0000000000000000    0.0000000000000000   62.4874992370605469
 H   C   N   I   Pb 
 143  39  47  72  24
Cartesian
  8.0013713836669922  5.9197263717651367 35.5445938110351562
  7.5782756805419922 14.9643869400024414 35.5528602600097656
 17.4073104858398438  5.8116216659545898 36.1341629028320312
 17.1163845062255859 14.6916685104370117 35.9675254821777344
  5.8703297832980752 17.2205417156219482 35.7920074462890625
  6.1951913833618164 10.1588068008422852 35.4187393188476562
 14.4792022705078107  1.4440536499023438 35.8830642700195312
  0.3130092620849604  2.4924302101135254 35.0840759277343821
  1.1614246368408212 11.7833194732666016 35.4796676635742259
 10.1122817993164062  3.1265141963958740 34.6181831359863352
  9.1839456558227539 11.7359762191772461 35.1610946655273509
  6.5568170547485352  0.3792520761489868 34.7704200744628906
  5.1554255485534668 11.3762521743774414 34.7115745544433594
 15.7573595046997070  0.4108527302742004 35.2644348144531250
 17.5094165802001953  3.3525722026824951 36.3011245727539062
 17.9639606475830078 12.4043588638305664 36.4945182800292969
 10.1318540573120099  4.6437010765075684 35.5010604858398438
  7.8680849075317383 12.5270738601684570 35.9767456054687500
  5.1709976196289062  7.9104452133178711 35.8316040039062571
  3.4459637859836221 16.8110666275024414 35.6574478149414062
 12.1644592285156232  0.5605108141899109 35.6974983215332102
  6.6336560249328604  5.1451601982116699 34.7838478088378977
  8.7855453491210938 15.7570037841796857 34.5959167480468750
  0.3474578857421863  6.5753765106201172 34.9294166564941406
 17.9704093933105469 15.5680847167968750 34.7345275878906250
  3.5496907234191895  7.6946702003479004 35.2469635009765625
  2.4888402679935098 17.8892423510551453 34.6870460510253977
 12.0098480442538857 17.0050544738769531 35.0512733459472656
  7.8613343238830566  3.3239436149597168 34.0751762390136719
  9.9681425094604492 13.7652511596679688 34.2338333129882884
  1.0219593048095716  4.4890508651733398 34.0314331054687571
  1.3562908172607442 13.7882165908813459 34.2536659240722656
  3.3713488578796387  9.8484992980957031 34.4804344177246094
  4.4090962409973145  1.0410461425781250 34.0043525695800781
 14.2531971195712686 16.7805918455123901 34.6669464111328196
  8.7285442352294922  6.0671916007995605 41.7237205505371094
  7.9777588844299316 14.6988153457641602 42.0893592834472727
 17.4729102253913879  5.0650138854980469 42.4183273315429688
 16.6854292154312134 13.1884622573852539 42.0527305603027344
  5.6228003501892090  0.9505671858787537 41.9080276489257812
  5.4068207740783691  9.9477005004882795 42.2082633972167969
 14.3154382705688477  1.1080793142318726 42.1979331970214915
 13.7016506195068359 10.7687053680419922 41.4556808471679759
  1.5183874368667603  2.9546053409576416 40.3103256225585938
  1.9687117338180540 12.9785585403442383 40.6818580627441406
 10.5097742080688459  3.1316902637481689 40.5657806396484375
 10.1987991333007812 12.0919828414916974 40.7346458435058594
  3.2940988540649414  7.4909505844116202 40.4684295654296875
  3.1007084110751744 16.6508568525314331 40.6024398803710938
 12.8235483169555664  7.2453308105468750 41.3545265197753977
 12.2377838352695107 16.5864025354385376 40.6157913208007812
  1.1594767570495605  3.1980865001678467 41.9964141845703125
  0.9659169316291809 12.2424840927124006 41.8827171325683665
 10.7755603790283203  4.6521677970886230 41.3267478942871165
  9.5723085403442383 12.6505451202392578 42.2681694030761719
  3.6178774833679199  8.0531711578369141 42.0913963317871094
  3.7271262863650918 17.2061622738838196 42.1283721923828196
 12.2158432006835938  8.8038768768310547 41.8865585327148438
 12.4789413670077920 17.3145228624343872 42.1739311218261719
  7.2101521492004395  5.3393111228942871 41.2379455566406250
  7.7260494232177734 15.2522230148315412 40.4667701721191477
 16.9042255878448486  5.8777017593383780 40.9963264465332031
 16.2972797155380285 14.4450654983520508 40.9160385131835938
  6.0044112205505371  1.3604065179824829 40.2643280029296875
  6.0148887634277344 10.4448251724243146 40.6552200317382812
 15.0571918487548828  1.3962435722351072 40.6567115783691406
 15.1320285797119141 10.4678258895874006 40.5059013366699219
  0.1159846112132072  4.6235995292663574 39.5494422912597656
  0.3206866979598998 14.4349288940429670 39.9431648254394531
  8.2291669845581055  3.4560630321502686 40.3575286865234446
  9.0908613204956055 13.6744747161865234 39.4981307983398438
  4.4617642620578408 17.9890900924801826 39.3250770568847656
  4.7326579093933105  8.9378633499145508 39.4526977539062571
 13.8541769245639443 17.8514264523983002 39.5499343872070312
 14.6976451873779297  8.1755571365356445 40.3443222045898438
  8.1032123565673828  5.4420318603515616 48.0459518432617259
  8.1007528305053711 14.4734306335449219 48.0459518432617259
 17.1336116790771484  5.4420318603515616 48.0459518432617259
 17.1311531066894531 14.4734306335449219 48.0459518432617259
  5.4410333633422852  0.9265221953392029 48.0449485778808594
  5.4385743141174316  9.9579219818115234 48.0449485778808594
 14.4714326858520490  0.9265221953392029 48.0449485778808594
 14.4689741134643555  9.9579219818115234 48.0449485778808594
  1.4218254089355467  3.0919990539550781 46.4558296203613281
  1.4193661212921143 12.1233978271484375 46.4558296203613281
 10.4522256851196289  3.0919990539550781 46.4558296203613281
 10.4497661590576172 12.1233978271484375 46.4558296203613281
  3.0899283885955806  7.6075901985168457 46.4545211791992188
  3.0874691009521484 16.6389904022216797 46.4545211791992188
 12.1203289031982422  7.6075901985168457 46.4545211791992188
 12.1178693771362305 16.6389904022216797 46.4545211791992188
  0.9247469902038573  3.5893490314483643 48.0459518432617259
  0.9222877025604248 12.6207475662231445 48.0459518432617259
  9.9551477432250977  3.5893490314483643 48.0459518432617259
  9.9526882171630859 12.6207475662231445 48.0459518432617259
  3.5868983268737793  8.1048498153686523 48.0448913574218821
  3.5844390392303462 17.1362495422363281 48.0448913574218821
 12.6172990798950195  8.1048498153686523 48.0448913574218821
 12.6148395538330078 17.1362495422363281 48.0448913574218821
  7.6061611175537109  5.9393639564514160 46.4558296203613281
  7.6037015914916992 14.9707632064819336 46.4558296203613281
 16.6365604400634766  5.9393639564514160 46.4558296203613281
 16.6341018676757812 14.9707632064819336 46.4558296203613281
  5.9380125999450684  1.4238001108169553 46.4545211791992188
  5.9355530738830566 10.4551992416381836 46.4545211791992188
 14.9684123992919904  1.4238001108169553 46.4545211791992188
 14.9659538269042951 10.4551992416381836 46.4545211791992188
 -0.0011664569610730  4.5157265663146973 45.3548011779785156
 -0.0036257810425013 13.5471258163452148 45.3548011779785156
  9.0292339324951172  4.5157265663146973 45.3548011779785156
  9.0267744064331037 13.5471258163452148 45.3548011779785156
  4.5152091979980469  0.0000000000000000 45.3536758422851562
  4.5127501487731934  9.0313997268676740 45.3536758422851562
 13.5456094741821289  0.0000000000000000 45.3536758422851562
 13.5431499481201172  9.0313997268676740 45.3536758422851562
 13.9976348876953125 10.0267162322998047 32.5044174194335938
 13.0237455368041992  8.6002616882324219 32.8328666687011719
 15.7264413833618164  9.0499315261840820 33.8261375427246094
 15.4626741409301758  8.7023773193359375 35.5172271728515625
 13.4203138351440412 11.5657615661621094 34.9652519226074219
 14.5763320922851562 10.8118572235107404 36.0883445739746094
 12.0460443496704102  9.9180183410644531 35.6154785156250071
 12.2221641540527344  8.2664413452148438 35.0420951843261719
 11.1253528594970685 10.0102920532226562 33.6072921752929688
 12.1220750808715820 11.4780559539794922 33.4696693420410227
 10.9485626220703125 11.6369247436523438 31.5225086212158239
 12.3989152908325195 10.8516988754272461 30.9279346466064453
 14.2783660888671875  7.0693569183349609 33.1612930297851562
 14.0462341308593750  6.6746869087219238 34.8584709167480469
 15.6493158340454102  6.6395153999328613 34.1436309814453196
 15.6019773483276367 12.5506849288940430 34.7247772216796875
 15.2589302062988281 11.6952934265136719 33.2213363647460938
 16.3940505981445312 10.9884862899780273 34.4120941162109446
 13.7100782394409162  9.5518093109130859 37.4614601135253906
 14.0161762237548828  7.8942151069641113 36.8882789611816406
 12.4176683425903320  8.3700628280639648 37.4726753234863281
  9.6501340866088867  9.5671281814575195 31.4591579437255859
 10.4134807586669904  9.8859777450561523 29.8990650177001953
 12.5595407485961914  8.5979557037353516 29.2528629302978551
 10.1420936584472656  7.5647091865539551 32.6938171386718750
 13.7462186813354492  6.4168028831481934 29.4532947540283239
 11.3671674728393555  5.4001641273498535 32.8831634521484375
 13.1709403991699219  4.8299326896667480 31.2996921539306676
  0.3667259216308620  4.5286660194396973 34.9037170410156250
  0.5947628021240245 13.6851015090942383 35.0218696594238281
  8.3550434112548828  4.1312460899353027 34.6135749816894531
  9.0388517379760742 13.7489004135131818 34.8131484985351562
  4.3249177932739258  9.5280437469482422 34.9023628234863352
  4.5121550559997559  0.1847214698791504 34.6672248840332031
 13.8910593250766397 17.7096025347709656 35.1137351989746094
  0.1777401417493820  4.4190196990966797 40.6260643005371094
  0.1020691543817520 13.7380256652832031 40.7556800842285156
  8.8335838317871094  4.2195663452148438 40.8399276733398438
  8.9636363983154297 13.6775302886962891 40.5667190551757884
  4.6549105644226074  8.9641780853271484 40.5426979064941406
  4.5501155117526642 18.0415134914219379 40.4134101867675781
 14.0002393722534180  8.8259525299072266 40.8854827880859446
 13.6577295521274209 18.0155333988368511 40.6115951538085938
  9.0289716720581055  4.5156092643737793 46.4455223083496165
  9.0265130996704102 13.5470085144042969 46.4455223083496165
 18.0593719482421875  4.5156092643737793 46.4455223083496165
 18.0569133758544922 13.5470085144042969 46.4455223083496165
  4.5152091979980469  0.0000180629995157 46.4442062377929759
  4.5127501487731934  9.0314178466796857 46.4442062377929759
 13.5456094741821289  0.0000180629995157 46.4442062377929759
 13.5431499481201172  9.0314178466796857 46.4442062377929759
 11.2681026458740234  8.2428483963012695 30.9797897338867188
 12.2791013717651367  7.8893170356750488 30.0654830932617188
 10.9261178970336914  7.3155093193054199 31.9756717681884766
 12.9605398178100586  6.6798386573791495 30.1780338287353516
 11.6070356369018537  6.1028099060058594 32.0841102600097656
 12.6379585266113281  5.7822818756103516 31.1978054046630859
 13.2111434936523420  9.6320991516113281 33.1492195129394531
 15.0086984634399414  8.6153030395507812 34.5236663818359375
 14.2980642318725586 10.9219083786010742 35.0312423706054688
 12.7617979049682617  9.0944700241088867 35.5233612060546875
 11.9429311752319318 10.4714422225952148 33.0260581970214844
 11.5149450302124023 10.7017345428466797 31.5620250701904297
 14.7012195587158203  7.1864047050476074 34.1618156433105540
 15.4614505767822248 11.5507688522338867 34.2875671386718821
 13.2775983810424805  8.7135000228881836 36.8934249877929688
 10.6290397644042969  9.6046590805053711 30.9392929077148473
  0.0551223754882833  3.4026467800140381 35.4718017578125000
  0.5816059112548853 12.5824346542358398 35.7301292419433594
  9.6402273178100586  3.9934597015380859 34.8623695373535156
  8.6562213897705078 12.6003446578979492 35.3217163085937500
  7.6400189399719238  5.1599125862121582 34.9556274414062500
  8.3851299285888672 14.8795652389526367 34.9412994384765696
 18.0279026031494141  5.7053442001342773 35.3183898925781250
 17.8198032379150391 14.6797008514404297 35.2112655639648509
  4.3947825431823730  8.2658853530883789 35.2670936584472656
  3.4250952461734414 17.5717226862907410 34.9808959960937500
 12.5982565144076943 17.8328902125358617 35.2364463806152415
  5.6979536274448037 17.9498560875654221 35.1041793823242259
  5.2987165451049805 10.3903779983520490 35.0083847045898438
 14.7616453170776367  0.5603711605072021 35.4727134704589844
  0.9986794590950012  3.4548075199127197 41.0256233215332031
  1.0611829757690430 12.9090423583984375 41.1272964477539062
 10.1222333908081055  3.9831500053405762 40.9295425415039062
  9.6067905426025391 12.7597103118896484 41.2496643066406250
  3.8165524005889888  8.1190166473388672 41.0839958190917969
  3.7478374699130654 17.2667251825332677 41.1105690002441406
 12.9279584884643555  8.2712802886962891 41.3879280090332031
 12.7433857182040811 17.2680208683013916 41.1892204284667969
  8.2301664352416992  5.2912125587463379 41.2653274536132812
  8.1885728836059570 14.5969572067260742 41.0908508300781250
 17.4968680739402807  5.1540584564208984 41.4026145935058594
 16.9876648187637365 13.8153696060180646 41.3090858459472727
  5.4422521591186523  0.8032817244529724 40.9058418273925781
  5.4031896591186523  9.8272676467895508 41.1954078674316406
 14.3781251907348633  0.8729778528213501 41.2000770568847656
 14.2934579849243164 10.1014795303344727 40.9707794189453125
  0.8273094892501831  3.6869695186614990 47.0359649658203125
  0.8248501420021057 12.7183685302734375 47.0359649658203125
  9.8577098846435547  3.6869695186614990 47.0359649658203125
  9.8552503585815412 12.7183685302734375 47.0359649658203125
  3.6843190193176270  8.2023353576660156 47.0346527099609375
  3.6818594932556152 17.2337341308593750 47.0346527099609375
 12.7147188186645508  8.2023353576660156 47.0346527099609375
 12.7122592926025391 17.2337341308593750 47.0346527099609375
  8.2006769180297852  5.3445744514465332 47.0360260009765696
  8.1982173919677734 14.3759746551513672 47.0360260009765696
 17.2310771942138672  5.3445744514465332 47.0360260009765696
 17.2286186218261719 14.3759746551513672 47.0360260009765696
  5.3436489105224600  0.8290914893150328 47.0346527099609375
  5.3411893844604483  9.8604917526245117 47.0346527099609375
 14.3740482330322266  0.8290914893150328 47.0346527099609375
 14.3715896606445312  9.8604917526245117 47.0346527099609375
 13.8272027969360352  9.5607185363769513 34.5427894592285156
  9.1339397430419922  0.3514358401298523 34.4588851928710938
  8.5947103500366211  9.0288925170898438 34.6880035400390625
  0.0148195000365376  0.0377780534327030 34.3505706787109375
  0.7191801071166992  9.1136064529418945 34.5571708679199219
  4.1708321571350098  4.3541531562805176 34.4849510192871094
  4.5066905021667480 13.8733978271484375 34.5875205993652344
 13.2817077636718750  3.6499471664428711 34.6994552612304759
 12.7322425842285138 14.3112888336181641 34.5359001159667969
  0.0284804562106729 17.7329264283180237 40.8693008422851562
  0.0864496678113937  8.9655904769897461 40.9450263977050852
  9.0806379318237305  0.2394366860389709 40.8792648315429759
  9.2991304397583008  8.8099756240844727 40.9268379211425852
  4.7012019157409668  4.4366116523742676 40.8960571289062571
  4.5368571281433105 13.6397781372070312 40.9116897583007812
 13.6380605697631836  4.7570962905883789 40.9115753173828125
 13.4513540267944336 13.6179132461547852 40.8725929260253906
  2.4274344444274902  1.9447467327117920 37.9960289001464844
  2.6747481822967525 10.9536294937133789 38.1143646240234446
 11.7044744491577148  1.8991934061050415 38.1380538940429688
 11.1457929611206055 11.4239864349365234 38.2545394897460938
  6.5029268264770508  6.9269294738769531 37.8817176818847656
  6.7132320404052734 15.9436740875244123 37.9690971374511719
 16.1168880462646484  6.5777387619018555 38.2442359924316406
 15.7495441436767560 15.7268753051757812 37.9367942810058594
  2.2576651573181152  6.5976896286010742 38.1242370605468750
  2.2537717819213867 15.7337608337402344 37.9322357177734375
 10.5763711929321271  6.0180163383483878 37.6325721740722656
 11.1426210403442383 15.7745141983032227 38.2088661193847656
  6.9741096496582022  2.4264216423034664 37.8608055114746094
  6.9301958084106445 11.3508005142211896 38.2157211303710938
 16.0019016265869141  2.4240291118621822 38.2368392944336009
 16.3252563476562500 11.5670499801635742 38.2942924499511790
  0.0000000000000000  0.0000000000000000 47.1735610961914062
 -0.0024593239650130  9.0313997268676740 47.1735610961914062
  9.0304002761840803  0.0000000000000000 47.1735610961914062
  9.0279407501220685  9.0313997268676740 47.1735610961914062
  4.5139794349670410  4.5156998634338379 47.1742515563964844
  4.5115203857421875 13.5470991134643537 47.1742515563964844
 13.5443792343139648  4.5156998634338379 47.1742515563964844
 13.5419197082519531 13.5470991134643537 47.1742515563964844
  2.4519233703613277  2.0629522800445557 44.0401268005371165
  2.4494640827178955 11.0943517684936523 44.0401268005371165
 11.4823226928710920  2.0629522800445557 44.0401268005371165
 11.4798641204833984 11.0943517684936523 44.0401268005371165
  6.5760178565979004  6.9684472084045410 44.0401268005371165
  6.5735583305358887 15.9998464584350586 44.0401268005371165
 15.6064186096191406  6.9684472084045410 44.0401268005371165
 15.6039590835571289 15.9998464584350586 44.0401268005371165
  2.0610768795013428  6.5788145065307617 44.0400009155273509
  2.0586175918579102 15.6102142333984375 44.0400009155273509
 11.0914773941040039  6.5788145065307617 44.0400009155273509
 11.0890178680419922 15.6102142333984375 44.0400009155273509
  6.9668641090393066  2.4525938034057613 44.0400657653808665
  6.9644045829772949 11.4839935302734375 44.0400657653808665
 15.9972639083862305  2.4525938034057613 44.0400657653808665
 15.9948053359985352 11.4839935302734375 44.0400657653808665
  2.4316265583038330  2.0832188129425049 50.0684852600097656
  2.4291670322418213 11.1146183013915998 50.0684852600097656
 11.4620265960693359  2.0832188129425049 50.0684852600097656
 11.4595670700073224 11.1146183013915998 50.0684852600097656
  6.5963144302368164  6.9481806755065918 50.0684852600097656
  6.5938549041748047 15.9795799255371076 50.0684852600097656
 15.6267137527465803  6.9481806755065918 50.0684852600097656
 15.6242542266845703 15.9795799255371076 50.0684852600097656
  2.0811281204223633  6.5990090370178223 50.0690460205078125
  2.0786688327789307 15.6304082870483398 50.0690460205078125
 11.1115283966064453  6.5990090370178223 50.0690460205078125
 11.1090688705444336 15.6304082870483398 50.0690460205078125
  6.9468131065368652  2.4323906898498531 50.0690460205078125
  6.9443535804748535 11.4637899398803711 50.0690460205078125
 15.9772129058837891  2.4323906898498531 50.0690460205078125
 15.9747543334960938 11.4637899398803711 50.0690460205078125
 18.0026928381994367 18.0187416523694992 37.8312225341796875
  0.1632867008447647  9.0508022308349609 37.8344955444335938
  9.0535879135131836  0.1280609369277954 37.7293434143066406
  8.9925289154052734  8.8988027572631836 37.7917366027832031
  4.4187660217285156  4.3958745002746582 37.6398620605468821
  4.4830904006958008 13.4666433334350586 37.7454757690429688
 13.3986845016479492  4.4760832786560059 37.6685447692871094
 13.2635936737060547 13.6763696670532227 37.6216087341308594
  0.0000090280000222  0.0000090310004452 44.0429992675781250
 -0.0024502959568053  9.0314083099365234 44.0429992675781250
  9.0304088592529297  0.0000090310004452 44.0429992675781250
  9.0279493331909180  9.0314083099365234 44.0429992675781250
  4.5139703750610352  4.5156903266906738 44.0427513122558594
  4.5115113258361816 13.5470905303955078 44.0427513122558594
 13.5443706512451172  4.5156903266906738 44.0427513122558594
 13.5419111251831037 13.5470905303955078 44.0427513122558594
  0.0000000000000000  0.0000000000000000 50.4472808837890696
 -0.0024593239650130  9.0313997268676740 50.4472808837890696
  9.0304002761840803  0.0000000000000000 50.4472808837890696
  9.0279407501220685  9.0313997268676740 50.4472808837890696
  4.5139703750610352  4.5156998634338379 50.4472808837890696
  4.5115113258361816 13.5470991134643537 50.4472808837890696
 13.5443706512451172  4.5156998634338379 50.4472808837890696
 13.5419111251831055 13.5470991134643537 50.4472808837890696
