 H  C  N  I Pb 
 1.0000000000000000
    18.0608005523681641    0.0000000000000000    0.0000000000000000
    -0.0049186488613486   18.0627994537353516    0.0000000000000000
     0.0000000000000000    0.0000000000000000   62.4874992370605469
 H   C   N   I   Pb 
 143  39  47  72  24
Cartesian
  8.1981534957885742  5.5154533386230469 36.3271255493164134
  8.0454025268554688 14.6104774475097656 36.2661323547363281
 17.2910175323486328  5.5969901084899902 36.0370407104492259
 17.4735488891601562 14.7008390426635742 36.3130683898925781
  5.6641249656677246  0.7145972251892090 36.3080024719238281
  5.4513115882873535  9.9848718643188477 36.3088722229003906
 14.2064151763915998  1.0232775211334229 36.3960609436035156
  1.3763427734375040  2.7353062629699707 35.0759620666503906
  1.2851238250732397 11.9650850296020508 34.7431907653808594
 10.5941581726074219  3.3269276618957520 34.8165473937988352
 10.2392501831054688 12.0672407150268555 34.9147644042968750
  6.0381937026977530  1.2585539817810059 34.7158470153808594
  5.7893962860107422 10.5557355880737305 34.7172508239746094
 14.8574171066284180  1.4905275106430054 34.8684272766113281
  0.7062377929687518  3.5163550376892090 36.4894485473632812
  0.9676895141601551 12.7086992263793945 36.2768135070800781
 10.1702585220336914  4.0740694999694824 36.3127021789550781
  9.5543518066406250 12.6524419784545898 36.4052314758300781
  3.6674907207489009  8.0617742538452148 36.3866081237792969
  3.6011208752170205 17.1499601602554321 36.4053993225097656
 12.5951790073886514 17.0186905860900879 36.2875976562500000
  7.3202567100524893  5.7290029525756836 34.8145942687988281
  7.8094458580017090 15.3304214477539062 34.6734466552734375
 17.0911922454833984  5.9189109802246085 34.3455924987792969
 16.8100242614746094 15.1385707855224609 34.8057899475097656
  3.0561652183532715  7.6079902648925772 34.8376121520996165
  2.8725241879001260 16.8396219015121460 34.8711547851562500
 12.3968290546908975 16.3701730966568029 34.6975517272949219
  8.8310451507568359  4.3197312355041504 33.6535377502441477
  9.2014627456665039 13.7242403030395508 33.6358985900878906
  0.3116188049316420  4.2653422355651855 33.5600318908691406
 17.9497337341308594 13.5088348388671875 33.5948028564453196
  4.3411579132080078  9.1444826126098633 33.6236305236816406
  4.3047227859497070  0.0952793434262276 33.6483306884765696
 13.8049549320712686 17.9128278791904449 33.6404190063476562
  8.1676197052001953  5.5053348541259766 42.2061195373535227
  8.1582651138305664 14.3386955261230469 42.1943511962890625
 17.0219264030456543  5.4951543807983398 41.9958114624023438
 17.0991344451904297 14.5161752700805664 42.2048377990722656
  5.3398284912109375  0.9309231042861938 42.1975860595703196
  5.3759136199951172  9.9227705001831055 42.1704559326171875
 14.5008316040039062  0.9455741047859192 42.1244964599609446
 14.5068483352661133 10.1635370254516602 42.2109184265136719
  1.4132212400436399  3.1000924110412598 40.6790122985839844
  1.4173219203948975 12.1184730529785138 40.6655883789062500
 10.3663997650146484  3.0119676589965820 40.6086769104003977
 10.3605489730834961 12.0979776382446289 40.3883132934570384
  3.0603110790252686  7.6006574630737305 40.5023803710937571
  3.1071292618289590 16.5976240634918213 40.4760322570800781
 12.2525777816772461  7.5764541625976562 40.7936172485351562
 12.0199751118198037 16.7235260009765625 40.5940513610839844
  0.8027113676071167  3.6866471767425537 42.2466392517089844
  0.8188260793685913 12.6338205337524414 42.2697563171386719
  9.9623298645019531  3.6514956951141357 42.1879425048828125
  9.9610748291015625 12.5085506439208967 42.0026550292968821
  3.5801713466644287  8.1032428741455078 42.1046524047851562
  3.5869263866916299 17.1048566102981567 42.0989189147949290
 12.6774768829345703  8.2925834655761719 42.2835884094238281
 12.5788740376010537 17.2914097309112549 42.1729431152343821
  7.5466346740722647  5.9772868156433105 40.6231880187988281
  7.5247902870178214 14.9723300933837891 40.6754379272461009
 16.6030240058898926  5.9115562438964844 40.3799247741699290
 16.6418368816375768 15.1028728485107422 40.6069602966308594
  5.8969330787658691  1.5414365530014038 40.6371154785156250
  5.9442605972290039 10.4971303939819336 40.5962562561035156
 15.0831136703491211  1.3920273780822754 40.5203704833984375
 15.0483493804931641 10.4399528503417969 40.5884170532226562
  0.0829024910926819  4.4090456962585449 39.3977890014648509
  0.0506758689880371 13.6160898208618164 39.4892463684082031
  8.8727092742919922  4.3865008354187012 39.5551261901855469
  8.8961677551269531 13.5753364562988281 39.3998718261718750
  4.5089631080627441  0.0537410825490952 39.4444198608398509
  4.5228090286254874  9.0732469558715820 39.4336013793945312
 13.5457109669223428 18.0460473895072937 39.4463653564453196
 13.7849493026733398  8.9032497406005859 39.5779457092285156
  8.1032123565673828  5.4420318603515616 48.0459518432617259
  8.1007528305053711 14.4734306335449219 48.0459518432617259
 17.1336116790771484  5.4420318603515616 48.0459518432617259
 17.1311531066894531 14.4734306335449219 48.0459518432617259
  5.4410333633422852  0.9265221953392029 48.0449485778808594
  5.4385743141174316  9.9579219818115234 48.0449485778808594
 14.4714326858520490  0.9265221953392029 48.0449485778808594
 14.4689741134643555  9.9579219818115234 48.0449485778808594
  1.4218254089355467  3.0919990539550781 46.4558296203613281
  1.4193661212921143 12.1233978271484375 46.4558296203613281
 10.4522256851196289  3.0919990539550781 46.4558296203613281
 10.4497661590576172 12.1233978271484375 46.4558296203613281
  3.0899283885955806  7.6075901985168457 46.4545211791992188
  3.0874691009521484 16.6389904022216797 46.4545211791992188
 12.1203289031982422  7.6075901985168457 46.4545211791992188
 12.1178693771362305 16.6389904022216797 46.4545211791992188
  0.9247469902038573  3.5893490314483643 48.0459518432617259
  0.9222877025604248 12.6207475662231445 48.0459518432617259
  9.9551477432250977  3.5893490314483643 48.0459518432617259
  9.9526882171630859 12.6207475662231445 48.0459518432617259
  3.5868983268737793  8.1048498153686523 48.0448913574218821
  3.5844390392303462 17.1362495422363281 48.0448913574218821
 12.6172990798950195  8.1048498153686523 48.0448913574218821
 12.6148395538330078 17.1362495422363281 48.0448913574218821
  7.6061611175537109  5.9393639564514160 46.4558296203613281
  7.6037015914916992 14.9707632064819336 46.4558296203613281
 16.6365604400634766  5.9393639564514160 46.4558296203613281
 16.6341018676757812 14.9707632064819336 46.4558296203613281
  5.9380125999450684  1.4238001108169553 46.4545211791992188
  5.9355530738830566 10.4551992416381836 46.4545211791992188
 14.9684123992919904  1.4238001108169553 46.4545211791992188
 14.9659538269042951 10.4551992416381836 46.4545211791992188
 -0.0011664569610730  4.5157265663146973 45.3548011779785156
 -0.0036257810425013 13.5471258163452148 45.3548011779785156
  9.0292339324951172  4.5157265663146973 45.3548011779785156
  9.0267744064331037 13.5471258163452148 45.3548011779785156
  4.5152091979980469  0.0000000000000000 45.3536758422851562
  4.5127501487731934  9.0313997268676740 45.3536758422851562
 13.5456094741821289  0.0000000000000000 45.3536758422851562
 13.5431499481201172  9.0313997268676740 45.3536758422851562
 14.2515192031860352 10.2601528167724609 33.1419639587402415
 13.3317251205444336  8.7630453109741211 33.2441177368164062
 15.8056230545043928  9.1285324096679688 34.4961585998535156
 15.3447856903076172  8.6242961883544922 36.1468620300292969
 13.4128055572509748 11.5556373596191406 35.6175918579101562
 14.5348138809204084 10.6296701431274396 36.7219696044921946
 11.7949409484863281  9.7105722427368164 35.8723182678222656
 12.2747697830200178  8.1612529754638672 35.1439094543457031
 11.3053865432739258  9.9745597839355469 33.9710502624511790
 12.2314338684082031 11.4750795364379883 34.0781478881835938
 11.4134559631347638 11.9635477066040039 32.0970916748046946
 12.7229261398315412 11.0300178527832013 31.4796447753906286
 14.8287630081176758  7.1435832977294922 33.5217933654785156
 13.6497364044189453  6.9676656723022461 34.9039154052734446
 15.3119459152221680  6.6025419235229492 35.1792106628417969
 15.6949357986450195 12.4170570373535156 35.2028465270996165
 15.3963384628295881 11.3030548095703107 33.8713912963867188
 16.4862632751464844 10.8386249542236310 35.2424278259277415
 13.9247579574584961  9.0025300979614258 37.4790763854980469
 13.3546009063720703  7.3564891815185547 37.1131629943847656
 12.2840356826782227  8.5239410400390625 37.9512329101562571
  9.9497699737548828  9.9287309646606445 32.0430030822753906
 10.5594148635864258 10.2986755371093750 30.4264659881591797
 12.8825845718383789  9.1095399856567383 29.9869518280029332
 10.1021213531494141  7.6953058242797852 32.9155731201171875
 13.9748916625976545  6.9049768447875968 29.9671840667724645
 11.1790637969970703  5.5130538940429688 32.9325523376464915
 13.1726741790771484  5.1094570159912109 31.4360618591308629
  0.1813697814941380  4.3537793159484863 34.6396560668945312
  0.0368003845214835 13.5602941513061523 34.7189979553222656
  8.9955902099609375  4.4946041107177734 34.7517738342285156
  9.0481605529785156 13.6724538803100568 34.7130088806152344
  4.3980245590209961  9.0594587326049805 34.7283363342285156
  4.4287366867065430  0.0023195128887892 34.7475547790527415
 13.6472467640414834 17.9845630899071693 34.7371788024902344
 18.0523651428520715  4.4919300079345703 40.5344352722167969
  0.0160324405878782 13.5954551696777344 40.6263465881347656
  8.9725694656372070  4.4734625816345215 40.6108856201171875
  8.9487714767456055 13.5306739807128906 40.5316352844238281
  4.5203099250793457  9.0597743988037109 40.5596809387207031
  4.4877271652221680  0.0202539823949337 40.5692405700683594
 13.6502037048339844  9.0040626525878906 40.6761054992675781
 13.5375194549560547  0.0139988176524639 40.5694999694824219
  9.0289716720581055  4.5156092643737793 46.4455223083496165
  9.0265130996704102 13.5470085144042969 46.4455223083496165
 18.0593719482421875  4.5156092643737793 46.4455223083496165
 18.0569133758544922 13.5470085144042969 46.4455223083496165
  4.5152091979980469  0.0000180629995157 46.4442062377929759
  4.5127501487731934  9.0314178466796857 46.4442062377929759
 13.5456094741821289  0.0000180629995157 46.4442062377929759
 13.5431499481201172  9.0314178466796857 46.4442062377929759
 11.3849325180053693  8.5867280960083008 31.3791503906250000
 12.4708795547485352  8.3416786193847656 30.5644569396972656
 10.9233760833740234  7.5483231544494629 32.1855087280273438
 13.1333141326904297  7.0484561920166016 30.5728073120117188
 11.5742874145507795  6.2650642395019531 32.2401084899902415
 12.6775941848754883  6.0301628112792960 31.4289054870605504
 13.4272603988647461  9.7669534683227539 33.6306228637695312
 15.0083522796630859  8.6867227554321289 35.0894660949707031
 14.2562179565429688 10.8335657119750977 35.6780853271484375
 12.5912961959838849  8.9706268310546875 35.8094711303710938
 12.1082201004028303 10.5777606964111328 33.5199813842773438
 11.8359241485595703 10.9553413391113281 32.0722503662109375
 14.6702136993408203  7.2841539382934570 34.6040878295898438
 15.5428705215454102 11.3595256805419922 34.9651412963867188
 13.0564041137695312  8.4474792480468750 37.1675834655761719
 10.8268537521362305  9.9962453842163086 31.4370212554931641
  0.8173122406005866  3.4739577770233154 35.4709396362304688
  0.8033180236816411 12.6765966415405273 35.3038635253906250
 10.0057048797607422  3.9271502494812007 35.3452453613281321
  9.6473016738891602 12.7253236770629865 35.3827171325683594
  8.0909481048583984  5.3120236396789551 35.3660125732421875
  8.2127466201782227 14.6116094589233398 35.2958641052246165
 17.4847888946533203  5.3423938751220694 35.0854606628417969
 17.4354228973388672 14.5144529342651367 35.3283805847167969
  3.6634268760681148  8.1896200180053711 35.3356361389160227
  3.5790843227878213 17.3035924434661865 35.3594398498535227
 12.8180450657382607 17.0588592290878296 35.2582321166992188
  5.4485015869140625  0.7125566601753235 35.2741012573242259
  5.2755651473999023  9.9318609237670881 35.2692794799804688
 14.2878675460815430  0.8640655279159546 35.3530387878417969
  0.7536994218826293  3.7422139644622803 41.1873931884765625
  0.7759703397750854 12.7741394042968750 41.2157516479492259
  9.7810516357421875  3.6924364566802979 41.1967468261718750
  9.8245964050292969 12.6452436447143555 41.0213851928710938
  3.6727638244628906  8.1650133132934570 41.1301498413085938
  3.7143003204837437 17.2503858804702759 41.1340293884277344
 12.8097991943359357  8.2468338012695312 41.2990379333496165
 12.6972135761752725 17.3582206368446350 41.1980209350585938
  8.1604537963867188  5.3988194465637207 41.2273826599121094
  8.1574144363403320 14.3397474288940430 41.2057037353515696
 17.1470136642456055  5.3750281333923340 41.0232543945312500
 17.2348136305809021 14.4622974395751953 41.1558303833007884
  5.3124566078186035  0.9071134328842163 41.2151489257812571
  5.2901663780212402  9.8365964889526367 41.1942787170410156
 14.4513502120971680  0.8560861349105835 41.1464195251464844
 14.4767675399780273  9.9502553939819318 41.1809997558593750
  0.8273094892501831  3.6869695186614990 47.0359649658203125
  0.8248501420021057 12.7183685302734375 47.0359649658203125
  9.8577098846435547  3.6869695186614990 47.0359649658203125
  9.8552503585815412 12.7183685302734375 47.0359649658203125
  3.6843190193176270  8.2023353576660156 47.0346527099609375
  3.6818594932556152 17.2337341308593750 47.0346527099609375
 12.7147188186645508  8.2023353576660156 47.0346527099609375
 12.7122592926025391 17.2337341308593750 47.0346527099609375
  8.2006769180297852  5.3445744514465332 47.0360260009765696
  8.1982173919677734 14.3759746551513672 47.0360260009765696
 17.2310771942138672  5.3445744514465332 47.0360260009765696
 17.2286186218261719 14.3759746551513672 47.0360260009765696
  5.3436489105224600  0.8290914893150328 47.0346527099609375
  5.3411893844604483  9.8604917526245117 47.0346527099609375
 14.3740482330322266  0.8290914893150328 47.0346527099609375
 14.3715896606445312  9.8604917526245117 47.0346527099609375
 13.7974872589111328  9.5235271453857404 35.0368881225585938
  9.0419626235961914  0.1340204328298569 34.5291824340820312
  8.7498311996459961  9.2937917709350586 34.7525939941406250
  0.0132754873484373  0.0425093173980713 34.4750709533691477
  0.2920233905315399  8.7430095672607422 34.3287925720214844
  4.5801768302917480  4.4878325462341309 34.5108871459960938
  4.5448641777038574 13.5710849761962873 34.5416793823242188
 13.6917200088500959  4.2262978553771973 34.6830215454101562
 13.3208999633789045 13.8211584091186506 34.2823295593261719
 18.0410241633653641  0.0901035889983177 40.8746871948242259
  0.0616291537880898  9.0273418426513672 40.8171195983886719
  9.0243105152621865 18.0129229202866554 40.9257850646972656
  8.9785261154174805  9.0629053115844727 40.9771842956542969
  4.5417323112487793  4.4923658370971680 40.9132804870605469
  4.4945898056030273 13.5912351608276367 40.8868560791015625
 13.5428504943847656  4.4640660285949707 40.9395256042480469
 13.4863281250000000 13.5857200622558594 40.9091644287109375
  2.6320321559906006  1.9434422254562376 38.0682525634765625
  2.6490960121154785 10.9440565109252930 38.0065650939941477
 11.6776914596557617  1.9229940176010132 38.0089111328125000
 11.3645877838134766 11.2136487960815430 38.2065277099609446
  6.3675584793090820  7.0669155120849609 38.0419197082519531
  6.4569139480590820 16.1794853210449219 38.0366058349609446
 15.7654895782470685  6.8192038536071777 38.2252311706542969
 15.4753484725952131 16.1932449340820312 38.0018653869628977
  1.9761662483215332  6.4060811996459961 37.9894027709960938
  1.9029983282089233 15.4935808181762678 38.0400886535644602
 10.6838970184326154  6.1782255172729483 37.9957237243652415
 10.9106559753417969 15.5458135604858398 38.0521774291992188
  7.1367259025573730  2.5670547485351562 37.9950828552246094
  7.0606112480163574 11.6522445678710938 38.0486259460449219
 16.1008682250976562  2.5880095958709717 37.9835853576660227
 16.3923397064208984 11.8945665359497070 38.2299537658691477
  0.0000000000000000  0.0000000000000000 47.1735610961914062
 -0.0024593239650130  9.0313997268676740 47.1735610961914062
  9.0304002761840803  0.0000000000000000 47.1735610961914062
  9.0279407501220685  9.0313997268676740 47.1735610961914062
  4.5139794349670410  4.5156998634338379 47.1742515563964844
  4.5115203857421875 13.5470991134643537 47.1742515563964844
 13.5443792343139648  4.5156998634338379 47.1742515563964844
 13.5419197082519531 13.5470991134643537 47.1742515563964844
  2.4519233703613277  2.0629522800445557 44.0401268005371165
  2.4494640827178955 11.0943517684936523 44.0401268005371165
 11.4823226928710920  2.0629522800445557 44.0401268005371165
 11.4798641204833984 11.0943517684936523 44.0401268005371165
  6.5760178565979004  6.9684472084045410 44.0401268005371165
  6.5735583305358887 15.9998464584350586 44.0401268005371165
 15.6064186096191406  6.9684472084045410 44.0401268005371165
 15.6039590835571289 15.9998464584350586 44.0401268005371165
  2.0610768795013428  6.5788145065307617 44.0400009155273509
  2.0586175918579102 15.6102142333984375 44.0400009155273509
 11.0914773941040039  6.5788145065307617 44.0400009155273509
 11.0890178680419922 15.6102142333984375 44.0400009155273509
  6.9668641090393066  2.4525938034057613 44.0400657653808665
  6.9644045829772949 11.4839935302734375 44.0400657653808665
 15.9972639083862305  2.4525938034057613 44.0400657653808665
 15.9948053359985352 11.4839935302734375 44.0400657653808665
  2.4316265583038330  2.0832188129425049 50.0684852600097656
  2.4291670322418213 11.1146183013915998 50.0684852600097656
 11.4620265960693359  2.0832188129425049 50.0684852600097656
 11.4595670700073224 11.1146183013915998 50.0684852600097656
  6.5963144302368164  6.9481806755065918 50.0684852600097656
  6.5938549041748047 15.9795799255371076 50.0684852600097656
 15.6267137527465803  6.9481806755065918 50.0684852600097656
 15.6242542266845703 15.9795799255371076 50.0684852600097656
  2.0811281204223633  6.5990090370178223 50.0690460205078125
  2.0786688327789307 15.6304082870483398 50.0690460205078125
 11.1115283966064453  6.5990090370178223 50.0690460205078125
 11.1090688705444336 15.6304082870483398 50.0690460205078125
  6.9468131065368652  2.4323906898498531 50.0690460205078125
  6.9443535804748535 11.4637899398803711 50.0690460205078125
 15.9772129058837891  2.4323906898498531 50.0690460205078125
 15.9747543334960938 11.4637899398803711 50.0690460205078125
 18.0321569172665477 18.0294634811580181 37.6963882446289062
  0.0117449760437012  9.1006612777709943 37.6867294311523438
  8.9476503590121865 18.0608661046717316 37.6689949035644531
  8.9802112579345703  9.0422458648681641 37.7662124633789134
  4.4945597648620605  4.5316305160522461 37.6730270385742188
  4.4708213806152344 13.4954319000244141 37.6312370300293040
 13.5568399429321289  4.4507679939270020 37.7542495727539062
 13.5119857788085938 13.6940202713012695 37.7692298889160156
  0.0000090280000222  0.0000090310004452 44.0429992675781250
 -0.0024502959568053  9.0314083099365234 44.0429992675781250
  9.0304088592529297  0.0000090310004452 44.0429992675781250
  9.0279493331909180  9.0314083099365234 44.0429992675781250
  4.5139703750610352  4.5156903266906738 44.0427513122558594
  4.5115113258361816 13.5470905303955078 44.0427513122558594
 13.5443706512451172  4.5156903266906738 44.0427513122558594
 13.5419111251831037 13.5470905303955078 44.0427513122558594
  0.0000000000000000  0.0000000000000000 50.4472808837890696
 -0.0024593239650130  9.0313997268676740 50.4472808837890696
  9.0304002761840803  0.0000000000000000 50.4472808837890696
  9.0279407501220685  9.0313997268676740 50.4472808837890696
  4.5139703750610352  4.5156998634338379 50.4472808837890696
  4.5115113258361816 13.5470991134643537 50.4472808837890696
 13.5443706512451172  4.5156998634338379 50.4472808837890696
 13.5419111251831055 13.5470991134643537 50.4472808837890696
