 H  C  N  I Pb 
 1.0000000000000000
    18.0608005523681641    0.0000000000000000    0.0000000000000000
    -0.0049186488613486   18.0627994537353516    0.0000000000000000
     0.0000000000000000    0.0000000000000000   62.4874992370605469
 H   C   N   I   Pb 
 143  39  47  72  24
Cartesian
  7.4399752616882324  4.9546170234680176 35.5078659057617188
  7.4143552780151367 12.7609615325927734 35.8370285034179688
 16.7718334197998047  5.1710615158081055 36.3280220031738281
 16.8365573883056641 14.6784982681274396 35.8705787658691406
  5.8430266380310050  1.6143903732299805 35.4361572265625071
  5.7136049270629883 10.4311075210571289 35.6223335266113352
 14.4695262908935547  1.7066104412078855 35.6739959716796946
  1.9921398162841790  4.3245730400085449 35.1539916992187500
  1.4867725372314442 12.2803344726562500 35.5555038452148438
 10.7269487380981428  3.4384014606475830 35.3362121582031250
 10.8773250579833984 13.4081583023071289 34.9539260864257812
  6.8346281051635742  0.3580532968044281 34.7366333007812571
  4.5700845718383789 11.2533302307128888 34.6176605224609446
 15.7853698730468750  0.7684509754180907 34.9891586303711009
  1.1252803802490252  5.1561779975891113 36.4184913635253906
 18.0035057067871094 12.5056142807006836 36.3368377685546875
  9.0731925964355469  3.1015045642852783 35.8215179443359375
  9.8704223632812500 12.3969936370849609 35.9739685058593821
  5.4913244247436515  7.9640469551086426 35.8545494079589844
  3.4261825084686279  1.1622903347015381 35.6252632141113352
 12.2522048950195312  0.5635056495666504 35.7834968566894531
  8.1081590652465820  6.4607672691345215 34.9250717163085938
  6.8320956230163574 13.9973258972167969 34.7773437500000071
 15.9766817092895508  4.2611327171325684 35.0602912902832031
 17.6666316986083984 15.7723932266235352 34.8100166320800781
  4.1946325302124023  7.2175021171569824 34.9807701110839915
  2.7992707947269082 17.8131684064865112 34.8491325378417969
 12.1979870060458762 17.0085303783416748 35.1412582397460938
 10.2111797332763672  5.5921120643615723 34.6431694030761719
  9.0361747741699219 14.5655784606933594 34.0929908752441406
 18.0478935241699219  3.5904145240783691 34.1381683349609375
  1.3801765441894527 14.3116312026977539 34.4508209228515625
  3.4149460792541504  9.2503719329833984 34.1391830444336009
  4.9792947033420205 17.0873595476150513 34.2474327087402344
 14.4174331882968545 17.0104084014892578 34.5565261840820312
  8.2037172317504883  5.2643580436706543 42.1686935424804688
  7.9095640182495117 14.6678810119628906 41.9722061157226634
 17.3729233145713842  5.0818023681640616 42.4075241088867188
 16.5948141813278198 13.4713373184204102 41.8566207885742188
  5.4096341133117676  0.7537772655487061 42.1779212951660156
  5.5435099601745605  9.9955940246582031 42.1284484863281250
 14.3132648468017578  0.9652266502380371 42.2105941772460938
 14.8829441070556641  9.2556457519531250 41.9424552917480469
  1.6078335046768188  3.0810909271240234 40.3999519348144531
  1.8549133539199829 12.5457868576049805 40.7192878723144531
 10.4025020599365234  3.0013306140899658 40.3050613403320384
 10.3573408126831055 12.2407970428466797 40.7286682128906250
  3.3240823745727535  7.4713258743286124 40.6538276672363281
  2.9499048450961705 16.8121021986007690 40.3311424255371094
 11.6503658294677734  8.1793088912963867 40.6549797058105469
 12.2125238636508584 16.5463402271270752 40.5037803649902344
  1.2018526792526245  3.3648154735565186 42.0694351196289062
  0.5210317969322205 11.9164190292358398 41.6521263122558665
  9.8444023132324219  3.2873492240905762 41.9194602966308594
  9.7638111114501953 12.8617658615112305 42.2305984497070312
  3.8982017040252686  7.9765882492065430 42.2133369445800781
  3.3462638119235635 17.2080677747726440 41.9786796569824290
 12.7081584930419904  7.8920240402221680 41.9933280944824219
 12.5573486546054482 17.1004880666732788 42.1214752197265625
  7.9284405708312988  6.1613397598266602 40.7169914245605469
  7.4698333740234366 15.0114202499389631 40.3319015502929688
 16.7174407243728638  5.7731108665466309 40.9496383666992188
 16.7719827890396118 15.0245170593261719 41.0721054077148509
  6.1700248718261710  1.1247770786285400 40.6715774536132884
  5.8131971359252921 10.6142206192016602 40.5403518676757884
 14.9269351959228516  1.4471288919448853 40.6634063720703125
 15.0651493072509766 10.3316907882690430 40.5770149230957031
  0.0365476459264755  4.5676045417785636 39.5493850708007884
  0.7940267920494080 14.5431127548217773 40.2242622375488352
  9.2695369720458984  4.8144111633300772 39.4090728759765625
  8.9975614547729492 13.5325632095336914 39.4230995178222727
  4.6640547970309854 17.9699661731720006 39.3897590637207031
  4.4655594825744629  9.0892848968505859 39.4868659973144602
 13.6785701969638449 17.9782312735915184 39.4799804687500071
 13.0127658843994141  9.7420158386230451 39.6488723754882812
  8.1032123565673828  5.4420318603515616 48.0459518432617259
  8.1007528305053711 14.4734306335449219 48.0459518432617259
 17.1336116790771484  5.4420318603515616 48.0459518432617259
 17.1311531066894531 14.4734306335449219 48.0459518432617259
  5.4410333633422852  0.9265221953392029 48.0449485778808594
  5.4385743141174316  9.9579219818115234 48.0449485778808594
 14.4714326858520490  0.9265221953392029 48.0449485778808594
 14.4689741134643555  9.9579219818115234 48.0449485778808594
  1.4218254089355467  3.0919990539550781 46.4558296203613281
  1.4193661212921143 12.1233978271484375 46.4558296203613281
 10.4522256851196289  3.0919990539550781 46.4558296203613281
 10.4497661590576172 12.1233978271484375 46.4558296203613281
  3.0899283885955806  7.6075901985168457 46.4545211791992188
  3.0874691009521484 16.6389904022216797 46.4545211791992188
 12.1203289031982422  7.6075901985168457 46.4545211791992188
 12.1178693771362305 16.6389904022216797 46.4545211791992188
  0.9247469902038573  3.5893490314483643 48.0459518432617259
  0.9222877025604248 12.6207475662231445 48.0459518432617259
  9.9551477432250977  3.5893490314483643 48.0459518432617259
  9.9526882171630859 12.6207475662231445 48.0459518432617259
  3.5868983268737793  8.1048498153686523 48.0448913574218821
  3.5844390392303462 17.1362495422363281 48.0448913574218821
 12.6172990798950195  8.1048498153686523 48.0448913574218821
 12.6148395538330078 17.1362495422363281 48.0448913574218821
  7.6061611175537109  5.9393639564514160 46.4558296203613281
  7.6037015914916992 14.9707632064819336 46.4558296203613281
 16.6365604400634766  5.9393639564514160 46.4558296203613281
 16.6341018676757812 14.9707632064819336 46.4558296203613281
  5.9380125999450684  1.4238001108169553 46.4545211791992188
  5.9355530738830566 10.4551992416381836 46.4545211791992188
 14.9684123992919904  1.4238001108169553 46.4545211791992188
 14.9659538269042951 10.4551992416381836 46.4545211791992188
 -0.0011664569610730  4.5157265663146973 45.3548011779785156
 -0.0036257810425013 13.5471258163452148 45.3548011779785156
  9.0292339324951172  4.5157265663146973 45.3548011779785156
  9.0267744064331037 13.5471258163452148 45.3548011779785156
  4.5152091979980469  0.0000000000000000 45.3536758422851562
  4.5127501487731934  9.0313997268676740 45.3536758422851562
 13.5456094741821289  0.0000000000000000 45.3536758422851562
 13.5431499481201172  9.0313997268676740 45.3536758422851562
 14.4389324188232422  9.2068386077880859 32.1798629760742188
 15.8794422149658203  9.0401601791381836 33.2169418334960938
 13.7992248535156250 11.2761287689208984 33.3041000366211009
 13.7983856201171875 11.3550319671630859 35.0523376464843750
 12.3800678253173828  8.1423959732055664 34.4301910400390625
 12.1210079193115234  9.8014802932739258 34.9376373291015625
 14.4327497482299805  7.7498435974121094 35.4820899963378906
 15.6685237884521467  8.9885358810424805 35.5406303405761719
 15.5111007690429688  6.7995452880859375 33.7068176269531250
 13.7876424789428711  6.8469214439392090 33.3676757812500000
 14.1114397048950195  6.8866305351257324 31.0050945281982457
 15.7860050201416016  7.4032173156738281 31.1160125732421911
 16.2240962982177734 11.1770725250244123 33.1591300964355469
 16.4131927490234375 10.9483909606933594 34.8980827331542969
 15.7397146224975586 12.4699096679687500 34.2635726928711009
 10.8504238128662109  9.3240394592285138 32.9570922851562500
 12.2578315734863263  8.8157567977905273 32.0132102966308594
 12.0701656341552734 10.5155239105224609 32.5095481872558594
 12.8230247497558594  9.1359910964965820 36.8039360046386719
 14.0649747848510742 10.4202861785888672 36.9347724914550781
 14.3533697128295881  8.8241806030273438 37.6417884826660156
 14.8726263046264648  4.6242952346801758 32.0933685302734375
 15.2454833984375000  4.9727382659912109 30.4203891754150391
 16.6932601928710938  2.9030339717864990 31.1346168518066442
 17.5588912963867188  6.9612588882446289 32.3360061645507884
  1.0239982604980480  2.3280336856842037 31.4542465209960973
  1.8324584960937500  6.4057445526123047 32.6512680053710938
  2.6579170227050812  4.0816740989685059 32.1741600036621094
 18.0144729614257812  4.2377266883850098 35.0100097656250000
  0.5287246704101570 13.9901218414306641 35.0467147827148438
  9.4187679290771484  4.9418587684631348 35.0179595947265625
  8.8648414611816406 13.7416658401489258 34.7888603210449219
  4.3175449371337891  9.2322149276733398 34.7492179870605540
  4.8256305912509552 18.0580394268035889 34.7324714660644602
 13.9893039921298623 17.9054034054279363 35.0163383483886719
  0.1198584139347076  4.4339079856872559 40.6319465637207102
  0.2788072228431702 13.8101530075073242 40.8373527526855540
  9.1645784378051758  4.5919666290283194 40.4581756591796946
  8.9249486923217773 13.6320428848266602 40.4951820373535227
  4.5775175094604492  9.0444250106811523 40.5635452270507812
  4.5554279545322061 17.9975855350494385 40.4735336303710938
 13.3489065170288086  9.2641630172729492 40.5771713256835938
 13.5810369709506631 18.0249017700552940 40.5599632263183665
  9.0289716720581055  4.5156092643737793 46.4455223083496165
  9.0265130996704102 13.5470085144042969 46.4455223083496165
 18.0593719482421875  4.5156092643737793 46.4455223083496165
 18.0569133758544922 13.5470085144042969 46.4455223083496165
  4.5152091979980469  0.0000180629995157 46.4442062377929759
  4.5127501487731934  9.0314178466796857 46.4442062377929759
 13.5456094741821289  0.0000180629995157 46.4442062377929759
 13.5431499481201172  9.0314178466796857 46.4442062377929759
 16.9309310913085938  4.9903802871704102 31.6974334716796911
 17.4066753387451172  3.6708672046661373 31.4744434356689489
 17.8570709228515625  5.9393973350524893 32.1212539672851562
  0.6873569488525387  3.3503987789154053 31.6412849426269531
  1.1532325744628917  5.6304283142089835 32.2905502319336009
  1.6055526733398451  4.3341178894042969 32.0492744445800781
 14.8222341537475568  8.7488193511962891 33.0999641418457031
 14.3186750411987305 10.9155902862548810 34.1932525634765625
 12.5729312896728516  9.1808853149414062 34.1560249328613352
 14.5825271606445312  8.8266744613647461 35.5498809814453125
 14.7596330642700178  7.2288951873779288 33.0342597961425852
 15.0251741409301758  6.7403116226196280 31.5947799682617223
 15.7604360580444336 11.3769321441650391 34.1297454833984375
 11.9260282516479492  9.4804821014404279 32.8189125061035227
 13.9079914093017578  9.3517398834228516 36.7881660461425781
 15.4735651016235334  5.2852745056152344 31.4490547180175817
  1.0847301483154286  4.5741200447082520 35.5805130004882812
  0.6234550476074240 12.8243026733398438 35.6327438354492188
  9.7438430786132812  3.7160987854003906 35.3439979553222656
  9.9263229370117188 13.0830268859863263 35.2108650207519531
  8.2203435897827148  5.4510273933410645 35.0862770080566477
  7.6356892585754395 13.4737539291381818 35.1326560974121094
 16.8442859649658203  4.6186933517456055 35.4581985473632812
 17.5638904571533203 14.8039999008178711 35.1539916992187500
  4.7051525115966797  8.0681619644165039 35.2154617309570384
  3.6025421619415279  0.3385348618030548 35.0657234191894531
 12.7035717228427529 17.8757706582546234 35.2804565429687500
  5.8971014022827148  0.7278375625610350 34.9528884887695312
  4.9302740097045898 10.3671464920043945 34.9760169982910156
 14.7960910797119141  0.8575462102890014 35.2334022521972656
  1.0206717252731323  3.5758497714996333 41.0789566040039134
  0.9134846925735474 12.6740646362304688 41.0830039978027344
  9.8271970748901367  3.5573985576629634 40.9374122619628977
  9.7230396270751935 12.8760070800781250 41.2026329040527415
  3.8949244022369385  8.1067981719970703 41.1954231262207031
  3.5516800144687295 17.3104726076126099 40.9792366027832031
 12.5455417633056641  8.3879528045654297 41.1165580749511719
 12.7364372471347433 17.1735610961914098 41.1117439270019531
  8.3957166671752930  5.3773131370544434 41.1630973815917969
  8.0589113235473633 14.4828004837036133 40.9757003784179759
 17.3705740571022034  5.1408586502075186 41.3944625854492188
 17.1524304151535034 14.1081142425537109 41.2890510559082031
  5.4251155853271484  0.6491141319274902 41.1598243713378906
  5.3497338294982901  9.9250192642211914 41.1213951110839844
 14.3065662384033203  0.8369393348693847 41.1939010620117188
 14.5199260711669904  9.6245861053466797 41.0629119873046875
  0.8273094892501831  3.6869695186614990 47.0359649658203125
  0.8248501420021057 12.7183685302734375 47.0359649658203125
  9.8577098846435547  3.6869695186614990 47.0359649658203125
  9.8552503585815412 12.7183685302734375 47.0359649658203125
  3.6843190193176270  8.2023353576660156 47.0346527099609375
  3.6818594932556152 17.2337341308593750 47.0346527099609375
 12.7147188186645508  8.2023353576660156 47.0346527099609375
 12.7122592926025391 17.2337341308593750 47.0346527099609375
  8.2006769180297852  5.3445744514465332 47.0360260009765696
  8.1982173919677734 14.3759746551513672 47.0360260009765696
 17.2310771942138672  5.3445744514465332 47.0360260009765696
 17.2286186218261719 14.3759746551513672 47.0360260009765696
  5.3436489105224600  0.8290914893150328 47.0346527099609375
  5.3411893844604483  9.8604917526245117 47.0346527099609375
 14.3740482330322266  0.8290914893150328 47.0346527099609375
 14.3715896606445312  9.8604917526245117 47.0346527099609375
 14.0723590850830078  9.4091281890869141 34.2513542175293040
  9.1884702900424600 17.6329339742660522 34.5424270629882812
  8.3876895904541016  9.0055370330810547 34.6383361816406250
  0.0953259840607643  0.2238389700651169 34.4722099304199219
  0.6243579387664795  8.9323940277099609 34.6597251892089844
  4.5823564529418936  4.3902754783630371 34.6665077209472656
  4.2104339599609375 13.9180212020874023 34.4465484619140625
 13.3216600418090803  4.0161385536193848 34.7028236389160156
 13.0503787994384766 14.3894853591918945 34.6189842224121094
 17.9596938425675035 17.7993699908256531 40.8780822753906250
  0.0714149251580238  9.0623598098754883 40.9535369873046875
  8.9768056869506836  0.0414755828678608 40.9011840820312571
  8.9954175949096680  9.0542097091674805 40.8973464965820312
  4.7520241737365723  4.3352956771850586 40.9577636718750000
  4.4389443397521973 13.6278057098388672 40.8599357604980540
 13.4202976226806641  4.7061357498168945 40.9658126831054688
 13.5674018859863263 13.3803672790527344 40.8614463806152344
  2.5158076286315918  2.0504908561706543 38.0410614013671875
  2.6270258426666260 11.0076990127563477 37.9842910766601562
 11.5876493453979492  1.9476182460784912 38.0564994812011719
 11.1156044006347656 11.4085416793823242 38.1009979248046875
  6.6345491409301758  6.9347920417785645 38.1467971801757884
  6.5680379867553711 15.9949455261230451 37.8724288940429759
 16.0458259582519531  6.5476679801940918 38.3310089111328125
 15.5834245681762695 16.0574111938476562 37.8546676635742188
  2.2793285846710201  6.6824178695678711 38.2616271972656250
  2.1291232109069824 15.7830114364624023 37.9206352233886719
 11.2104835510253906  6.7277374267578125 37.6471633911132812
 11.1610155105590820 15.6663026809692383 38.2873382568359375
  7.2112812995910645  2.5897715091705322 37.7644157409667969
  6.8133478164672852 11.4172868728637695 37.9640083312988352
 15.9420127868652344  2.4019427299499507 38.2819862365722656
 16.3263530731201172 11.7618923187255859 38.2118911743164062
  0.0000000000000000  0.0000000000000000 47.1735610961914062
 -0.0024593239650130  9.0313997268676740 47.1735610961914062
  9.0304002761840803  0.0000000000000000 47.1735610961914062
  9.0279407501220685  9.0313997268676740 47.1735610961914062
  4.5139794349670410  4.5156998634338379 47.1742515563964844
  4.5115203857421875 13.5470991134643537 47.1742515563964844
 13.5443792343139648  4.5156998634338379 47.1742515563964844
 13.5419197082519531 13.5470991134643537 47.1742515563964844
  2.4519233703613277  2.0629522800445557 44.0401268005371165
  2.4494640827178955 11.0943517684936523 44.0401268005371165
 11.4823226928710920  2.0629522800445557 44.0401268005371165
 11.4798641204833984 11.0943517684936523 44.0401268005371165
  6.5760178565979004  6.9684472084045410 44.0401268005371165
  6.5735583305358887 15.9998464584350586 44.0401268005371165
 15.6064186096191406  6.9684472084045410 44.0401268005371165
 15.6039590835571289 15.9998464584350586 44.0401268005371165
  2.0610768795013428  6.5788145065307617 44.0400009155273509
  2.0586175918579102 15.6102142333984375 44.0400009155273509
 11.0914773941040039  6.5788145065307617 44.0400009155273509
 11.0890178680419922 15.6102142333984375 44.0400009155273509
  6.9668641090393066  2.4525938034057613 44.0400657653808665
  6.9644045829772949 11.4839935302734375 44.0400657653808665
 15.9972639083862305  2.4525938034057613 44.0400657653808665
 15.9948053359985352 11.4839935302734375 44.0400657653808665
  2.4316265583038330  2.0832188129425049 50.0684852600097656
  2.4291670322418213 11.1146183013915998 50.0684852600097656
 11.4620265960693359  2.0832188129425049 50.0684852600097656
 11.4595670700073224 11.1146183013915998 50.0684852600097656
  6.5963144302368164  6.9481806755065918 50.0684852600097656
  6.5938549041748047 15.9795799255371076 50.0684852600097656
 15.6267137527465803  6.9481806755065918 50.0684852600097656
 15.6242542266845703 15.9795799255371076 50.0684852600097656
  2.0811281204223633  6.5990090370178223 50.0690460205078125
  2.0786688327789307 15.6304082870483398 50.0690460205078125
 11.1115283966064453  6.5990090370178223 50.0690460205078125
 11.1090688705444336 15.6304082870483398 50.0690460205078125
  6.9468131065368652  2.4323906898498531 50.0690460205078125
  6.9443535804748535 11.4637899398803711 50.0690460205078125
 15.9772129058837891  2.4323906898498531 50.0690460205078125
 15.9747543334960938 11.4637899398803711 50.0690460205078125
 18.0586608091834968  0.1195541992783546 37.7566032409668040
  0.1357283443212509  9.1130428314208984 37.7758865356445312
  9.0808204868808389 17.9709522947669065 37.6992378234863281
  9.0021219253540039  9.0443000793457031 37.7207450866699219
  4.6166143417358398  4.5301303863525391 37.8613014221191477
  4.4191527366638184 13.6653966903686523 37.6961517333984375
 13.5226364135742188  4.5388975143432617 37.8749771118164134
 13.5479602813720703 13.7278842926025391 37.7083091735839844
  0.0000090280000222  0.0000090310004452 44.0429992675781250
 -0.0024502959568053  9.0314083099365234 44.0429992675781250
  9.0304088592529297  0.0000090310004452 44.0429992675781250
  9.0279493331909180  9.0314083099365234 44.0429992675781250
  4.5139703750610352  4.5156903266906738 44.0427513122558594
  4.5115113258361816 13.5470905303955078 44.0427513122558594
 13.5443706512451172  4.5156903266906738 44.0427513122558594
 13.5419111251831037 13.5470905303955078 44.0427513122558594
  0.0000000000000000  0.0000000000000000 50.4472808837890696
 -0.0024593239650130  9.0313997268676740 50.4472808837890696
  9.0304002761840803  0.0000000000000000 50.4472808837890696
  9.0279407501220685  9.0313997268676740 50.4472808837890696
  4.5139703750610352  4.5156998634338379 50.4472808837890696
  4.5115113258361816 13.5470991134643537 50.4472808837890696
 13.5443706512451172  4.5156998634338379 50.4472808837890696
 13.5419111251831055 13.5470991134643537 50.4472808837890696
