 H  C  N  I Pb 
 1.0000000000000000
    18.0608005523681641    0.0000000000000000    0.0000000000000000
    -0.0049186488613486   18.0627994537353516    0.0000000000000000
     0.0000000000000000    0.0000000000000000   62.4874992370605469
 H   C   N   I   Pb 
 143  39  47  72  24
Cartesian
  8.2422094345092773  5.5113825798034668 36.3093490600585938
  8.0501470565795898 14.5828018188476545 36.3060913085937571
 17.2500801086425781  5.5025916099548340 36.1096191406250000
 17.4197025299072266 14.6475543975830078 36.3397293090820312
  5.5884909629821777  0.8178515434265137 36.2565650939941406
  5.4474229812622070  9.9663009643554688 36.3300399780273438
 14.2936286926269531  0.9387949705123900 36.3540802001953196
  1.4030761718750002  2.8765158653259277 35.0163688659668040
  1.3510322570800790 12.0378828048706055 34.8561935424804759
 10.5615348815917951  3.2699968814849854 34.7919197082519602
 10.2678642272949219 12.1024255752563477 34.9267997741699290
  5.9963483810424796  1.3023178577423096 34.6651306152343750
  5.8840084075927734 10.4779624938964844 34.7542190551757884
 14.8743772506713867  1.4510056972503662 34.8223114013671875
  0.7492561340332017  3.5725467205047603 36.3889846801757812
  0.9704418182373052 12.7653751373290998 36.3427696228027344
 10.1067066192626953  3.9492478370666499 36.3019638061523438
  9.6887207031249982 12.6634950637817383 36.4326286315917969
  3.6298871040344238  8.1135931015014648 36.3840293884277344
  3.6192759731784463 17.1894001960754395 36.3824501037597656
 12.6278948048129678 17.0157155990600586 36.2649879455566477
  7.4597921371459961  5.8635954856872550 34.7741432189941406
  7.7112684249877930 15.1801548004150373 34.7175521850585938
 16.9312019348144531  5.8776502609252930 34.4069633483886719
 16.7563877105712891 15.0886812210083008 34.8124732971191406
  3.0794098377227783  7.6139011383056641 34.8376121520996165
  2.9552118042483926 16.7539291381835938 34.8604621887207031
 12.2997335651889443 16.4375660419464111 34.6831283569335938
  8.9190216064453125  4.4855146408081055 33.6189460754394531
  9.0777292251586914 13.6226978302001953 33.6693992614746094
  0.2468700408935549  4.3074960708618164 33.5757331848144531
 18.0355587005615234 13.5553121566772461 33.6416320800781250
  4.4530563354492188  9.0656175613403320 33.6745376586914062
  4.3730640411376953  0.0027242489159107 33.6471328735351562
 13.6899074772372842 17.9615828543901443 33.6369247436523438
  8.1176567077636719  5.4848518371582031 42.1920623779296946
  8.1828498840332031 14.2630929946899414 42.1881942749023438
 17.0309975147247350  5.5326495170593262 41.9147300720214844
 17.1010658740997350 14.4899339675903320 42.1423454284667969
  5.4005846977233887  0.9336981177330016 42.1967620849609446
  5.4146146774291983  9.8894929885864258 42.1705398559570312
 14.4758481979370117  0.9811011552810669 42.1681747436523438
 14.5150814056396484 10.0636930465698242 42.1752166748046875
  1.3753342628479004  3.1105194091796875 40.6973838806152344
  1.3675442934036255 12.0835371017456055 40.6271667480468821
 10.4337558746337891  3.1046280860900879 40.6092872619628906
 10.4532480239868164 12.1499385833740234 40.2953338623046875
  2.9565184116363525  7.6681718826293945 40.5944747924804688
  3.1065861443057656 16.6211882829666138 40.5671844482421875
 12.1687049865722656  7.5409727096557617 40.7063751220703125
 12.0937170246616006 16.7074979543685913 40.6089096069335938
  0.7646184563636780  3.7212166786193848 42.2253341674804688
  0.8741250038146973 12.6194896697998047 42.2131652832031250
  9.9776878356933594  3.6336693763732910 42.1929206848144531
 10.0290956497192383 12.5463800430297852 41.9411735534667969
  3.5216803550720210  8.1480827331542969 42.1705970764160156
  3.6042198399081826 17.1416955590248108 42.1594085693359446
 12.6798696517944318  8.2293272018432617 42.2363281250000000
 12.6207164982333779 17.2482526302337646 42.1853637695312500
  7.5894584655761719  6.0099334716796875 40.6105232238769531
  7.5160174369812012 14.8785247802734375 40.6943435668945312
 16.6177374124526978  5.9513130187988281 40.2854309082031250
 16.5834186077117920 14.9940404891967756 40.5890922546386719
  5.9362840652465811  1.4827779531478882 40.6256141662597727
  5.9435734748840332 10.4147405624389648 40.5892333984375000
 15.0170345306396467  1.4760155677795410 40.5813331604003906
 15.0483779907226562 10.4144868850708008 40.5649833679199219
  0.0579981356859207  4.4402794837951660 39.3703193664550781
 17.9530248492956161 13.4933748245239240 39.4526100158691406
  8.9972686767578125  4.5447344779968262 39.5007743835449219
  8.9558238983154297 13.5371208190917951 39.3687667846679688
  4.5253810882568359  0.0178228393197060 39.4857826232910156
  4.4241213798522949  9.0159206390380859 39.4785690307617188
 13.5680418014526367  0.0854516476392746 39.4841651916503906
 13.7496900558471662  8.9283123016357422 39.5645103454589844
  8.1032123565673828  5.4420318603515616 48.0459518432617259
  8.1007528305053711 14.4734306335449219 48.0459518432617259
 17.1336116790771484  5.4420318603515616 48.0459518432617259
 17.1311531066894531 14.4734306335449219 48.0459518432617259
  5.4410333633422852  0.9265221953392029 48.0449485778808594
  5.4385743141174316  9.9579219818115234 48.0449485778808594
 14.4714326858520490  0.9265221953392029 48.0449485778808594
 14.4689741134643555  9.9579219818115234 48.0449485778808594
  1.4218254089355467  3.0919990539550781 46.4558296203613281
  1.4193661212921143 12.1233978271484375 46.4558296203613281
 10.4522256851196289  3.0919990539550781 46.4558296203613281
 10.4497661590576172 12.1233978271484375 46.4558296203613281
  3.0899283885955806  7.6075901985168457 46.4545211791992188
  3.0874691009521484 16.6389904022216797 46.4545211791992188
 12.1203289031982422  7.6075901985168457 46.4545211791992188
 12.1178693771362305 16.6389904022216797 46.4545211791992188
  0.9247469902038573  3.5893490314483643 48.0459518432617259
  0.9222877025604248 12.6207475662231445 48.0459518432617259
  9.9551477432250977  3.5893490314483643 48.0459518432617259
  9.9526882171630859 12.6207475662231445 48.0459518432617259
  3.5868983268737793  8.1048498153686523 48.0448913574218821
  3.5844390392303462 17.1362495422363281 48.0448913574218821
 12.6172990798950195  8.1048498153686523 48.0448913574218821
 12.6148395538330078 17.1362495422363281 48.0448913574218821
  7.6061611175537109  5.9393639564514160 46.4558296203613281
  7.6037015914916992 14.9707632064819336 46.4558296203613281
 16.6365604400634766  5.9393639564514160 46.4558296203613281
 16.6341018676757812 14.9707632064819336 46.4558296203613281
  5.9380125999450684  1.4238001108169553 46.4545211791992188
  5.9355530738830566 10.4551992416381836 46.4545211791992188
 14.9684123992919904  1.4238001108169553 46.4545211791992188
 14.9659538269042951 10.4551992416381836 46.4545211791992188
 -0.0011664569610730  4.5157265663146973 45.3548011779785156
 -0.0036257810425013 13.5471258163452148 45.3548011779785156
  9.0292339324951172  4.5157265663146973 45.3548011779785156
  9.0267744064331037 13.5471258163452148 45.3548011779785156
  4.5152091979980469  0.0000000000000000 45.3536758422851562
  4.5127501487731934  9.0313997268676740 45.3536758422851562
 13.5456094741821289  0.0000000000000000 45.3536758422851562
 13.5431499481201172  9.0313997268676740 45.3536758422851562
 14.3310880661010742 10.2786159515380842 33.2979393005371094
 13.3787899017333984  8.8076848983764648 33.2957077026367188
 15.7754793167114258  9.1427955627441406 34.6504516601562500
 15.3072052001953125  8.6534681320190430 36.2447166442871094
 13.5262079238891602 11.5361471176147461 35.7349128723144602
 14.5329036712646484 10.5672445297241193 36.8127517700195312
 11.9412326812744141  9.7214088439941388 35.9578361511230469
 12.3012666702270508  8.1775369644165039 35.2133064270019602
 11.3358287811279297 10.0964794158935547 34.0034179687500071
 12.3782739639282227 11.5171785354614258 34.2097740173339915
 11.4959793090820295 12.0439062118530273 32.1488685607910156
 12.7945461273193359 11.0772466659545898 31.4954547882080078
 14.6695909500122070  7.1661701202392578 33.5919914245605469
 13.7014551162719727  6.9144349098205566 35.0533027648925781
 15.3725585937500000  6.6387763023376465 35.1875343322753906
 15.7234201431274414 12.3378410339355469 35.4401054382324219
 15.5069084167480469 11.4046163558959961 33.9499969482421875
 16.5239028930664062 10.7847414016723633 35.3278808593750071
 13.9510536193847656  8.9758739471435547 37.5550346374511719
 13.3262014389038086  7.3924698829650879 37.1064338684082102
 12.3313446044921875  8.5855426788330078 37.9228439331054688
  9.9844646453857422 10.0103416442871094 32.1310386657714844
 10.6226091384887678 10.4136142730712891 30.5436992645263672
 12.8619565963745099  9.1111488342285156 29.9542369842529332
 10.2825775146484375  7.8801760673522949 33.0826225280761719
 13.8872289657592756  6.8692965507507324 29.9471302032470739
 11.2685241699218732  5.7055850028991699 33.1410102844238281
 13.1226892471313477  5.1714353561401367 31.5312213897705078
  0.1124763488769541  4.4052314758300781 34.6519660949707031
  0.0276126861572252 13.6046733856201172 34.7589530944824290
  9.0333194732665998  4.5399551391601562 34.7180938720703125
  9.0007448196411133 13.6176967620849609 34.7548713684082031
  4.4665741920471191  9.0326757431030273 34.7400283813476562
  4.4551290730014443 18.0486132763326168 34.7091369628906250
 13.6001753071323019 17.9891802892088926 34.6992225646972656
 18.0318023003637791  4.5259938240051261 40.4838256835937500
 18.0187534987926519 13.5239057540893555 40.5706405639648438
  9.0253019332885742  4.5426816940307617 40.6153450012207031
  8.9866924285888672 13.5124387741088867 40.4856910705566406
  4.4644503593444824  9.0544776916503906 40.5920639038085938
  4.5101151466369629  0.0064430255442858 40.6033554077148438
 13.6275615692138672  8.9955739974975586 40.6194267272949290
 13.5439720153808594  0.0473660528659821 40.6021423339843821
  9.0289716720581055  4.5156092643737793 46.4455223083496165
  9.0265130996704102 13.5470085144042969 46.4455223083496165
 18.0593719482421875  4.5156092643737793 46.4455223083496165
 18.0569133758544922 13.5470085144042969 46.4455223083496165
  4.5152091979980469  0.0000180629995157 46.4442062377929759
  4.5127501487731934  9.0314178466796857 46.4442062377929759
 13.5456094741821289  0.0000180629995157 46.4442062377929759
 13.5431499481201172  9.0314178466796857 46.4442062377929759
 11.4311256408691406  8.6783418655395508 31.4392032623291016
 12.4838514328002930  8.3648834228515625 30.6002502441406250
 11.0195713043212891  7.6900053024291992 32.3319664001464844
 13.0877761840820295  7.0664958953857422 30.5965232849121094
 11.6144952774047852  6.4113669395446777 32.3789176940917969
 12.6504297256469727  6.0992593765258780 31.5249671936035156
 13.5044784545898438  9.7929153442382795 33.7260513305664062
 14.9705486297607422  8.6954107284545898 35.2111358642578125
 14.3611345291137695 10.8493614196777344 35.7760772705078125
 12.6688547134399396  8.9489431381225586 35.9086875915527344
 12.1894102096557599 10.6383190155029297 33.6336517333984375
 11.9318389892578125 10.9858808517456055 32.1264114379882812
 14.6271057128906250  7.2835111618041992 34.6758499145507812
 15.5951061248779297 11.3397312164306641 35.0406875610351562
 13.0935802459716797  8.4706277847290039 37.1916809082031321
 10.8741750717163086 10.0502347946166992 31.5371799468994176
  0.8263740539550776  3.5557260513305664 35.4143180847167969
  0.8324546813964834 12.7115640640258771 35.3638801574707031
  9.9805068969726562  3.8930096626281738 35.3214683532714844
  9.6544446945190412 12.7418489456176740 35.4343757629394531
  8.1660337448120117  5.3653426170349121 35.3332710266113281
  8.1764650344848633 14.5230531692504883 35.3257827758789062
 17.3926544189453125  5.3257665634155273 35.1411705017089844
 17.3716335296630859 14.5273685455322266 35.3593826293945312
  3.6757843494415283  8.1998138427734375 35.3425254821777344
  3.6216623047366738 17.2818331718444824 35.3408432006836009
 12.7818130711093545 17.0818475484848022 35.2329826354980469
  5.4162945747375488  0.7594791054725647 35.2258110046386790
  5.3293933868408194  9.8882722854614258 35.2931098937988352
 14.3052082061767578  0.8292707800865172 35.3142967224121094
  0.7169752717018127  3.7725729942321777 41.2155151367187571
  0.7548835277557373 12.7414484024047852 41.1681861877441406
  9.8205223083496094  3.7358820438385005 41.1825065612792969
  9.9094524383544922 12.6565561294555664 40.9325103759765625
  3.6300389766693115  8.2184553146362305 41.1875534057617188
  3.7108833054080606 17.2492240071296727 41.1768188476562571
 12.7947854995727539  8.2330541610717773 41.2458686828613281
 12.7224773624911904 17.3292455673217773 41.1996841430664062
  8.1825437545776367  5.4093723297119141 41.2083816528320312
  8.1758842468261719 14.2680130004882812 41.1997833251953196
 17.1410251855850255  5.4226574897766113 40.9391708374023509
 17.1864603757858276 14.4097518920898438 41.1419410705566406
  5.3429751396179199  0.8705231547355652 41.2116432189941406
  5.3035793304443359  9.8111667633056641 41.1858444213867188
 14.4086189270019531  0.8967753648757935 41.1853332519531321
 14.4628849029540998  9.8973855972290021 41.1849174499511719
  0.8273094892501831  3.6869695186614990 47.0359649658203125
  0.8248501420021057 12.7183685302734375 47.0359649658203125
  9.8577098846435547  3.6869695186614990 47.0359649658203125
  9.8552503585815412 12.7183685302734375 47.0359649658203125
  3.6843190193176270  8.2023353576660156 47.0346527099609375
  3.6818594932556152 17.2337341308593750 47.0346527099609375
 12.7147188186645508  8.2023353576660156 47.0346527099609375
 12.7122592926025391 17.2337341308593750 47.0346527099609375
  8.2006769180297852  5.3445744514465332 47.0360260009765696
  8.1982173919677734 14.3759746551513672 47.0360260009765696
 17.2310771942138672  5.3445744514465332 47.0360260009765696
 17.2286186218261719 14.3759746551513672 47.0360260009765696
  5.3436489105224600  0.8290914893150328 47.0346527099609375
  5.3411893844604483  9.8604917526245117 47.0346527099609375
 14.3740482330322266  0.8290914893150328 47.0346527099609375
 14.3715896606445312  9.8604917526245117 47.0346527099609375
 13.8846664428710920  9.5551319122314453 35.1663055419921875
  8.9939451217651367  0.0303281527012587 34.5744895935058594
  8.8536090850830078  9.1978063583374023 34.6599540710449219
  0.0901970788836479  0.0226934794336557 34.5186882019042969
  0.1770528256893158  8.8540401458740234 34.3479194641113281
  4.5305876731872559  4.4944376945495605 34.5768508911132812
  4.5291047096252441 13.5485496520996094 34.5719451904296875
 13.6767377853393555  4.3395738601684570 34.6407241821289062
 13.3897323608398438 13.7190198898315430 34.3374061584472727
 17.9653958976268768  0.0162647832185030 40.8686294555664062
  0.0122466813772917  8.9422140121459961 40.8470268249511719
  8.9417289951816201 18.0401419419795275 40.8759956359863281
  9.0234041213989258  9.0341444015502930 40.8933448791503906
  4.5342130661010742  4.5032563209533691 40.8687324523925781
  4.5201473236083984 13.5567789077758771 40.9295234680175781
 13.5591163635253888  4.4898858070373535 40.8902664184570312
 13.5181541442871094 13.5460844039916974 40.8784255981445384
  2.6083264350891113  1.9486783742904663 37.9706420898437500
  2.6055715084075928 10.9697923660278320 37.9306793212890625
 11.6402482986450195  1.9466797113418579 37.9463348388671875
 11.4480400085449219 11.1252279281616211 38.1220932006835938
  6.4146475791931152  7.0779938697814941 37.9546470642089844
  6.4628949165344238 16.1583595275878906 37.9438781738281250
 15.6522083282470685  6.9226617813110352 38.1300277709960938
 15.4846658706665039 16.1417160034179688 37.9477310180664062
  1.9563858509063721  6.4217061996459961 37.9526634216308594
  1.8957283496856689 15.4546470642089844 37.9538688659667969
 10.7863597869873047  6.2725658416748047 38.0318107604980540
 10.9375782012939435 15.5026206970214844 37.9624633789062500
  7.1218848228454590  2.5905578136444087 37.9681892395019531
  7.1087970733642578 11.6340217590332031 37.9745140075683665
 16.1080303192138672  2.5999524593353271 37.9541206359863281
 16.2991695404052734 11.7957973480224609 38.1331901550292969
  0.0000000000000000  0.0000000000000000 47.1735610961914062
 -0.0024593239650130  9.0313997268676740 47.1735610961914062
  9.0304002761840803  0.0000000000000000 47.1735610961914062
  9.0279407501220685  9.0313997268676740 47.1735610961914062
  4.5139794349670410  4.5156998634338379 47.1742515563964844
  4.5115203857421875 13.5470991134643537 47.1742515563964844
 13.5443792343139648  4.5156998634338379 47.1742515563964844
 13.5419197082519531 13.5470991134643537 47.1742515563964844
  2.4519233703613277  2.0629522800445557 44.0401268005371165
  2.4494640827178955 11.0943517684936523 44.0401268005371165
 11.4823226928710920  2.0629522800445557 44.0401268005371165
 11.4798641204833984 11.0943517684936523 44.0401268005371165
  6.5760178565979004  6.9684472084045410 44.0401268005371165
  6.5735583305358887 15.9998464584350586 44.0401268005371165
 15.6064186096191406  6.9684472084045410 44.0401268005371165
 15.6039590835571289 15.9998464584350586 44.0401268005371165
  2.0610768795013428  6.5788145065307617 44.0400009155273509
  2.0586175918579102 15.6102142333984375 44.0400009155273509
 11.0914773941040039  6.5788145065307617 44.0400009155273509
 11.0890178680419922 15.6102142333984375 44.0400009155273509
  6.9668641090393066  2.4525938034057613 44.0400657653808665
  6.9644045829772949 11.4839935302734375 44.0400657653808665
 15.9972639083862305  2.4525938034057613 44.0400657653808665
 15.9948053359985352 11.4839935302734375 44.0400657653808665
  2.4316265583038330  2.0832188129425049 50.0684852600097656
  2.4291670322418213 11.1146183013915998 50.0684852600097656
 11.4620265960693359  2.0832188129425049 50.0684852600097656
 11.4595670700073224 11.1146183013915998 50.0684852600097656
  6.5963144302368164  6.9481806755065918 50.0684852600097656
  6.5938549041748047 15.9795799255371076 50.0684852600097656
 15.6267137527465803  6.9481806755065918 50.0684852600097656
 15.6242542266845703 15.9795799255371076 50.0684852600097656
  2.0811281204223633  6.5990090370178223 50.0690460205078125
  2.0786688327789307 15.6304082870483398 50.0690460205078125
 11.1115283966064453  6.5990090370178223 50.0690460205078125
 11.1090688705444336 15.6304082870483398 50.0690460205078125
  6.9468131065368652  2.4323906898498531 50.0690460205078125
  6.9443535804748535 11.4637899398803711 50.0690460205078125
 15.9772129058837891  2.4323906898498531 50.0690460205078125
 15.9747543334960938 11.4637899398803711 50.0690460205078125
 18.0365798631683028 18.0410098917782307 37.6838226318359375
  0.0321871563792229  9.0592336654663086 37.7071533203125000
  8.9972824314609170 18.0456703323870897 37.7418670654296875
  8.9854335784912109  9.0499315261840820 37.6914749145507884
  4.4932899475097656  4.5400733947753906 37.7006378173828196
  4.4898848533630371 13.5194940567016602 37.7008819580078125
 13.5662918090820312  4.4394264221191406 37.6726150512695312
 13.4889545440673828 13.6650733947753888 37.7500495910644531
  0.0000090280000222  0.0000090310004452 44.0429992675781250
 -0.0024502959568053  9.0314083099365234 44.0429992675781250
  9.0304088592529297  0.0000090310004452 44.0429992675781250
  9.0279493331909180  9.0314083099365234 44.0429992675781250
  4.5139703750610352  4.5156903266906738 44.0427513122558594
  4.5115113258361816 13.5470905303955078 44.0427513122558594
 13.5443706512451172  4.5156903266906738 44.0427513122558594
 13.5419111251831037 13.5470905303955078 44.0427513122558594
  0.0000000000000000  0.0000000000000000 50.4472808837890696
 -0.0024593239650130  9.0313997268676740 50.4472808837890696
  9.0304002761840803  0.0000000000000000 50.4472808837890696
  9.0279407501220685  9.0313997268676740 50.4472808837890696
  4.5139703750610352  4.5156998634338379 50.4472808837890696
  4.5115113258361816 13.5470991134643537 50.4472808837890696
 13.5443706512451172  4.5156998634338379 50.4472808837890696
 13.5419111251831055 13.5470991134643537 50.4472808837890696
