 H  C  N  I Pb 
 1.0000000000000000
    18.0608005523681641    0.0000000000000000    0.0000000000000000
    -0.0049186488613486   18.0627994537353516    0.0000000000000000
     0.0000000000000000    0.0000000000000000   62.4874992370605469
 H   C   N   I   Pb 
 143  39  47  72  24
Cartesian
  7.9064421653747559  5.6430954933166504 35.7890129089355540
  7.7055201530456543 15.0832872390747070 35.7679862976074219
 17.6891002655029297  5.7613177299499512 36.3630294799804688
 17.3727664947509766 14.6399612426757812 36.2735023498535227
  5.6479577282443643 17.2852683663368225 35.9517669677734375
  5.9056606292724609 10.1694726943969727 35.8947372436523509
 14.3674640655517578  1.3189407587051392 36.2418365478515625
  0.5633277893066421  2.4754674434661865 35.1130828857421875
  1.0740928649902342 11.6146907806396484 35.1974334716796946
 10.3564090728759766  3.2748081684112544 34.5291824340820312
  9.4977121353149414 11.9578256607055646 35.2649230957031250
  6.4255118370056152  0.3716639280319214 34.8841323852539062
  5.0591301918029785 11.2916021347045881 34.8294258117675781
 15.6834487915039062  0.6390246748924254 35.3000030517578125
  0.0105571746826190  3.3190186023712158 36.5635108947753906
  0.1806106567382820 12.3194513320922852 36.5255584716796875
 10.1405725479125977  4.6248378753662109 35.6212120056152344
  8.2426919937133789 12.6223316192626953 36.1954498291015625
  5.0354199409484854  7.8476853370666504 36.0229873657226634
  3.1842946270480748 16.9872775077819824 35.7670631408691406
 12.2020664215087891  0.2612756490707397 36.0800361633300781
  6.6217226982116699  4.8654999732971191 34.8877067565918040
  8.7864589691162109 15.9133405685424805 34.6684341430664134
  0.3163108825683588  6.5242471694946289 34.9491729736328125
 17.8793716430664062 15.4960241317749023 34.8654975891113281
  3.5326447486877441  7.5492725372314453 35.1516227722167969
  2.3653339603915811 18.0370569378137589 34.6406211853027344
 12.1278795460239053 16.8158453702926636 35.1292686462402344
  8.0759124755859375  3.2830612659454346 33.9204368591308594
 10.0429706573486328 13.9864826202392578 34.2272415161132812
  0.8246574401855474  4.4863281250000000 33.9106788635253906
  0.9578723907470698 13.6239585876464844 33.9598350524902344
  3.4576172828674316  9.6832447052001953 34.2237205505371094
  4.3432960510253906  1.0164308547973633 33.9257049560546946
 14.3173269489780051 16.9429289102554321 34.4841728210449290
  8.5085725784301758  5.8458104133605948 42.0073661804199219
  7.8226857185363770 14.7611637115478516 41.9909515380859375
 17.5211448669433594  5.0056757926940918 42.5854072570800781
 16.5839734077453649 13.8426647186279297 42.0315132141113281
  5.4401421546936035  0.9847879409790039 42.1055030822753977
  5.5178456306457520  9.8612661361694336 42.1826972961425781
 14.2775211334228516  1.1863429546356201 42.1654853820800781
 14.2393569946289062 10.7036046981811523 41.7182044982910156
  1.5563797950744627  3.0078196525573730 40.3028755187988281
  1.7940406799316404 12.6043014526367188 40.9372367858886790
 10.4819040298461914  3.0495743751525879 40.7204093933105469
 10.3086500167846680 12.2534408569335920 41.0067825317382884
  3.2953855991363525  7.4099230766296387 40.6082420349121094
  3.1010805824771523 16.6409640312194824 40.6122741699218750
 12.7471485137939453  7.3681168556213379 41.3002738952636719
 12.1873010853305459 16.6093604564666748 40.6992835998535156
  1.2394418716430664  3.2257294654846191 42.0193672180175781
  0.6253622770309448 12.3483600616455078 42.2028274536132884
 10.5953626632690430  4.3861613273620605 41.8561515808105469
  9.5677900314331055 12.9007205963134766 42.4436683654785227
  3.8163309097290039  7.8944487571716309 42.1906509399414062
  3.5650786617770787 17.2215985655784607 42.1716880798339844
 12.5546607971191406  8.8157958984375000 42.2638168334960938
 12.4767698505893332 17.3840960264205933 42.2331085205078125
  7.1808400154113770  5.3286652565002441 41.0006217956542969
  7.5973148345947266 15.1340742111206055 40.2884445190429759
 16.8523447513580358  5.7973222732543945 41.1948471069335938
 16.5596952438354492 14.9207201004028320 40.6727943420410227
  5.9596228599548331  1.3770527839660645 40.4914855957031250
  5.8644270896911621 10.4836463928222656 40.6002731323242259
 14.9943256378173828  1.4121067523956299 40.5890083312988281
 15.2224330902099609 10.4367084503173828 40.3039283752441406
  0.0463915169239044  4.6121611595153809 39.6775817871093750
  0.5654315948486327 14.1928720474243164 39.8607406616211009
  8.3043174743652344  3.5608620643615718 40.0744743347168040
  9.1452703475952148 13.5948991775512695 39.5597000122070312
  4.5582784870639443 17.9843153879046440 39.4430007934570312
  4.5440607070922852  9.0136909484863281 39.4935493469238281
 13.7273515919223428 17.8196799159049988 39.5644264221191406
 14.4065551757812500  8.2689085006713867 39.9597778320312500
  8.1032123565673828  5.4420318603515616 48.0459518432617259
  8.1007528305053711 14.4734306335449219 48.0459518432617259
 17.1336116790771484  5.4420318603515616 48.0459518432617259
 17.1311531066894531 14.4734306335449219 48.0459518432617259
  5.4410333633422852  0.9265221953392029 48.0449485778808594
  5.4385743141174316  9.9579219818115234 48.0449485778808594
 14.4714326858520490  0.9265221953392029 48.0449485778808594
 14.4689741134643555  9.9579219818115234 48.0449485778808594
  1.4218254089355467  3.0919990539550781 46.4558296203613281
  1.4193661212921143 12.1233978271484375 46.4558296203613281
 10.4522256851196289  3.0919990539550781 46.4558296203613281
 10.4497661590576172 12.1233978271484375 46.4558296203613281
  3.0899283885955806  7.6075901985168457 46.4545211791992188
  3.0874691009521484 16.6389904022216797 46.4545211791992188
 12.1203289031982422  7.6075901985168457 46.4545211791992188
 12.1178693771362305 16.6389904022216797 46.4545211791992188
  0.9247469902038573  3.5893490314483643 48.0459518432617259
  0.9222877025604248 12.6207475662231445 48.0459518432617259
  9.9551477432250977  3.5893490314483643 48.0459518432617259
  9.9526882171630859 12.6207475662231445 48.0459518432617259
  3.5868983268737793  8.1048498153686523 48.0448913574218821
  3.5844390392303462 17.1362495422363281 48.0448913574218821
 12.6172990798950195  8.1048498153686523 48.0448913574218821
 12.6148395538330078 17.1362495422363281 48.0448913574218821
  7.6061611175537109  5.9393639564514160 46.4558296203613281
  7.6037015914916992 14.9707632064819336 46.4558296203613281
 16.6365604400634766  5.9393639564514160 46.4558296203613281
 16.6341018676757812 14.9707632064819336 46.4558296203613281
  5.9380125999450684  1.4238001108169553 46.4545211791992188
  5.9355530738830566 10.4551992416381836 46.4545211791992188
 14.9684123992919904  1.4238001108169553 46.4545211791992188
 14.9659538269042951 10.4551992416381836 46.4545211791992188
 -0.0011664569610730  4.5157265663146973 45.3548011779785156
 -0.0036257810425013 13.5471258163452148 45.3548011779785156
  9.0292339324951172  4.5157265663146973 45.3548011779785156
  9.0267744064331037 13.5471258163452148 45.3548011779785156
  4.5152091979980469  0.0000000000000000 45.3536758422851562
  4.5127501487731934  9.0313997268676740 45.3536758422851562
 13.5456094741821289  0.0000000000000000 45.3536758422851562
 13.5431499481201172  9.0313997268676740 45.3536758422851562
 14.0067701339721680 10.0222129821777344 32.5474510192871094
 13.0047025680541974  8.5855016708374023 32.9258422851562571
 15.7779321670532209  9.0461263656616193 33.9142799377441406
 15.4581193923950178  8.6116323471069336 35.5997772216796875
 13.4040336608886719 11.5673780441284180 34.9954261779785227
 14.4863739013671857 10.7593173980712891 36.1523132324218821
 12.0595254898071271  9.8808746337890625 35.6758728027343750
 12.2434549331665039  8.2011690139770508 35.0791702270507884
 11.0721979141235352  9.9445819854736328 33.6236839294433594
 12.0670585632324219 11.4253606796264648 33.5885124206542969
 10.9380302429199219 11.6800823211669922 31.6239547729492188
 12.3988142013549787 10.8845844268798828 31.0309906005859375
 14.6759700775146467  7.0105619430541992 33.0989646911621094
 13.8713989257812500  6.7414569854736328 34.6689682006835938
 15.6134805679321271  6.5323767662048340 34.5574951171875000
 15.6025962829589844 12.4911127090454102 34.8153800964355469
 15.3081617355346680 11.6662597656250000 33.3034667968750071
 16.3999042510986328 10.9398899078369141 34.5308113098144531
 13.6337175369262695  9.4429082870483398 37.5270805358886719
 14.0083866119384766  7.8164024353027344 36.8804283142089844
 12.3991003036499023  8.1720886230468750 37.4879608154296875
  9.6495380401611328  9.5835752487182617 31.5651168823242223
 10.4177904129028320  9.9290990829467773 30.0018196105957031
 12.5070333480834943  8.6246185302734375 29.3215141296386754
 10.1334590911865234  7.5592775344848624 32.7311973571777415
 13.7444124221801740  6.4769563674926758 29.5032539367675817
 11.3529071807861310  5.4177918434143066 32.9261703491210938
 13.1649560928344727  4.8767213821411133 31.3365383148193395
  0.3961963653564455  4.4948563575744629 34.9143409729003906
  0.4601440429687510 13.5645999908447266 34.9277610778808594
  8.4515743255615234  4.0423288345336914 34.6112556457519531
  9.1825437545776349 13.9311237335205078 34.8977165222167969
  4.2770066261291504  9.4193973541259766 34.9097328186035156
  4.3908858299255371  0.2337554097175598 34.6962585449218821
 13.9053673008456826 17.7113542556762695 35.1537055969238281
  0.1692357957363129  4.4056749343872070 40.7185554504394531
  0.1534966230392456 13.7691841125488281 40.7688026428222727
  8.8180837631225586  4.1893086433410645 40.8126678466796875
  8.9588470458984375 13.6894826889038068 40.6261177062988281
  4.5711631774902344  8.9387378692626953 40.5753517150878906
  4.5334872463718057 18.0480942633002996 40.5219573974609375
 13.9837350845336914  8.8909797668457031 40.7634963989257812
 13.6014045933261496 18.0407675653696060 40.6182861328125071
  9.0289716720581055  4.5156092643737793 46.4455223083496165
  9.0265130996704102 13.5470085144042969 46.4455223083496165
 18.0593719482421875  4.5156092643737793 46.4455223083496165
 18.0569133758544922 13.5470085144042969 46.4455223083496165
  4.5152091979980469  0.0000180629995157 46.4442062377929759
  4.5127501487731934  9.0314178466796857 46.4442062377929759
 13.5456094741821289  0.0000180629995157 46.4442062377929759
 13.5431499481201172  9.0314178466796857 46.4442062377929759
 11.2484483718872070  8.2444381713867188 31.0343017578125000
 12.2621345520019513  7.9250087738037109 30.1300048828125000
 10.9172105789184570  7.3244800567626953 32.0210494995117188
 12.9495382308959961  6.7193641662597656 30.2146053314209020
 11.5992212295532227  6.1229019165039062 32.1323699951171946
 12.6234655380249023  5.8117160797119141 31.2388057708740234
 13.2261323928833008  9.6193685531616211 33.2053833007812500
 15.0395050048828125  8.5983581542968750 34.5843811035156250
 14.2705383300781250 10.8866548538208008 35.0821151733398509
 12.7383155822753906  9.0331592559814453 35.5919799804687500
 11.9124736785888672 10.4464826583862305 33.1011772155761790
 11.4969644546508771 10.7090883255004865 31.6401691436767614
 14.7727708816528320  7.1427245140075684 34.1861267089843821
 15.4606370925903303 11.4950990676879883 34.3781929016113352
 13.2453718185424805  8.5990447998046875 36.9496841430664062
 10.6100511550903320  9.6092195510864258 31.0257377624511719
  0.3224983215332035  3.3460566997528076 35.5783653259277415
  0.6109867095947265 12.4412641525268537 35.5913887023925781
  9.7370510101318359  3.9963786602020259 34.9033851623535156
  8.9615545272827148 12.7852210998535156 35.4925727844238281
  7.6293902397155762  4.9525423049926758 35.0693550109863281
  8.4885854721069336 15.0183353424072266 35.0716514587402415
  0.0086803436279305  5.6523971557617188 35.4063034057617188
 17.8119964599609375 14.5902252197265607 35.3399467468261719
  4.3002023696899414  8.1851043701171875 35.3838653564453125
  3.2587501266971231 17.6986888051033020 35.0293006896972656
 12.6195215443149191 17.6538142263889313 35.4205093383789062
  5.5548609951511025 18.0242543071508408 35.2354278564453125
  5.1432566642761230 10.3498010635375977 35.2303314208984375
 14.7083120346069336  0.5738546252250671 35.6344718933105540
  1.0413749217987061  3.4807469844818115 41.0566864013671946
  0.8992693424224854 12.8373155593872070 41.3468246459960938
 10.0460538864135742  3.8568534851074219 41.1572990417480469
  9.6525783538818359 12.9016656875610352 41.4268150329589844
  3.8627374172210693  8.0273790359497070 41.1678237915039062
  3.6725386837497349 17.2548005580902100 41.1434211730957102
 13.0354156494140625  8.3388175964355469 41.4915847778320312
 12.6953424671664834 17.2928107976913452 41.2253608703613352
  8.1484031677246094  5.1968774795532227 41.2943115234375000
  8.0702457427978516 14.5778713226318359 41.0110778808593750
 17.4906741380691564  5.1037240028381348 41.5666275024414134
 17.0521129369735718 14.1944532394409180 41.1910591125488281
  5.3521738052368164  0.8235800266265869 41.0842628479003906
  5.3690981864929199  9.8225240707397461 41.1589927673339844
 14.3260116577148420  0.9107750654220581 41.1694831848144531
 14.4737625122070312 10.0749015808105451 40.9455337524414134
  0.8273094892501831  3.6869695186614990 47.0359649658203125
  0.8248501420021057 12.7183685302734375 47.0359649658203125
  9.8577098846435547  3.6869695186614990 47.0359649658203125
  9.8552503585815412 12.7183685302734375 47.0359649658203125
  3.6843190193176270  8.2023353576660156 47.0346527099609375
  3.6818594932556152 17.2337341308593750 47.0346527099609375
 12.7147188186645508  8.2023353576660156 47.0346527099609375
 12.7122592926025391 17.2337341308593750 47.0346527099609375
  8.2006769180297852  5.3445744514465332 47.0360260009765696
  8.1982173919677734 14.3759746551513672 47.0360260009765696
 17.2310771942138672  5.3445744514465332 47.0360260009765696
 17.2286186218261719 14.3759746551513672 47.0360260009765696
  5.3436489105224600  0.8290914893150328 47.0346527099609375
  5.3411893844604483  9.8604917526245117 47.0346527099609375
 14.3740482330322266  0.8290914893150328 47.0346527099609375
 14.3715896606445312  9.8604917526245117 47.0346527099609375
 13.8289518356323242  9.5206470489501953 34.6006813049316406
  9.1275978088378906  0.3482591509819031 34.5644836425781250
  8.5302305221557617  9.1325540542602539 34.7455902099609375
 17.8931345799937844 18.0398473143577611 34.3652648925781250
  0.6901978254318237  8.9450941085815430 34.5645027160644531
  4.1766643524169922  4.2235746383666992 34.5949935913085938
  4.6280465126037598 13.7561521530151367 34.5710678100585938
 13.3628492355346680  3.7177000045776367 34.6951637268066406
 12.8234643936157227 14.2748603820800781 34.3078727722168040
  0.0253342734649777 17.8729334324598348 40.9201736450195312
  0.1967152655124664  8.9408426284790039 40.9729957580566406
  9.0314493179321271  0.1595262736082077 40.9107284545898509
  9.1693525314331055  8.8928737640380859 40.9691581726074219
  4.6474323272705069  4.4105448722839355 40.9117698669433594
  4.5015845298767090 13.5873298645019531 40.9319458007812500
 13.4764318466186523  4.8192172050476074 40.9118843078613352
 13.5427627563476562 13.5836143493652344 40.8680877685546946
  2.4853246212005615  1.8981322050094604 38.0549049377441477
  2.6569225788116451 10.9721298217773438 38.1220512390136719
 11.7159214019775391  1.8674644231796265 38.2298126220703196
 11.1474447250366211 11.4920511245727539 38.3776473999023438
  6.4790806770324707  7.0311279296875000 38.0435142517089844
  6.5948748588562012 16.0394172668457031 37.9606819152832102
 16.1323814392089844  6.5506720542907715 38.3567352294921875
 15.7186822891235352 15.8146953582763672 38.0896186828613281
  2.1763000488281250  6.4685401916503906 38.1606063842773438
  2.1890134811401367 15.7238254547119141 37.9518508911132884
 10.4722042083740234  5.9536790847778320 37.7423286437988352
 11.1001577377319336 15.7174148559570312 38.1971855163574219
  6.9477381706237793  2.3998718261718750 37.8645820617675781
  6.9890208244323730 11.5012655258178711 38.1617469787597656
 16.0738296508789062  2.5033600330352779 38.3507461547851634
 16.4413051605224609 11.6352882385253906 38.4071578979492259
  0.0000000000000000  0.0000000000000000 47.1735610961914062
 -0.0024593239650130  9.0313997268676740 47.1735610961914062
  9.0304002761840803  0.0000000000000000 47.1735610961914062
  9.0279407501220685  9.0313997268676740 47.1735610961914062
  4.5139794349670410  4.5156998634338379 47.1742515563964844
  4.5115203857421875 13.5470991134643537 47.1742515563964844
 13.5443792343139648  4.5156998634338379 47.1742515563964844
 13.5419197082519531 13.5470991134643537 47.1742515563964844
  2.4519233703613277  2.0629522800445557 44.0401268005371165
  2.4494640827178955 11.0943517684936523 44.0401268005371165
 11.4823226928710920  2.0629522800445557 44.0401268005371165
 11.4798641204833984 11.0943517684936523 44.0401268005371165
  6.5760178565979004  6.9684472084045410 44.0401268005371165
  6.5735583305358887 15.9998464584350586 44.0401268005371165
 15.6064186096191406  6.9684472084045410 44.0401268005371165
 15.6039590835571289 15.9998464584350586 44.0401268005371165
  2.0610768795013428  6.5788145065307617 44.0400009155273509
  2.0586175918579102 15.6102142333984375 44.0400009155273509
 11.0914773941040039  6.5788145065307617 44.0400009155273509
 11.0890178680419922 15.6102142333984375 44.0400009155273509
  6.9668641090393066  2.4525938034057613 44.0400657653808665
  6.9644045829772949 11.4839935302734375 44.0400657653808665
 15.9972639083862305  2.4525938034057613 44.0400657653808665
 15.9948053359985352 11.4839935302734375 44.0400657653808665
  2.4316265583038330  2.0832188129425049 50.0684852600097656
  2.4291670322418213 11.1146183013915998 50.0684852600097656
 11.4620265960693359  2.0832188129425049 50.0684852600097656
 11.4595670700073224 11.1146183013915998 50.0684852600097656
  6.5963144302368164  6.9481806755065918 50.0684852600097656
  6.5938549041748047 15.9795799255371076 50.0684852600097656
 15.6267137527465803  6.9481806755065918 50.0684852600097656
 15.6242542266845703 15.9795799255371076 50.0684852600097656
  2.0811281204223633  6.5990090370178223 50.0690460205078125
  2.0786688327789307 15.6304082870483398 50.0690460205078125
 11.1115283966064453  6.5990090370178223 50.0690460205078125
 11.1090688705444336 15.6304082870483398 50.0690460205078125
  6.9468131065368652  2.4323906898498531 50.0690460205078125
  6.9443535804748535 11.4637899398803711 50.0690460205078125
 15.9772129058837891  2.4323906898498531 50.0690460205078125
 15.9747543334960938 11.4637899398803711 50.0690460205078125
 17.9209444085136091 18.0318156648427248 37.8710594177246094
  0.1707957983016968  9.0092048645019531 37.8944549560546875
  9.0758695602416992  0.1664303541183472 37.7830963134765625
  8.9720640182495117  8.8976230621337891 37.8103713989257884
  4.4072151184082031  4.3493471145629883 37.7235794067382812
  4.4795894622802734 13.4812507629394513 37.7149124145507812
 13.3460874557495099  4.4561486244201660 37.6690673828125000
 13.2491769790649396 13.6265535354614258 37.6230163574218750
  0.0000090280000222  0.0000090310004452 44.0429992675781250
 -0.0024502959568053  9.0314083099365234 44.0429992675781250
  9.0304088592529297  0.0000090310004452 44.0429992675781250
  9.0279493331909180  9.0314083099365234 44.0429992675781250
  4.5139703750610352  4.5156903266906738 44.0427513122558594
  4.5115113258361816 13.5470905303955078 44.0427513122558594
 13.5443706512451172  4.5156903266906738 44.0427513122558594
 13.5419111251831037 13.5470905303955078 44.0427513122558594
  0.0000000000000000  0.0000000000000000 50.4472808837890696
 -0.0024593239650130  9.0313997268676740 50.4472808837890696
  9.0304002761840803  0.0000000000000000 50.4472808837890696
  9.0279407501220685  9.0313997268676740 50.4472808837890696
  4.5139703750610352  4.5156998634338379 50.4472808837890696
  4.5115113258361816 13.5470991134643537 50.4472808837890696
 13.5443706512451172  4.5156998634338379 50.4472808837890696
 13.5419111251831055 13.5470991134643537 50.4472808837890696
