 H  C  N  I Pb 
 1.0000000000000000
    18.0608005523681641    0.0000000000000000    0.0000000000000000
    -0.0049186488613486   18.0627994537353516    0.0000000000000000
     0.0000000000000000    0.0000000000000000   62.4874992370605469
 H   C   N   I   Pb 
 143  39  47  72  24
Cartesian
  8.4691505432128906  6.1220760345458984 35.2928047180175781
  7.9485287666320801 14.9151239395141602 35.9083900451660156
 16.6750183105468750  4.8850665092468253 36.1440887451171875
 16.9225463867187500 14.7863597869873047 35.7991523742675781
  5.7746367454528809  1.4225909709930420 35.6193199157714844
  6.2955393791198722  9.8056983947753906 34.8560638427734375
 14.5288848876953125  1.6675354242324827 35.4311180114746094
  1.9464588165283219  4.5157642364501953 34.7954750061035156
  1.3580741882324219 12.1733465194702148 36.0116081237793040
  9.8826074600219727  2.7701432704925537 35.0539741516113352
  9.0990152359008789 11.6358060836791992 34.8548660278320384
  6.7497763633728018  0.2771261930465698 34.7448425292968750
  5.3732762336730957 11.2822561264038086 34.5251388549804688
 15.8285617828369141  0.6100150942802429 34.8446731567382884
  1.0550575256347690  4.9461669921874991 36.2201385498046875
 17.8311290740966797 12.5921487808227539 36.5979690551757812
 10.3327827453613281  4.4125671386718750 35.4789161682128906
  8.1101636886596680 12.4314050674438477 36.0310211181640625
  4.9063587188720703  7.8968186378479004 35.7724494934082031
  3.3543741703033447  1.0615444183349609 35.7411155700683594
 12.3333368301391602  0.5687655806541443 35.9004173278808594
  6.9265022277832031  5.4573507308959961 34.7555160522461009
  8.9881038665771484 15.7122230529785156 34.7579078674316477
 15.8990917205810547  4.3176136016845703 34.7003402709960938
 17.8728370666503906 15.6622915267944336 34.6366767883300781
  3.1673183441162105  8.0743160247802734 35.5791320800781250
  2.6899670818820591 17.7311673760414159 34.9356002807617259
 12.2467016438022256 16.9176461696624791 35.4648284912109375
  7.7362384796142578  3.3390548229217529 34.4853134155273509
  9.8386459350585938 13.6893739700317365 33.9191703796386719
 18.0026340484619141  4.0466461181640625 33.5908126831054759
  1.5063037872314493 14.0409488677978516 34.6159667968750071
  3.3101732730865479 10.2202796936035156 34.7799949645996094
  4.8337082127109170 17.0030012130737340 34.2207412719726634
 14.4137081364169717 16.8117172718048096 34.7660789489746094
  8.0831041336059570  5.4473314285278311 42.0352287292480540
  8.1084842681884766 14.6024417877197266 42.0768508911132812
 17.0199606418609619  5.0607542991638175 42.1474189758300781
 16.6559979915618896 13.2137928009033203 41.8452453613281250
  5.4609656333923340  0.9493028521537781 42.0250701904296946
  5.3202867507934570 10.0644817352294922 42.1536865234375000
 14.5243692398071289  0.9712717533111571 42.1845092773437500
 15.2093667984008789  8.4939746856689453 41.4281883239746165
  1.6184961795806885  3.0984652042388912 40.5425720214843750
  2.0543377399444580 12.9304180145263672 40.7737312316894531
 10.4713888168334961  3.0634219646453857 40.5987777709960938
 10.2821187973022461 12.0689868927001953 40.5390090942382812
  3.3417046070098873  7.4372291564941406 40.4982223510742188
  3.0311719635501504 16.7190901041030884 40.4677047729492259
 11.5894060134887695  8.5688543319702148 40.9951744079589844
 12.1826051929965615 16.6361954212188721 40.6618385314941406
  0.9462658762931824  3.3727967739105225 42.1217613220214844
  0.8499799370765686 12.1099824905395508 41.7231597900390696
  9.9348421096801758  3.6353859901428223 42.1469726562500071
  9.8007946014404297 12.6170988082885742 42.1154479980468750
  3.6435527801513672  8.0698795318603516 42.0948333740234446
  3.5544957378879189 17.1998464465141332 42.0542335510253906
 12.8823757171630859  7.5292439460754386 41.5293006896972656
 12.6757425526157022 17.1858204007148743 42.2356834411621165
  7.5733451843261710  5.8491024971008292 40.4272193908691477
  7.6622576713562012 15.1147794723510742 40.4680252075195312
 16.6607739925384521  5.7397804260253906 40.5918121337890625
 16.4728503227233922 14.6826133728027344 40.9526405334472727
  5.9639620780944815  1.4140529632568359 40.4236526489257812
  5.8763008117675781 10.5689125061035156 40.5841217041015625
 14.9950475692749023  1.4420652389526365 40.5656280517578196
 15.3480749130249023 10.0642814636230469 40.6847686767578125
  0.2234744429588318  4.5795125961303711 39.4758796691894531
  0.6133865714073180 14.6601057052612305 40.1675834655761719
  9.0426549911499023  4.3922791481018066 39.3877754211425781
  8.9692602157592773 13.5720787048339826 39.3986358642578125
  4.4755740165710449  0.0185601767152548 39.3431739807128906
  4.7321124076843262  8.9319391250610352 39.4397430419921875
 13.5861639240756613 18.0381001532077789 39.5076637268066477
 13.0530462265014648 10.3025388717651367 40.3752021789550781
  8.1032123565673828  5.4420318603515616 48.0459518432617259
  8.1007528305053711 14.4734306335449219 48.0459518432617259
 17.1336116790771484  5.4420318603515616 48.0459518432617259
 17.1311531066894531 14.4734306335449219 48.0459518432617259
  5.4410333633422852  0.9265221953392029 48.0449485778808594
  5.4385743141174316  9.9579219818115234 48.0449485778808594
 14.4714326858520490  0.9265221953392029 48.0449485778808594
 14.4689741134643555  9.9579219818115234 48.0449485778808594
  1.4218254089355467  3.0919990539550781 46.4558296203613281
  1.4193661212921143 12.1233978271484375 46.4558296203613281
 10.4522256851196289  3.0919990539550781 46.4558296203613281
 10.4497661590576172 12.1233978271484375 46.4558296203613281
  3.0899283885955806  7.6075901985168457 46.4545211791992188
  3.0874691009521484 16.6389904022216797 46.4545211791992188
 12.1203289031982422  7.6075901985168457 46.4545211791992188
 12.1178693771362305 16.6389904022216797 46.4545211791992188
  0.9247469902038573  3.5893490314483643 48.0459518432617259
  0.9222877025604248 12.6207475662231445 48.0459518432617259
  9.9551477432250977  3.5893490314483643 48.0459518432617259
  9.9526882171630859 12.6207475662231445 48.0459518432617259
  3.5868983268737793  8.1048498153686523 48.0448913574218821
  3.5844390392303462 17.1362495422363281 48.0448913574218821
 12.6172990798950195  8.1048498153686523 48.0448913574218821
 12.6148395538330078 17.1362495422363281 48.0448913574218821
  7.6061611175537109  5.9393639564514160 46.4558296203613281
  7.6037015914916992 14.9707632064819336 46.4558296203613281
 16.6365604400634766  5.9393639564514160 46.4558296203613281
 16.6341018676757812 14.9707632064819336 46.4558296203613281
  5.9380125999450684  1.4238001108169553 46.4545211791992188
  5.9355530738830566 10.4551992416381836 46.4545211791992188
 14.9684123992919904  1.4238001108169553 46.4545211791992188
 14.9659538269042951 10.4551992416381836 46.4545211791992188
 -0.0011664569610730  4.5157265663146973 45.3548011779785156
 -0.0036257810425013 13.5471258163452148 45.3548011779785156
  9.0292339324951172  4.5157265663146973 45.3548011779785156
  9.0267744064331037 13.5471258163452148 45.3548011779785156
  4.5152091979980469  0.0000000000000000 45.3536758422851562
  4.5127501487731934  9.0313997268676740 45.3536758422851562
 13.5456094741821289  0.0000000000000000 45.3536758422851562
 13.5431499481201172  9.0313997268676740 45.3536758422851562
 13.0090675354003888  8.0074987411499023 33.7348785400390625
 13.3523740768432599  8.9361619949340820 32.2798080444335938
 11.9488353729248047  9.9673986434936523 34.8011054992675781
 12.7922105789184570 11.5203523635864258 34.7206039428710938
 15.3754444122314435  9.1862907409667951 35.4612274169921946
 14.2900209426879865 10.4324741363525373 36.0853691101074219
 15.8231697082519513 10.1311769485473633 33.1912193298339915
 14.5636482238769531 11.2463369369506836 32.6025123596191406
 15.7660923004150391  8.3332729339599609 32.3768539428711009
 15.5618495941162109  7.6523475646972656 33.9797401428222727
 15.7558832168579102  5.8895697593688965 32.3921318054199219
 14.1573925018310547  5.8405718803405762 33.1251449584960938
 11.5180759429931641  9.9539537429809570 32.3899536132812500
 12.5044088363647461 11.4276390075683594 32.1446189880371094
 11.0279579162597638 11.4938383102416992 33.0976181030273509
 13.7159709930419904  8.4175424575805664 37.2282485961914062
 13.6214904785156250  7.4421072006225586 35.7618408203125000
 12.3955278396606445  8.6893854141235352 36.1166648864746094
 14.7759494781494141 12.4846181869506836 34.8614768981933594
 16.1984214782714844 12.4892110824584961 33.8287849426269531
 16.1633358001708984 11.4018077850341797 35.2295036315917969
 14.8194351196289062  6.8912734985351562 30.2840080261230504
 14.2059803009033185  5.2844953536987305 30.7070484161376989
 11.9650344848632795  5.4828553199768066 32.3527641296386719
 13.2351789474487305  8.3589220046997070 29.4245338439941406
  9.6742429733276367  6.4071931838989258 32.2884635925292969
 10.9211053848266602  9.2775840759277344 29.3277091979980469
  9.1422214508056641  8.3370933532714844 30.7905025482177734
 17.9586315155029297  4.3788061141967773 34.6351890563964844
  0.5991020202636718 13.8854560852050781 35.2126731872558665
  8.4139261245727539  4.1241903305053711 34.8290939331054688
  9.0906400680541992 13.6808624267578107 34.7179641723632812
  4.2405381202697754  9.6757249832153320 34.9851646423339844
  4.7222389439120889 17.9420816302299500 34.7778892517089844
 14.0295032719150186 17.7733818590641022 35.1288261413574219
  0.1107849776744843  4.4261136054992676 40.5447731018066406
  0.2468003630638123 13.8562917709350586 40.8204498291015696
  9.0255689620971680  4.4620022773742676 40.4755134582519531
  8.9614839553833008 13.5871353149414062 40.4905662536621094
  4.6290264129638672  8.9890575408935547 40.5265579223632812
  4.5011548995971680  0.0327363535761833 40.4318809509277344
 13.4468288421630859  9.3717222213745117 40.8178939819335938
 13.5982122421264648  0.0077557582408190 40.5991363525390696
  9.0289716720581055  4.5156092643737793 46.4455223083496165
  9.0265130996704102 13.5470085144042969 46.4455223083496165
 18.0593719482421875  4.5156092643737793 46.4455223083496165
 18.0569133758544922 13.5470085144042969 46.4455223083496165
  4.5152091979980469  0.0000180629995157 46.4442062377929759
  4.5127501487731934  9.0314178466796857 46.4442062377929759
 13.5456094741821289  0.0000180629995157 46.4442062377929759
 13.5431499481201172  9.0314178466796857 46.4442062377929759
 12.7676649093627912  6.8574810028076172 30.9051856994628942
 11.7429389953613281  6.3123378753662109 31.6879653930664098
 12.4484148025512678  7.9233636856079102 30.0494728088378906
 10.4525279998779297  6.8339405059814453 31.6540260314941406
 11.1501674652099609  8.4437818527221680 29.9981117248535192
 10.1473245620727539  7.9086084365844727 30.8099899291992223
 13.7725591659545881  8.6143388748168945 33.2342147827148438
 12.5951232910156250 10.5904426574707013 34.1737403869628906
 14.3272581100463849  9.4999389648437500 35.5102424621582102
 14.9967403411865234 10.7812032699584961 33.4931221008300781
 15.0509719848632812  7.8017416000366211 33.0194892883300781
 14.7871122360229492  6.4121804237365723 32.4261169433593750
 11.8935461044311523 10.8661222457885724 32.8637123107910156
 13.4577856063842773  8.4493389129638672 36.1628684997558665
 15.5517663955688477 11.8378124237060547 34.4314384460449219
 14.1848526000976562  6.3467063903808594 31.0175018310546911
  1.0309677124023444  4.5980091094970703 35.2557792663574219
  0.5514221191406269 12.8036775588989258 35.9572563171386790
  9.6397008895874023  3.7635252475738525 35.1126213073730469
  8.7326545715332031 12.5207099914550781 35.2153739929199219
  7.9321908950805664  5.3413019180297852 34.9158325195312571
  8.6066246032714844 14.8338689804077148 35.1166610717773438
 16.7782669067382812  4.5188498497009277 35.1890602111816477
 17.6932144165039062 14.7760429382324219 35.1241989135742259
  4.1165137290954590  8.4302349090576172 35.3961143493652415
  3.5213110446929932  0.2295579612255096 35.1659278869628906
 12.7661260822787863 17.8036445677280426 35.4887046813964915
  5.8035469055175781  0.5827618837356567 35.0371131896972656
  5.3865194320678702 10.2810773849487305 34.7663726806640696
 14.8518648147583008  0.7366254925727844 35.1663055419921875
  0.9299924969673157  3.5720696449279785 41.1206016540527344
  1.0906084775924683 12.8801813125610334 41.1003227233886790
  9.8646421432495117  3.6828570365905762 41.1304855346679688
  9.7113933563232404 12.7003812789916974 41.1085052490234446
  3.8381311893463135  8.1044216156005859 41.0953750610351562
  3.6460582474246621 17.2994385361671448 41.0421142578125000
 12.5959577560424805  8.4283018112182617 41.1389007568359375
 12.7821649769321084 17.2451438903808594 41.2238273620605469
  8.1861181259155273  5.3012485504150391 41.0250244140625000
  8.2007341384887695 14.4874906539916992 41.0647735595703196
 17.2358952760696447  5.1214580535888672 41.1533317565917969
 17.0727855563163793 13.9205026626586914 41.2481651306152415
  5.3599395751953125  0.8364568948745728 41.0082130432128906
  5.3160185813903809  9.9253177642822266 41.1429748535156250
 14.4059448242187500  0.8662557601928711 41.1681137084961009
 14.7478923797607404  9.2975616455078125 40.9916877746582031
  0.8273094892501831  3.6869695186614990 47.0359649658203125
  0.8248501420021057 12.7183685302734375 47.0359649658203125
  9.8577098846435547  3.6869695186614990 47.0359649658203125
  9.8552503585815412 12.7183685302734375 47.0359649658203125
  3.6843190193176270  8.2023353576660156 47.0346527099609375
  3.6818594932556152 17.2337341308593750 47.0346527099609375
 12.7147188186645508  8.2023353576660156 47.0346527099609375
 12.7122592926025391 17.2337341308593750 47.0346527099609375
  8.2006769180297852  5.3445744514465332 47.0360260009765696
  8.1982173919677734 14.3759746551513672 47.0360260009765696
 17.2310771942138672  5.3445744514465332 47.0360260009765696
 17.2286186218261719 14.3759746551513672 47.0360260009765696
  5.3436489105224600  0.8290914893150328 47.0346527099609375
  5.3411893844604483  9.8604917526245117 47.0346527099609375
 14.3740482330322266  0.8290914893150328 47.0346527099609375
 14.3715896606445312  9.8604917526245117 47.0346527099609375
 13.9322290420532227  9.8631334304809570 34.0872421264648438
  9.3023290634155273  0.2372471541166306 34.5563316345214844
  8.7953567504882812  8.9959621429443359 34.5807189941406321
  0.1271010488271713  0.1465364247560501 34.3842887878417969
  0.4738512933254242  9.0541639328002930 34.6484489440917969
  4.5200581550598145  4.3423399925231934 34.5386466979980469
  4.5756897926330566 13.7719020843505842 34.5342674255371165
 13.2766170501708984  3.8244311809539795 34.7309913635253906
 12.6233224868774414 14.3846588134765625 34.6953887939453196
 18.0034928666427767 17.8388213217258453 40.8543586730957031
  0.2586970031261444  8.9718418121337891 40.9469070434570384
  8.9709444046020508  0.0651645809412003 40.9270057678222656
  9.0540952682495117  8.9501743316650391 40.8933982849121165
  4.5742988586425772  4.4581656455993652 40.9038505554199219
  4.5958595275878906 13.6461753845214826 40.8828163146972656
 13.4938344955444336  4.8210949897766113 40.9426689147949290
 13.4720687866210938 13.3877372741699201 40.9019012451171875
  2.3313589096069336  2.2290525436401367 37.9583320617675781
  2.7672212123870850 10.9395637512207031 37.9780044555664062
 11.5555009841918928  2.0527904033660889 38.1926383972167969
 11.4062223434448242 11.1837358474731445 37.9640121459960938
  6.5333213806152344  7.0187754631042480 37.8612556457519602
  6.6814036369323730 15.9861583709716797 37.9149932861328125
 16.0377044677734375  6.6679162979125977 38.0019493103027344
 15.6531562805175781 15.9305438995361328 37.8630447387695384
  2.2104206085205078  6.5734643936157227 38.0251617431640696
  2.2217276096343994 15.8100023269653320 37.9243583679199290
 10.7572336196899414  6.2725605964660636 37.5521659851074219
 11.1303949356079084 15.6625585556030273 38.3729667663574219
  6.9986376762390137  2.4039096832275391 37.9249114990234446
  6.9727678298950186 11.4742355346679688 38.0802230834960938
 15.9710931777954102  2.4776043891906738 38.2113571166992259
 16.2167129516601562 11.5733690261840803 38.3597831726074219
  0.0000000000000000  0.0000000000000000 47.1735610961914062
 -0.0024593239650130  9.0313997268676740 47.1735610961914062
  9.0304002761840803  0.0000000000000000 47.1735610961914062
  9.0279407501220685  9.0313997268676740 47.1735610961914062
  4.5139794349670410  4.5156998634338379 47.1742515563964844
  4.5115203857421875 13.5470991134643537 47.1742515563964844
 13.5443792343139648  4.5156998634338379 47.1742515563964844
 13.5419197082519531 13.5470991134643537 47.1742515563964844
  2.4519233703613277  2.0629522800445557 44.0401268005371165
  2.4494640827178955 11.0943517684936523 44.0401268005371165
 11.4823226928710920  2.0629522800445557 44.0401268005371165
 11.4798641204833984 11.0943517684936523 44.0401268005371165
  6.5760178565979004  6.9684472084045410 44.0401268005371165
  6.5735583305358887 15.9998464584350586 44.0401268005371165
 15.6064186096191406  6.9684472084045410 44.0401268005371165
 15.6039590835571289 15.9998464584350586 44.0401268005371165
  2.0610768795013428  6.5788145065307617 44.0400009155273509
  2.0586175918579102 15.6102142333984375 44.0400009155273509
 11.0914773941040039  6.5788145065307617 44.0400009155273509
 11.0890178680419922 15.6102142333984375 44.0400009155273509
  6.9668641090393066  2.4525938034057613 44.0400657653808665
  6.9644045829772949 11.4839935302734375 44.0400657653808665
 15.9972639083862305  2.4525938034057613 44.0400657653808665
 15.9948053359985352 11.4839935302734375 44.0400657653808665
  2.4316265583038330  2.0832188129425049 50.0684852600097656
  2.4291670322418213 11.1146183013915998 50.0684852600097656
 11.4620265960693359  2.0832188129425049 50.0684852600097656
 11.4595670700073224 11.1146183013915998 50.0684852600097656
  6.5963144302368164  6.9481806755065918 50.0684852600097656
  6.5938549041748047 15.9795799255371076 50.0684852600097656
 15.6267137527465803  6.9481806755065918 50.0684852600097656
 15.6242542266845703 15.9795799255371076 50.0684852600097656
  2.0811281204223633  6.5990090370178223 50.0690460205078125
  2.0786688327789307 15.6304082870483398 50.0690460205078125
 11.1115283966064453  6.5990090370178223 50.0690460205078125
 11.1090688705444336 15.6304082870483398 50.0690460205078125
  6.9468131065368652  2.4323906898498531 50.0690460205078125
  6.9443535804748535 11.4637899398803711 50.0690460205078125
 15.9772129058837891  2.4323906898498531 50.0690460205078125
 15.9747543334960938 11.4637899398803711 50.0690460205078125
 18.0130482651293313  0.0746876746416092 37.7345848083496094
  0.1364110112190247  9.0910120010375977 37.7664566040039062
  9.1109170913696271  0.0247617103159428 37.8189277648925781
  9.0519676208496076  9.0093631744384766 37.7492561340332031
  4.5860862731933594  4.5102295875549316 37.7474060058593750
  4.5270137786865234 13.5913295745849609 37.6750755310058594
 13.4780616760253906  4.5454578399658194 37.8212852478027344
 13.4257125854492188 13.6629104614257812 37.7570495605468821
  0.0000090280000222  0.0000090310004452 44.0429992675781250
 -0.0024502959568053  9.0314083099365234 44.0429992675781250
  9.0304088592529297  0.0000090310004452 44.0429992675781250
  9.0279493331909180  9.0314083099365234 44.0429992675781250
  4.5139703750610352  4.5156903266906738 44.0427513122558594
  4.5115113258361816 13.5470905303955078 44.0427513122558594
 13.5443706512451172  4.5156903266906738 44.0427513122558594
 13.5419111251831037 13.5470905303955078 44.0427513122558594
  0.0000000000000000  0.0000000000000000 50.4472808837890696
 -0.0024593239650130  9.0313997268676740 50.4472808837890696
  9.0304002761840803  0.0000000000000000 50.4472808837890696
  9.0279407501220685  9.0313997268676740 50.4472808837890696
  4.5139703750610352  4.5156998634338379 50.4472808837890696
  4.5115113258361816 13.5470991134643537 50.4472808837890696
 13.5443706512451172  4.5156998634338379 50.4472808837890696
 13.5419111251831055 13.5470991134643537 50.4472808837890696
