 H  C  N  I Pb 
 1.0000000000000000
    18.0608005523681641    0.0000000000000000    0.0000000000000000
    -0.0049186488613486   18.0627994537353516    0.0000000000000000
     0.0000000000000000    0.0000000000000000   62.4874992370605469
 H   C   N   I   Pb 
 143  39  47  72  24
Cartesian
  8.3956212997436523  6.1347603797912598 35.1419486999511719
  7.8910665512084961 14.8504037857055664 35.9257354736328125
 16.6748371124267578  5.2157173156738281 35.9625511169433594
 16.8575534820556641 14.7715997695922852 35.7774314880371094
  5.8750309944152832  1.3741794824600220 35.6597824096679759
  6.2978467941284180  9.8253107070922852 34.7742004394531250
 14.5804901123046875  1.6828422546386719 35.2806854248046946
  1.9621086120605478  4.5239105224609375 34.7481117248535156
  1.3467826843261748 12.2195863723754883 36.0838775634765625
  9.9793100357055664  2.8120651245117188 35.0568161010742188
  9.0791673660278320 11.6183481216430664 34.7381973266601562
  6.8453192710876465  0.2034840285778046 34.8257369995117188
  5.2985858917236319 11.2307090759277326 34.4328575134277344
 15.8424196243286133  0.5896847248077391 34.7225723266601562
  1.0924396514892580  5.3348736763000488 36.0098381042480469
 17.7983951568603516 12.6073713302612287 36.5844039916992188
 10.3484706878662109  4.4845762252807617 35.4608078002929688
  8.0348920822143555 12.3550291061401367 35.9153938293457102
  4.9549818038940430  7.8370819091796875 35.7285423278808594
  3.4329414367675781  1.0227260589599609 35.7614898681640625
 12.4221944808959961  0.5916609168052673 35.9947280883789062
  6.8890242576599112  5.3528809547424316 34.6859092712402415
  8.9474811553955078 15.6915750503540039 34.8311271667480469
 15.9373435974121076  4.2512822151184082 34.7085723876953196
 17.8451290130615234 15.6915903091430664 34.6887779235839844
  3.2306487560272217  7.9907722473144522 35.5666618347167969
  2.8014842728152871 17.6777305603027344 34.9944610595703196
 12.3180288532748818 16.9319393634796143 35.6476364135742188
  7.7748794555664062  3.2709565162658691 34.5326690673828196
  9.7957544326782227 13.7280120849609375 33.9063529968261719
 18.0353031158447266  3.7279994487762451 33.7340698242187500
  1.5186920166015627 14.1077852249145508 34.7045822143554688
  3.3108205795288086 10.1177797317504883 34.7474250793457031
  4.9351677158847451 16.9287014007568359 34.3186912536621094
 14.4289802769199014 16.7817165851593018 34.8511734008789062
  7.9576282501220703  5.4608421325683594 41.9300231933593821
  8.1852579116821289 14.5293407440185529 42.1179275512695384
 17.1368886232376099  5.1776161193847656 42.1587066650390625
 16.5800771713256836 13.3249959945678711 41.7312431335449219
  5.4448356628417969  0.9357712864875793 42.0273284912109375
  5.3603281974792480 10.1372804641723633 42.0819129943847656
 14.5451154708862305  1.0558404922485352 42.0682563781738281
 15.1911954879760742  8.4636182785034180 41.3566131591796875
  1.5093398094177246  3.0175774097442627 40.4657363891601562
  2.0074019432067871 12.7818603515625000 40.8588943481445384
 10.4470872879028320  3.1022691726684570 40.6220436096191406
 10.3586339950561523 12.1009683609008771 40.4000930786132812
  3.3186707496643062  7.4632678031921387 40.6061248779296875
  3.0486413696780801 16.6956580877304077 40.4521942138671946
 11.5674495697021484  8.5621824264526367 40.9459152221679688
 12.1938776234164834 16.5998661518096924 40.7735023498535227
  0.9445825815200806  3.3722457885742188 42.0728416442871094
  0.6424131393432617 11.9991216659545898 41.6146926879882812
  9.7956571578979492  3.6555354595184326 42.1395454406738352
  9.9692859649658185 12.6148910522460938 42.0204849243164062
  3.7028460502624512  8.1244440078735352 42.1610755920410156
  3.5826143482699990 17.1700882911682129 42.0478172302246094
 12.8770971298217773  7.4672298431396484 41.3670501708984375
 12.7480053165927529 17.2534326314926147 42.2971496582031250
  7.5818915367126456  5.9146556854248038 40.2954254150390696
  7.6349887847900391 15.0488424301147461 40.5566940307617188
 16.6942282915115356  5.8184680938720703 40.5897789001464915
 16.6114406585693359 14.8914527893066388 40.9532661437988281
  5.9307355880737305  1.4373663663864136 40.4349212646484375
  5.8315763473510742 10.5977258682250977 40.4725189208984375
 14.9692916870117188  1.4326500892639160 40.4177818298339844
 15.3239517211914062 10.0594558715820295 40.6930541992187571
  0.1267833113670349  4.5260763168334961 39.4279441833496094
  0.7713252305984497 14.6964349746704102 40.3120307922363281
  9.1260681152343750  4.4938035011291504 39.3478088378906321
  8.9196729660034180 13.5626659393310547 39.3781394958496094
  4.4750394821166992  0.0441658347845078 39.3401603698730469
  4.6309556961059570  8.9393119812011719 39.4321937561035156
 13.5463661411777139 17.9488482475280762 39.4969100952148438
 13.0289249420165998 10.3136291503906250 40.4404182434082102
  8.1032123565673828  5.4420318603515616 48.0459518432617259
  8.1007528305053711 14.4734306335449219 48.0459518432617259
 17.1336116790771484  5.4420318603515616 48.0459518432617259
 17.1311531066894531 14.4734306335449219 48.0459518432617259
  5.4410333633422852  0.9265221953392029 48.0449485778808594
  5.4385743141174316  9.9579219818115234 48.0449485778808594
 14.4714326858520490  0.9265221953392029 48.0449485778808594
 14.4689741134643555  9.9579219818115234 48.0449485778808594
  1.4218254089355467  3.0919990539550781 46.4558296203613281
  1.4193661212921143 12.1233978271484375 46.4558296203613281
 10.4522256851196289  3.0919990539550781 46.4558296203613281
 10.4497661590576172 12.1233978271484375 46.4558296203613281
  3.0899283885955806  7.6075901985168457 46.4545211791992188
  3.0874691009521484 16.6389904022216797 46.4545211791992188
 12.1203289031982422  7.6075901985168457 46.4545211791992188
 12.1178693771362305 16.6389904022216797 46.4545211791992188
  0.9247469902038573  3.5893490314483643 48.0459518432617259
  0.9222877025604248 12.6207475662231445 48.0459518432617259
  9.9551477432250977  3.5893490314483643 48.0459518432617259
  9.9526882171630859 12.6207475662231445 48.0459518432617259
  3.5868983268737793  8.1048498153686523 48.0448913574218821
  3.5844390392303462 17.1362495422363281 48.0448913574218821
 12.6172990798950195  8.1048498153686523 48.0448913574218821
 12.6148395538330078 17.1362495422363281 48.0448913574218821
  7.6061611175537109  5.9393639564514160 46.4558296203613281
  7.6037015914916992 14.9707632064819336 46.4558296203613281
 16.6365604400634766  5.9393639564514160 46.4558296203613281
 16.6341018676757812 14.9707632064819336 46.4558296203613281
  5.9380125999450684  1.4238001108169553 46.4545211791992188
  5.9355530738830566 10.4551992416381836 46.4545211791992188
 14.9684123992919904  1.4238001108169553 46.4545211791992188
 14.9659538269042951 10.4551992416381836 46.4545211791992188
 -0.0011664569610730  4.5157265663146973 45.3548011779785156
 -0.0036257810425013 13.5471258163452148 45.3548011779785156
  9.0292339324951172  4.5157265663146973 45.3548011779785156
  9.0267744064331037 13.5471258163452148 45.3548011779785156
  4.5152091979980469  0.0000000000000000 45.3536758422851562
  4.5127501487731934  9.0313997268676740 45.3536758422851562
 13.5456094741821289  0.0000000000000000 45.3536758422851562
 13.5431499481201172  9.0313997268676740 45.3536758422851562
 13.0030441284179688  8.0483922958374023 33.6408462524414062
 13.4126729965209961  8.9862470626831055 32.2106781005859375
 11.9705848693847638  9.9918489456176758 34.7226333618164062
 12.8257350921630859 11.5453100204467756 34.6364746093750000
 15.4222116470336914  9.2109756469726562 35.4279937744140625
 14.3276224136352521 10.4661884307861328 36.0153388977050781
 15.8743963241577148 10.1073322296142578 33.1668624877929759
 14.6057586669921875 11.1483507156372070 32.4917640686035156
 15.7644996643066406  8.3525438308715820 32.3230476379394531
 15.5951471328735334  7.6921100616455069 33.9411048889160227
 15.7693471908569336  5.8915147781372070 32.4009666442871094
 14.1664934158325195  5.8515796661376953 33.1085472106933594
 11.5332126617431641  9.9889335632324219 32.2954597473144531
 12.5833692550659180 11.4269962310791016 32.0526428222656250
 11.0963468551635742 11.5440511703491211 32.9878807067871094
 13.8067388534545898  8.4260234832763672 37.1701087951660156
 13.6431350708007812  7.4822435379028320 35.6910591125488281
 12.4295892715454084  8.7163362503051758 36.1074218750000000
 14.7732820510864258 12.5135011672973633 34.7240333557128906
 16.1902027130126953 12.5327787399291992 33.6731300354003977
 16.2091293334960938 11.4959402084350586 35.1042747497558594
 14.8248939514160156  6.8775672912597647 30.2937850952148438
 14.2167854309082031  5.2753953933715820 30.6971035003662145
 11.9774198532104474  5.4510908126831046 32.3718795776367188
 13.2217512130737305  8.3137741088867188 29.3954582214355469
  9.6714525222778303  6.3714332580566406 32.2786598205566406
 10.9123783111572266  9.2040300369262695 29.2773246765136754
  9.1307077407836914  8.2619476318359375 30.7601089477539062
 17.9827194213867188  4.3361783027648926 34.6397705078125071
  0.5926475524902379 13.9189996719360352 35.2546806335449290
  8.4373836517333984  4.0918059349060059 34.8165893554687500
  9.0401659011840820 13.6646509170532209 34.6876525878906250
  4.2475261688232422  9.5902318954467773 34.9269180297851562
  4.8264736393466592 17.8796479105949402 34.8463554382324219
 14.0748714664950967 17.7610770463943481 35.1712532043457102
  0.0758779048919678  4.4217443466186523 40.5198936462402344
  0.3007084727287292 13.8757905960083008 40.8558731079101562
  9.0220623016357422  4.5084562301635742 40.4360885620117188
  8.9873886108398438 13.5670413970947248 40.4682312011718750
  4.5914607048034668  9.0146141052246094 40.5187721252441406
  4.4892649650573730  0.0302361901849508 40.4341583251953125
 13.4257612228393555  9.3691158294677734 40.8197708129882812
 13.5775846699252725 18.0452362671494484 40.5864028930664062
  9.0289716720581055  4.5156092643737793 46.4455223083496165
  9.0265130996704102 13.5470085144042969 46.4455223083496165
 18.0593719482421875  4.5156092643737793 46.4455223083496165
 18.0569133758544922 13.5470085144042969 46.4455223083496165
  4.5152091979980469  0.0000180629995157 46.4442062377929759
  4.5127501487731934  9.0314178466796857 46.4442062377929759
 13.5456094741821289  0.0000180629995157 46.4442062377929759
 13.5431499481201172  9.0314178466796857 46.4442062377929759
 12.7679710388183594  6.8352718353271484 30.8952102661132812
 11.7471313476562500  6.2817058563232422 31.6920585632324219
 12.4395685195922852  7.8835592269897461 30.0264911651611328
 10.4451589584350586  6.7925796508789054 31.6356697082519531
 11.1420555114746094  8.3881387710571289 29.9617996215820312
 10.1378831863403320  7.8517656326293945 30.7779865264892614
 13.8005428314208967  8.6388378143310547 33.1744308471679688
 12.6271123886108398 10.6108264923095703 34.0968551635742188
 14.3684453964233398  9.5246171951293945 35.4577484130859375
 15.0403356552124006 10.7681083679199219 33.4222412109375000
 15.0696525573730469  7.8136911392211914 32.9827613830566406
 14.8014888763427734  6.4179124832153320 32.4112434387207031
 11.9451541900634766 10.8876066207885742 32.7682838439941406
 13.5000514984130859  8.4810190200805664 36.1181488037109375
 15.5682020187377930 11.8835372924804688 34.3038139343261719
 14.1910390853881836  6.3319692611694336 31.0035076141357422
  1.0495681762695297  4.7454700469970703 35.1676254272460938
  0.5289649963378911 12.8217582702636719 35.9634780883789134
  9.6857957839965803  3.7940652370452881 35.0913772583007812
  8.6744956970214844 12.4787254333496094 35.1160240173339844
  7.9028263092041016  5.2897033691406250 34.8360443115234375
  8.5597877502441406 14.7973184585571271 35.1516456604003977
 16.7974891662597656  4.5942754745483398 35.1455650329589915
 17.6679782867431641 14.7858295440673810 35.1381759643554759
  4.1578822135925293  8.3535690307617188 35.3505706787109375
  3.6276981830596924  0.1710233092308044 35.2227096557617259
 12.8414339283481240 17.8133223056793213 35.6078414916992188
  5.9076871871948242  0.5228655934333801 35.0914497375488281
  5.3624444007873535 10.2340488433837891 34.6684074401855469
 14.8865976333618164  0.7234455347061156 35.0640106201171875
  0.8782994747161864  3.5464127063751216 41.0701255798339915
  1.0054309368133545 12.7997522354125977 41.0958137512207102
  9.7988348007202148  3.7135710716247554 41.1244773864746165
  9.8081550598144531 12.7015037536621094 41.0138969421386719
  3.8367428779602051  8.1477670669555664 41.1491699218750000
  3.6569525459781285 17.2743737697601318 41.0359992980957102
 12.5763492584228516  8.4036073684692383 41.0726203918457031
 12.8019022205844522 17.2499023079872131 41.2791786193847656
  8.1360330581665039  5.3452959060668945 40.9355545043945312
  8.2310171127319336 14.4300460815429688 41.1042137145996094
 17.2818874120712280  5.1905765533447266 41.1482772827148438
 17.1032717823982239 14.0346565246582031 41.2048759460449219
  5.3400335311889648  0.8449946045875549 41.0223350524902344
  5.3057956695556641  9.9690399169921875 41.0754280090332102
 14.4005842208862305  0.8913372159004211 41.0757560729980469
 14.7281761169433576  9.2779102325439453 40.9623451232910156
  0.8273094892501831  3.6869695186614990 47.0359649658203125
  0.8248501420021057 12.7183685302734375 47.0359649658203125
  9.8577098846435547  3.6869695186614990 47.0359649658203125
  9.8552503585815412 12.7183685302734375 47.0359649658203125
  3.6843190193176270  8.2023353576660156 47.0346527099609375
  3.6818594932556152 17.2337341308593750 47.0346527099609375
 12.7147188186645508  8.2023353576660156 47.0346527099609375
 12.7122592926025391 17.2337341308593750 47.0346527099609375
  8.2006769180297852  5.3445744514465332 47.0360260009765696
  8.1982173919677734 14.3759746551513672 47.0360260009765696
 17.2310771942138672  5.3445744514465332 47.0360260009765696
 17.2286186218261719 14.3759746551513672 47.0360260009765696
  5.3436489105224600  0.8290914893150328 47.0346527099609375
  5.3411893844604483  9.8604917526245117 47.0346527099609375
 14.3740482330322266  0.8290914893150328 47.0346527099609375
 14.3715896606445312  9.8604917526245117 47.0346527099609375
 13.9677343368530273  9.8811836242675781 34.0335044860839915
  9.3857345581054688  0.1947287768125534 34.5734748840332031
  8.8506851196289062  8.9254331588745117 34.5132179260253906
  0.2244163304567337  0.1541346311569214 34.4060897827148438
  0.4270360767841339  9.0152502059936523 34.6457252502441406
  4.5415778160095215  4.1628108024597168 34.5579147338867188
  4.5706243515014640 13.7821197509765625 34.5021629333496094
 13.2705144882202148  3.8418633937835693 34.7309646606445312
 12.6359329223632812 14.3864612579345703 34.7023544311523509
 18.0408098790794611 17.8109245598316193 40.8575706481933594
  0.2301293909549713  9.0383977890014648 40.9463539123535227
  8.9304485321044922  0.0743473619222641 40.9265975952148438
  9.0278091430664062  8.9524078369140625 40.8578147888183665
  4.5511646270751953  4.4637489318847656 40.9053039550781250
  4.5265588760375977 13.6167898178100586 40.8752250671386790
 13.4994935989379883  4.8693404197692871 40.9298324584961009
 13.5235795974731445 13.3560705184936523 40.9009094238281250
  2.3504393100738525  2.1924805641174316 37.9469413757324219
  2.7027842998504639 10.9884634017944336 37.9533882141113352
 11.5329904556274396  2.0754718780517578 38.2415580749511719
 11.4057464599609375 11.1591691970825195 37.8948059082031250
  6.5174312591552734  7.0422310829162598 37.8095474243164134
  6.6704626083374023 16.0055294036865234 37.9699783325195312
 16.0492992401123047  6.6298403739929199 37.9632453918457102
 15.6608867645263672 15.9357805252075195 37.8925781250000071
  2.1914467811584473  6.6217112541198730 38.0518341064453196
  2.2239336967468262 15.8102731704711914 37.8818855285644531
 10.8037919998168945  6.3156471252441406 37.5563964843750000
 11.1387376785278320 15.6677818298339844 38.4117927551269602
  7.0018334388732901  2.4416756629943843 37.9438819885253906
  6.9613122940063468 11.4822702407836914 38.0459747314453196
 15.9384384155273420  2.4476900100708008 38.1670799255371094
 16.1377410888671875 11.5521364212036133 38.2955513000488281
  0.0000000000000000  0.0000000000000000 47.1735610961914062
 -0.0024593239650130  9.0313997268676740 47.1735610961914062
  9.0304002761840803  0.0000000000000000 47.1735610961914062
  9.0279407501220685  9.0313997268676740 47.1735610961914062
  4.5139794349670410  4.5156998634338379 47.1742515563964844
  4.5115203857421875 13.5470991134643537 47.1742515563964844
 13.5443792343139648  4.5156998634338379 47.1742515563964844
 13.5419197082519531 13.5470991134643537 47.1742515563964844
  2.4519233703613277  2.0629522800445557 44.0401268005371165
  2.4494640827178955 11.0943517684936523 44.0401268005371165
 11.4823226928710920  2.0629522800445557 44.0401268005371165
 11.4798641204833984 11.0943517684936523 44.0401268005371165
  6.5760178565979004  6.9684472084045410 44.0401268005371165
  6.5735583305358887 15.9998464584350586 44.0401268005371165
 15.6064186096191406  6.9684472084045410 44.0401268005371165
 15.6039590835571289 15.9998464584350586 44.0401268005371165
  2.0610768795013428  6.5788145065307617 44.0400009155273509
  2.0586175918579102 15.6102142333984375 44.0400009155273509
 11.0914773941040039  6.5788145065307617 44.0400009155273509
 11.0890178680419922 15.6102142333984375 44.0400009155273509
  6.9668641090393066  2.4525938034057613 44.0400657653808665
  6.9644045829772949 11.4839935302734375 44.0400657653808665
 15.9972639083862305  2.4525938034057613 44.0400657653808665
 15.9948053359985352 11.4839935302734375 44.0400657653808665
  2.4316265583038330  2.0832188129425049 50.0684852600097656
  2.4291670322418213 11.1146183013915998 50.0684852600097656
 11.4620265960693359  2.0832188129425049 50.0684852600097656
 11.4595670700073224 11.1146183013915998 50.0684852600097656
  6.5963144302368164  6.9481806755065918 50.0684852600097656
  6.5938549041748047 15.9795799255371076 50.0684852600097656
 15.6267137527465803  6.9481806755065918 50.0684852600097656
 15.6242542266845703 15.9795799255371076 50.0684852600097656
  2.0811281204223633  6.5990090370178223 50.0690460205078125
  2.0786688327789307 15.6304082870483398 50.0690460205078125
 11.1115283966064453  6.5990090370178223 50.0690460205078125
 11.1090688705444336 15.6304082870483398 50.0690460205078125
  6.9468131065368652  2.4323906898498531 50.0690460205078125
  6.9443535804748535 11.4637899398803711 50.0690460205078125
 15.9772129058837891  2.4323906898498531 50.0690460205078125
 15.9747543334960938 11.4637899398803711 50.0690460205078125
 18.0302160307765007  0.0669030696153641 37.7316284179687571
  0.0874401330947876  9.1139354705810547 37.7536811828613281
  9.1192598342895490  0.0156224407255650 37.8299751281738281
  9.0693645477294922  8.9998102188110352 37.6888122558593750
  4.5578403472900391  4.4952630996704102 37.7631340026855469
  4.5337200164794922 13.6120281219482404 37.6787986755371165
 13.4901618957519531  4.5355381965637198 37.8077964782714844
 13.4202527999877930 13.6546745300292969 37.7214775085449219
  0.0000090280000222  0.0000090310004452 44.0429992675781250
 -0.0024502959568053  9.0314083099365234 44.0429992675781250
  9.0304088592529297  0.0000090310004452 44.0429992675781250
  9.0279493331909180  9.0314083099365234 44.0429992675781250
  4.5139703750610352  4.5156903266906738 44.0427513122558594
  4.5115113258361816 13.5470905303955078 44.0427513122558594
 13.5443706512451172  4.5156903266906738 44.0427513122558594
 13.5419111251831037 13.5470905303955078 44.0427513122558594
  0.0000000000000000  0.0000000000000000 50.4472808837890696
 -0.0024593239650130  9.0313997268676740 50.4472808837890696
  9.0304002761840803  0.0000000000000000 50.4472808837890696
  9.0279407501220685  9.0313997268676740 50.4472808837890696
  4.5139703750610352  4.5156998634338379 50.4472808837890696
  4.5115113258361816 13.5470991134643537 50.4472808837890696
 13.5443706512451172  4.5156998634338379 50.4472808837890696
 13.5419111251831055 13.5470991134643537 50.4472808837890696
