 H  C  N  I Pb 
 1.0000000000000000
    18.0608005523681641    0.0000000000000000    0.0000000000000000
    -0.0049186488613486   18.0627994537353516    0.0000000000000000
     0.0000000000000000    0.0000000000000000   62.4874992370605469
 H   C   N   I   Pb 
 143  39  47  72  24
Cartesian
  7.4610562324523926  4.9176325798034668 35.5568542480468821
  7.4052624702453613 12.7962999343872070 35.8446807861328125
 16.7605533599853516  5.1468353271484375 36.3304100036621094
 16.8430786132812500 14.6716642379760742 35.8808937072753906
  5.8487792015075675  1.5903161764144897 35.4762496948242188
  5.7032437324523926 10.4388284683227539 35.6292076110839844
 14.4606895446777344  1.6721861362457273 35.7193870544433665
  1.9852333068847698  4.3180460929870605 35.1725044250488352
  1.4959468841552750 12.2781610488891602 35.5499649047851562
 10.7579774856567383  3.4550485610961914 35.3483314514160227
 10.8770923614501935 13.3635530471801758 34.9631652832031250
  6.8454184532165527  0.3445813655853271 34.7624320983886790
  4.5700907707214355 11.2500476837158203 34.6049728393554688
 15.7782306671142578  0.7455287575721740 35.0222473144531250
  1.1187229156494141  5.1523556709289542 36.4259262084960938
 18.0151958465576172 12.4941940307617188 36.3338661193847656
  9.1219301223754883  3.1013104915618896 35.8587379455566406
  9.8563871383666992 12.3773088455200195 35.9914855957031250
  5.4778299331665039  7.9716768264770499 35.8814086914062500
  3.4275193214416504  1.1404119729995728 35.6290054321289062
 12.2388381958007812  0.5476793646812439 35.7764739990234375
  8.0936403274536133  6.4298825263977042 34.9473609924316477
  6.8473377227783203 14.0377111434936523 34.7811698913574219
 15.9720287322998029  4.2305889129638672 35.0647773742675781
 17.6725978851318359 15.7728052139282227 34.8274574279785156
  4.1790561676025391  7.2151470184326163 35.0145072937011719
  2.8060774067416787 17.8044441044330597 34.8224449157714844
 12.1809314945712686 16.9965267181396520 35.1151733398437500
 10.1973342895507795  5.5920367240905753 34.6350746154785156
  9.0665597915649396 14.5560245513916016 34.0964202880859375
 18.0510463714599609  3.5702450275421143 34.1473846435546875
  1.3901271820068355 14.3173484802246076 34.4596900939941406
  3.4147338867187500  9.2419872283935547 34.1427001953125000
  4.9891833523288369 17.0838956832885742 34.2380218505859375
 14.4054893711581826 16.9978054761886597 34.5502929687500000
  8.2165031433105469  5.2385430335998535 42.2049598693847727
  7.8931217193603516 14.6846275329589844 41.9686927795410227
 17.3897330760955811  5.0759587287902832 42.4246635437011790
 16.6169040203094518 13.5153036117553711 41.8863029479980469
  5.4157586097717285  0.7652701139450073 42.1710739135742259
  5.5721583366394043  9.9743471145629883 42.1186447143554688
 14.2990036010742170  0.9646167755126953 42.2189025878906250
 14.8564834594726545  9.3159284591674805 41.9800300598144531
  1.5978207588195801  3.0746841430664062 40.3969268798828125
  1.8395378589630127 12.5220041275024414 40.7111206054687500
 10.3943443298339844  3.0250608921051025 40.2612838745117259
 10.3384666442871094 12.2344522476196289 40.7662620544433594
  3.3052868843078613  7.4722304344177246 40.6747398376464915
  2.9521209457889195 16.7960835695266724 40.3404350280761790
 11.6798248291015625  8.1426734924316406 40.6403388977050781
 12.2094740131869912 16.5478780269622803 40.4947052001953196
  1.2067878246307373  3.3558256626129150 42.0685157775878977
  0.5171680450439453 11.9385681152343750 41.6897964477539134
  9.8569507598876953  3.2724416255950928 41.8885726928711009
  9.7255163192749023 12.8701438903808594 42.2570800781250071
  3.9025716781616211  7.9716720581054688 42.2259941101074219
  3.3463401058688760 17.1979441046714783 41.9858512878417969
 12.7198114395141584  7.9111862182617188 42.0059585571289062
 12.5455641010776162 17.0940637588500977 42.1148033142089844
  7.9201631546020508  6.1639485359191895 40.7781715393066477
  7.4751963615417480 15.0253877639770508 40.3201370239257812
 16.7226347923278809  5.7759356498718262 40.9750671386718821
 16.7885850667953491 15.0378141403198242 41.0538444519042969
  6.1652679443359375  1.1323052644729614 40.6571197509765625
  5.8248357772827148 10.5927190780639648 40.5248031616210938
 14.9211864471435547  1.4504001140594482 40.6731147766113281
 15.0508384704589844 10.3738002777099609 40.5888633728027415
  0.0258843600749969  4.5704975128173828 39.5620117187500000
  0.7903492450714111 14.5126762390136719 40.1802215576171875
  9.2567253112792969  4.8495993614196777 39.4190635681152415
  9.0016775131225586 13.5316734313964844 39.4354286193847727
  4.6649698475375772 17.9590888321399689 39.3869323730468821
  4.4501638412475586  9.0825576782226545 39.4893722534179688
 13.6841520527377725 17.9879466518759727 39.4779319763183594
 13.0246467590332013  9.7224216461181641 39.6327171325683665
  8.1032123565673828  5.4420318603515616 48.0459518432617259
  8.1007528305053711 14.4734306335449219 48.0459518432617259
 17.1336116790771484  5.4420318603515616 48.0459518432617259
 17.1311531066894531 14.4734306335449219 48.0459518432617259
  5.4410333633422852  0.9265221953392029 48.0449485778808594
  5.4385743141174316  9.9579219818115234 48.0449485778808594
 14.4714326858520490  0.9265221953392029 48.0449485778808594
 14.4689741134643555  9.9579219818115234 48.0449485778808594
  1.4218254089355467  3.0919990539550781 46.4558296203613281
  1.4193661212921143 12.1233978271484375 46.4558296203613281
 10.4522256851196289  3.0919990539550781 46.4558296203613281
 10.4497661590576172 12.1233978271484375 46.4558296203613281
  3.0899283885955806  7.6075901985168457 46.4545211791992188
  3.0874691009521484 16.6389904022216797 46.4545211791992188
 12.1203289031982422  7.6075901985168457 46.4545211791992188
 12.1178693771362305 16.6389904022216797 46.4545211791992188
  0.9247469902038573  3.5893490314483643 48.0459518432617259
  0.9222877025604248 12.6207475662231445 48.0459518432617259
  9.9551477432250977  3.5893490314483643 48.0459518432617259
  9.9526882171630859 12.6207475662231445 48.0459518432617259
  3.5868983268737793  8.1048498153686523 48.0448913574218821
  3.5844390392303462 17.1362495422363281 48.0448913574218821
 12.6172990798950195  8.1048498153686523 48.0448913574218821
 12.6148395538330078 17.1362495422363281 48.0448913574218821
  7.6061611175537109  5.9393639564514160 46.4558296203613281
  7.6037015914916992 14.9707632064819336 46.4558296203613281
 16.6365604400634766  5.9393639564514160 46.4558296203613281
 16.6341018676757812 14.9707632064819336 46.4558296203613281
  5.9380125999450684  1.4238001108169553 46.4545211791992188
  5.9355530738830566 10.4551992416381836 46.4545211791992188
 14.9684123992919904  1.4238001108169553 46.4545211791992188
 14.9659538269042951 10.4551992416381836 46.4545211791992188
 -0.0011664569610730  4.5157265663146973 45.3548011779785156
 -0.0036257810425013 13.5471258163452148 45.3548011779785156
  9.0292339324951172  4.5157265663146973 45.3548011779785156
  9.0267744064331037 13.5471258163452148 45.3548011779785156
  4.5152091979980469  0.0000000000000000 45.3536758422851562
  4.5127501487731934  9.0313997268676740 45.3536758422851562
 13.5456094741821289  0.0000000000000000 45.3536758422851562
 13.5431499481201172  9.0313997268676740 45.3536758422851562
 14.4298763275146484  9.2155590057373047 32.1867713928222656
 15.8768091201782227  9.0430936813354492 33.2254638671875000
 13.7966890335083008 11.2817792892456055 33.3295364379882884
 13.8128194808959943 11.3647937774658185 35.0766983032226562
 12.3744544982910156  8.1478738784790039 34.4451904296875071
 12.1241083145141602  9.8110570907592773 34.9590950012207031
 14.4411983489990234  7.7462973594665518 35.4956016540527344
 15.6692962646484357  8.9961204528808594 35.5421943664550781
 15.5186891555786133  6.8019881248474121 33.7091407775878906
 13.7901515960693359  6.8497238159179688 33.3874511718750000
 14.1034469604492170  6.8828673362731934 31.0155830383300781
 15.7769279479980469  7.4160552024841309 31.1149444580078161
 16.2229824066162109 11.1709928512573224 33.1631546020507812
 16.4259700775146484 10.9511222839355469 34.8987846374511790
 15.7484798431396484 12.4702281951904279 34.2626113891601562
 10.8515253067016602  9.3284740447998047 32.9797325134277344
 12.2474737167358398  8.8218345642089844 32.0371589660644531
 12.0739793777465803 10.5242185592651367 32.5277633666992188
 12.8368320465087891  9.1149616241455078 36.8365478515625000
 14.0591516494750977 10.4242763519287092 36.9459266662597727
 14.3856220245361328  8.8412513732910156 37.6586265563964844
 14.8765859603881836  4.6319689750671387 32.0963973999023438
 15.2499780654907227  4.9682645797729492 30.4184417724609375
 16.6992187500000000  2.9132759571075439 31.1282939910888707
 17.5575103759765625  6.9777350425720215 32.3238525390625000
  1.0361919403076176  2.3511922359466553 31.4397239685058594
  1.8417510986328152  6.4300994873046875 32.6320114135742188
  2.6693725585937509  4.1108508110046387 32.1459617614746094
 18.0098075866699219  4.2218132019042969 35.0203361511230469
  0.5432434082031273 13.9936857223510742 35.0559692382812571
  9.4216117858886719  4.9354057312011719 35.0321273803710938
  8.8713331222534180 13.7384910583496094 34.7951240539550781
  4.3094997406005859  9.2279062271118164 34.7621765136718750
  4.8378562191501251 18.0464530885219574 34.7363624572753906
 13.9787487247958779 17.8871656209230423 35.0208091735839844
  0.1196361705660820  4.4301147460937500 40.6425209045410156
  0.2774347066879272 13.8024930953979492 40.8244781494140625
  9.1554889678955078  4.6072425842285156 40.4674110412597656
  8.9170475006103516 13.6381998062133789 40.5104255676269531
  4.5739755630493164  9.0335950851440430 40.5673141479492188
  4.5505842426791778 17.9914418756961823 40.4747924804687500
 13.3528566360473633  9.2621736526489258 40.5795745849609375
 13.5768989780917764 18.0279177464544809 40.5625267028808665
  9.0289716720581055  4.5156092643737793 46.4455223083496165
  9.0265130996704102 13.5470085144042969 46.4455223083496165
 18.0593719482421875  4.5156092643737793 46.4455223083496165
 18.0569133758544922 13.5470085144042969 46.4455223083496165
  4.5152091979980469  0.0000180629995157 46.4442062377929759
  4.5127501487731934  9.0314178466796857 46.4442062377929759
 13.5456094741821289  0.0000180629995157 46.4442062377929759
 13.5431499481201172  9.0314178466796857 46.4442062377929759
 16.9379825592041016  5.0023560523986816 31.6895561218261719
 17.4149017333984375  3.6863853931427002 31.4665393829345703
 17.8624534606933594  5.9578580856323242 32.1118507385253906
  0.6965160369873040  3.3674013614654541 31.6331062316894531
  1.1604614257812522  5.6505846977233887 32.2729873657226562
  1.6140594482421902  4.3517689704895020 32.0315475463867188
 14.8191461563110352  8.7501468658447266 33.1080627441406321
 14.3212985992431641 10.9228744506835938 34.2138519287109375
 12.5711908340454102  9.1877222061157209 34.1745796203613281
 14.5852718353271484  8.8302383422851562 35.5584068298339915
 14.7587080001831055  7.2294311523437500 33.0439949035644602
 15.0213689804077148  6.7464222908020020 31.6021423339843750
 15.7680015563964844 11.3780040740966797 34.1369018554687500
 11.9232425689697266  9.4893951416015607 32.8397903442382884
 13.9173851013183576  9.3517780303955060 36.8051681518554688
 15.4728908538818359  5.2871947288513184 31.4489994049072266
  1.0778903961181621  4.5611305236816406 35.5927505493164134
  0.6364707946777343 12.8200941085815430 35.6303367614746094
  9.7759723663330060  3.7197349071502686 35.3653411865234375
  9.9194984436035138 13.0599174499511701 35.2180442810058594
  8.2235507965087891  5.4249882698059082 35.1166801452636790
  7.6379246711730957 13.5002946853637678 35.1435394287109446
 16.8373374938964844  4.6018881797790527 35.4592514038085938
 17.5728797912597656 14.8030738830566406 35.1632537841796875
  4.6927495002746573  8.0684108734130859 35.2450866699218750
  3.6123228073120117  0.3265900313854218 35.0587120056152344
 12.6886591175571084 17.8651267439127004 35.2697296142578125
  5.9049057960510254  0.7140171527862549 34.9744300842285156
  4.9254622459411621 10.3590641021728516 34.9824142456054688
 14.7833967208862305  0.8344924449920654 35.2601585388183594
  1.0234432220458984  3.5660083293914790 41.0801620483398438
  0.9095709323883057 12.6688976287841779 41.0894660949707102
  9.8282089233398438  3.5609712600708008 40.9113693237304688
  9.7049303054809570 12.8786649703979492 41.2343101501464844
  3.8921258449554443  8.1048192977905273 41.2115516662597656
  3.5570015171542764 17.3039247393608093 40.9883842468261719
 12.5593929290771484  8.3804044723510742 41.1184616088867259
 12.7314438084140420 17.1756116747856176 41.1099815368652344
  8.3953466415405273  5.3724350929260245 41.1996231079101634
  8.0520973205566406 14.4976587295532227 40.9752426147460938
 17.3812515735626221  5.1364240646362305 41.4126777648925852
 17.1653420329093933 14.1247587203979474 41.2893028259277415
  5.4181156158447266  0.6489000320434570 41.1570129394531250
  5.3641324043273926  9.9077262878417969 41.1129035949707031
 14.3003549575805664  0.8393124341964722 41.2011947631835938
 14.5085611343383789  9.6593465805053711 41.0810317993164134
  0.8273094892501831  3.6869695186614990 47.0359649658203125
  0.8248501420021057 12.7183685302734375 47.0359649658203125
  9.8577098846435547  3.6869695186614990 47.0359649658203125
  9.8552503585815412 12.7183685302734375 47.0359649658203125
  3.6843190193176270  8.2023353576660156 47.0346527099609375
  3.6818594932556152 17.2337341308593750 47.0346527099609375
 12.7147188186645508  8.2023353576660156 47.0346527099609375
 12.7122592926025391 17.2337341308593750 47.0346527099609375
  8.2006769180297852  5.3445744514465332 47.0360260009765696
  8.1982173919677734 14.3759746551513672 47.0360260009765696
 17.2310771942138672  5.3445744514465332 47.0360260009765696
 17.2286186218261719 14.3759746551513672 47.0360260009765696
  5.3436489105224600  0.8290914893150328 47.0346527099609375
  5.3411893844604483  9.8604917526245117 47.0346527099609375
 14.3740482330322266  0.8290914893150328 47.0346527099609375
 14.3715896606445312  9.8604917526245117 47.0346527099609375
 14.0696077346801758  9.4156455993652344 34.2635955810546875
  9.1850675800815225 17.6455820500850677 34.5558624267578125
  8.3607978820800781  8.9726219177246094 34.6513442993164062
  0.0815986543893814  0.2172583490610123 34.4780921936035156
  0.6324279308319092  8.9405517578125000 34.6625823974609375
  4.5792279243469238  4.4015655517578125 34.6654014587402344
  4.2167649269104004 13.9450216293334961 34.4398498535156250
 13.3306503295898438  4.0040459632873535 34.7059059143066406
 13.0329017639160156 14.3908481597900391 34.5993080139160156
 17.9540391648188233 17.8076557517051697 40.8895111083984375
  0.0653973594307899  9.0620851516723633 40.9497909545898509
  8.9782247543334961  0.0483057424426079 40.8989448547363281
  8.9857301712036133  9.0623636245727539 40.9081344604492188
  4.7422270774841309  4.3263459205627441 40.9569358825683594
  4.4452242851257324 13.6347551345825195 40.8629341125488281
 13.4146080017089826  4.6967864036560059 40.9738311767578196
 13.5714788436889631 13.4006824493408203 40.8503761291503977
  2.5289614200592041  2.0418698787689209 38.0434951782226562
  2.6189792156219482 11.0129499435424805 38.0161361694335938
 11.5934247970581055  1.9453356266021726 38.0583724975585938
 11.1067972183227539 11.4164800643920898 38.1253318786621094
  6.6312980651855460  6.9406185150146484 38.1656303405761790
  6.5668811798095703 15.9919271469116211 37.8898887634277415
 16.0504283905029297  6.5411410331726074 38.3488464355468750
 15.5942859649658185 16.0548915863037109 37.8700447082519531
  2.2698087692260742  6.6790819168090820 38.2786865234375071
  2.1315910816192627 15.7925519943237305 37.9268646240234375
 11.2120285034179688  6.7351870536804190 37.6615142822265696
 11.1776132583618164 15.6689805984497070 38.2915115356445312
  7.2193727493286133  2.5996921062469482 37.7622718811035227
  6.8044366836547852 11.4193162918090820 37.9566459655761790
 15.9495077133178711  2.4094099998474117 38.2755279541015625
 16.3377094268798828 11.7778015136718750 38.2257957458496094
  0.0000000000000000  0.0000000000000000 47.1735610961914062
 -0.0024593239650130  9.0313997268676740 47.1735610961914062
  9.0304002761840803  0.0000000000000000 47.1735610961914062
  9.0279407501220685  9.0313997268676740 47.1735610961914062
  4.5139794349670410  4.5156998634338379 47.1742515563964844
  4.5115203857421875 13.5470991134643537 47.1742515563964844
 13.5443792343139648  4.5156998634338379 47.1742515563964844
 13.5419197082519531 13.5470991134643537 47.1742515563964844
  2.4519233703613277  2.0629522800445557 44.0401268005371165
  2.4494640827178955 11.0943517684936523 44.0401268005371165
 11.4823226928710920  2.0629522800445557 44.0401268005371165
 11.4798641204833984 11.0943517684936523 44.0401268005371165
  6.5760178565979004  6.9684472084045410 44.0401268005371165
  6.5735583305358887 15.9998464584350586 44.0401268005371165
 15.6064186096191406  6.9684472084045410 44.0401268005371165
 15.6039590835571289 15.9998464584350586 44.0401268005371165
  2.0610768795013428  6.5788145065307617 44.0400009155273509
  2.0586175918579102 15.6102142333984375 44.0400009155273509
 11.0914773941040039  6.5788145065307617 44.0400009155273509
 11.0890178680419922 15.6102142333984375 44.0400009155273509
  6.9668641090393066  2.4525938034057613 44.0400657653808665
  6.9644045829772949 11.4839935302734375 44.0400657653808665
 15.9972639083862305  2.4525938034057613 44.0400657653808665
 15.9948053359985352 11.4839935302734375 44.0400657653808665
  2.4316265583038330  2.0832188129425049 50.0684852600097656
  2.4291670322418213 11.1146183013915998 50.0684852600097656
 11.4620265960693359  2.0832188129425049 50.0684852600097656
 11.4595670700073224 11.1146183013915998 50.0684852600097656
  6.5963144302368164  6.9481806755065918 50.0684852600097656
  6.5938549041748047 15.9795799255371076 50.0684852600097656
 15.6267137527465803  6.9481806755065918 50.0684852600097656
 15.6242542266845703 15.9795799255371076 50.0684852600097656
  2.0811281204223633  6.5990090370178223 50.0690460205078125
  2.0786688327789307 15.6304082870483398 50.0690460205078125
 11.1115283966064453  6.5990090370178223 50.0690460205078125
 11.1090688705444336 15.6304082870483398 50.0690460205078125
  6.9468131065368652  2.4323906898498531 50.0690460205078125
  6.9443535804748535 11.4637899398803711 50.0690460205078125
 15.9772129058837891  2.4323906898498531 50.0690460205078125
 15.9747543334960938 11.4637899398803711 50.0690460205078125
 18.0599314071005210  0.1226010620594025 37.7682762145996094
  0.1332259476184845  9.1097126007080060 37.7861518859863281
  9.0771202305331826 17.9718101993203163 37.7149734497070312
  9.0017070770263672  9.0406055450439453 37.7235145568847656
  4.6114711761474609  4.5326719284057617 37.8594017028808665
  4.4181389808654785 13.6663036346435547 37.7038955688476562
 13.5253810882568359  4.5397081375122070 37.8806381225585938
 13.5390243530273438 13.7267475128173810 37.6919097900390625
  0.0000090280000222  0.0000090310004452 44.0429992675781250
 -0.0024502959568053  9.0314083099365234 44.0429992675781250
  9.0304088592529297  0.0000090310004452 44.0429992675781250
  9.0279493331909180  9.0314083099365234 44.0429992675781250
  4.5139703750610352  4.5156903266906738 44.0427513122558594
  4.5115113258361816 13.5470905303955078 44.0427513122558594
 13.5443706512451172  4.5156903266906738 44.0427513122558594
 13.5419111251831037 13.5470905303955078 44.0427513122558594
  0.0000000000000000  0.0000000000000000 50.4472808837890696
 -0.0024593239650130  9.0313997268676740 50.4472808837890696
  9.0304002761840803  0.0000000000000000 50.4472808837890696
  9.0279407501220685  9.0313997268676740 50.4472808837890696
  4.5139703750610352  4.5156998634338379 50.4472808837890696
  4.5115113258361816 13.5470991134643537 50.4472808837890696
 13.5443706512451172  4.5156998634338379 50.4472808837890696
 13.5419111251831055 13.5470991134643537 50.4472808837890696
