 H  C  N  I Pb 
 1.0000000000000000
    18.0608005523681641    0.0000000000000000    0.0000000000000000
    -0.0049186488613486   18.0627994537353516    0.0000000000000000
     0.0000000000000000    0.0000000000000000   62.4874992370605469
 H   C   N   I   Pb 
 143  39  47  72  24
Cartesian
  8.1711168289184570  6.0585751533508301 35.2737083435058594
  7.7941460609436035 14.9911088943481445 35.5959777832031250
 17.3549900054931641  5.9383826255798331 35.9965438842773438
 17.0645389556884766 14.7388715744018537 35.8161125183105469
  5.9993070820346466 17.2535573840141296 35.7673072814941406
  6.3478727340698242  9.9269123077392578 34.8854560852050781
 14.5574760437011719  1.5889060497283936 35.3038711547851634
  0.1879844665527382  2.5886960029602051 34.9727439880371094
  1.2863712310791022 11.9428348541259766 35.6038017272949290
  9.9734926223754883  2.8958702087402344 34.8506698608398509
  8.9640302658081055 11.6368818283081037 34.9522399902343750
  6.5665302276611328  0.5132260918617249 34.7835845947265625
  5.3379673957824698 11.3517084121704102 34.5682830810546875
 15.8642072677612305  0.4710243642330169 34.8455848693847656
 17.2382946014404297  3.4792871475219727 36.1011199951171875
 17.9084320068359375 12.4639015197753906 36.4295425415039062
 10.2254037857055646  4.5327444076538086 35.4411239624023438
  7.8463616371154785 12.5351572036743146 35.9298934936523438
  5.0658473968505859  7.9223747253417969 35.7577819824218750
  3.6062249401584268 16.7562333345413208 35.7684173583984375
 12.3056898117065430  0.5742967724800110 35.6059417724609375
  6.7273445129394531  5.2655529975891113 34.6617660522460938
  9.0053005218505859 15.7041721343994141 34.5591583251953125
  0.3332252502441404  6.6580176353454590 34.8007011413574219
 17.9548187255859375 15.6372365951538086 34.6328849792480540
  3.3296668529510494  8.0040712356567383 35.5475273132324219
  2.5258926609531045 17.8872692883014679 34.9765243530273438
 12.1722769001498818 16.9235506057739258 35.1895370483398438
  7.7902851104736328  3.2602503299713135 34.2604370117187571
  9.8776779174804688 13.5865392684936523 33.9748611450195312
  1.1242351531982429  4.5490083694458008 34.0767898559570312
  1.5055217742919906 13.9230556488037109 34.3832893371582102
  3.3458685874938965 10.1526679992675781 34.7829627990722727
  4.3482017517089844  1.1615592241287231 34.2258148193359375
 14.3897995213046670 16.7220456600189209 34.6813468933105469
  8.7783918380737305  6.1359281539916992 41.3193092346191477
  8.1157875061035156 14.6528825759887695 42.0860290527343750
 17.4276762604713475  5.1292304992675781 42.2628669738769531
 16.7991329431533813 13.0852880477905273 42.0472946166992188
  5.5812149047851562  1.0247557163238525 41.8424530029296946
  5.3769440650939933  9.9049615859985352 42.1874923706054688
 14.4604740142822266  1.0133358240127563 42.1407852172851562
 13.7464447021484375 10.7924499511718750 41.0458221435546875
  1.5560073852539060  2.9454076290130611 40.2892723083496094
  2.0985422134399414 13.0141801834106445 40.6741790771484375
 10.2950706481933594  2.8664331436157227 40.7673492431640696
 10.1886100769042969 11.9849662780761719 40.6479644775390625
  3.1980235576629639  7.4826459884643555 40.4770851135253906
  3.1192988613620400 16.6139602661132848 40.6655197143554688
 12.6145935058593750  7.3359737396240234 41.2451095581054688
 12.1716140964999795 16.6206350326538086 40.6422157287597727
  1.1378893852233887  3.2840521335601807 41.9538040161132812
  1.0729721784591675 12.2095346450805646 41.8203887939453196
 10.7265014648437500  4.4870810508728027 41.2102165222167969
  9.6269283294677734 12.5446662902832031 42.2112579345703125
  3.5892648696899414  8.0057725906372070 42.0992736816406250
  3.7420605877414346 17.2574235200881958 42.1581420898437500
 12.0099754333496094  8.9687585830688477 41.3739395141601562
 12.5936683872714639 17.2857061624526978 42.2003822326660156
  7.1973209381103516  5.4287261962890625 41.0434761047363281
  7.8648347854614258 15.2545166015625000 40.4786376953125000
 16.9138133525848424  5.8776817321777344 40.7775497436523438
 16.3397331237793004 14.3577747344970703 40.9627494812011719
  5.9555878639221191  1.3657288551330566 40.1732177734375000
  5.9404730796813965 10.4265575408935547 40.6271705627441406
 15.0590133666992170  1.3704899549484253 40.5368194580078125
 15.3455295562744141 10.2436923980712891 40.6867675781250000
  0.1657125055789948  4.5677919387817383 39.4324340820312500
  0.4039774537086487 14.4675397872924805 39.9712944030761790
  8.0343227386474609  3.3129432201385498 40.6069717407226562
  9.1398496627807617 13.6320199966430664 39.4613075256347727
  4.4449829319491982 17.9152065217494965 39.3269042968750000
  4.6510701179504395  8.9340496063232422 39.4517059326171875
 13.6864122608676535 17.8987761139869690 39.4835090637207031
 14.7837200164794904  7.9903855323791504 40.7630386352539062
  8.1032123565673828  5.4420318603515616 48.0459518432617259
  8.1007528305053711 14.4734306335449219 48.0459518432617259
 17.1336116790771484  5.4420318603515616 48.0459518432617259
 17.1311531066894531 14.4734306335449219 48.0459518432617259
  5.4410333633422852  0.9265221953392029 48.0449485778808594
  5.4385743141174316  9.9579219818115234 48.0449485778808594
 14.4714326858520490  0.9265221953392029 48.0449485778808594
 14.4689741134643555  9.9579219818115234 48.0449485778808594
  1.4218254089355467  3.0919990539550781 46.4558296203613281
  1.4193661212921143 12.1233978271484375 46.4558296203613281
 10.4522256851196289  3.0919990539550781 46.4558296203613281
 10.4497661590576172 12.1233978271484375 46.4558296203613281
  3.0899283885955806  7.6075901985168457 46.4545211791992188
  3.0874691009521484 16.6389904022216797 46.4545211791992188
 12.1203289031982422  7.6075901985168457 46.4545211791992188
 12.1178693771362305 16.6389904022216797 46.4545211791992188
  0.9247469902038573  3.5893490314483643 48.0459518432617259
  0.9222877025604248 12.6207475662231445 48.0459518432617259
  9.9551477432250977  3.5893490314483643 48.0459518432617259
  9.9526882171630859 12.6207475662231445 48.0459518432617259
  3.5868983268737793  8.1048498153686523 48.0448913574218821
  3.5844390392303462 17.1362495422363281 48.0448913574218821
 12.6172990798950195  8.1048498153686523 48.0448913574218821
 12.6148395538330078 17.1362495422363281 48.0448913574218821
  7.6061611175537109  5.9393639564514160 46.4558296203613281
  7.6037015914916992 14.9707632064819336 46.4558296203613281
 16.6365604400634766  5.9393639564514160 46.4558296203613281
 16.6341018676757812 14.9707632064819336 46.4558296203613281
  5.9380125999450684  1.4238001108169553 46.4545211791992188
  5.9355530738830566 10.4551992416381836 46.4545211791992188
 14.9684123992919904  1.4238001108169553 46.4545211791992188
 14.9659538269042951 10.4551992416381836 46.4545211791992188
 -0.0011664569610730  4.5157265663146973 45.3548011779785156
 -0.0036257810425013 13.5471258163452148 45.3548011779785156
  9.0292339324951172  4.5157265663146973 45.3548011779785156
  9.0267744064331037 13.5471258163452148 45.3548011779785156
  4.5152091979980469  0.0000000000000000 45.3536758422851562
  4.5127501487731934  9.0313997268676740 45.3536758422851562
 13.5456094741821289  0.0000000000000000 45.3536758422851562
 13.5431499481201172  9.0313997268676740 45.3536758422851562
 14.0155000686645508 10.0595407485961914 32.4651527404785156
 12.9894561767578107  8.6493310928344727 32.7882308959960938
 15.6809120178222638  9.0511970520019531 33.6531906127929759
 15.5147590637207031  8.7006502151489258 35.3725318908691477
 13.4474124908447248 11.5878629684448242 34.9974555969238352
 14.6734113693237305 10.7800273895263672 35.9836425781250000
 12.0363483428955078  9.8858976364135742 35.5539207458496094
 12.2915267944335938  8.2023105621337891 35.0132179260253977
 11.1452779769897461 10.0881376266479492 33.5644302368164134
 12.1639823913574219 11.5391855239868146 33.4268684387207031
 10.9510078430175781 11.6629323959350586 31.4712791442871129
 12.4035654067993164 10.8847579956054670 30.8796653747558594
 14.2013196945190430  7.0343685150146484 33.1157569885253977
 14.0574722290039045  6.7198429107666016 34.8464431762695312
 15.6294345855712891  6.6343455314636230 34.0602684020996165
 15.5890226364135742 12.5766420364379883 34.5578536987304688
 15.1776494979858381 11.6867551803588867 33.0914421081542969
 16.3773403167724609 11.0089731216430646 34.2343521118164134
 13.9080495834350568  9.5414075851440430 37.2929611206054688
 13.9647865295410156  7.8312726020812988 36.8054962158203125
 12.4901332855224609  8.5140962600708008 37.4935951232910156
  9.6992349624633789  9.5486755371093750 31.5283908843994141
 10.3737964630126953  9.8658380508422852 29.9176368713378942
 12.6727342605590803  8.6771993637084961 29.3541927337646484
 10.0550146102905256  7.4933686256408691 32.5472183227539062
 13.8125152587890625  6.4759907722473145 29.4693107604980504
 11.2024364471435547  5.2887587547302246 32.6848526000976562
 13.1056604385375977  4.7832803726196289 31.1664371490478551
  0.3357944488525386  4.6091613769531250 34.8314476013183594
  0.6475582122802771 13.7823801040649414 35.0470924377441406
  8.3637342453002930  4.0956950187683105 34.6729278564453125
  9.0306863784790039 13.6611318588256818 34.6633872985839915
  4.3067150115966797  9.6660366058349609 34.9837684631347656
  4.5300025939941406  0.2537466883659363 34.8138046264648438
 14.0228056171908975 17.7028775513172150 34.9961128234863281
  0.1982709169387817  4.4154524803161621 40.5152091979980469
  0.1947791576385498 13.7352619171142578 40.7611503601074219
  8.7196083068847656  4.1213264465332031 40.8801002502441477
  9.0296154022216797 13.6199579238891602 40.5399589538574219
  4.5766525268554688  8.9505786895751953 40.5413780212402344
  4.5355767467990518 18.0203423127532005 40.4098625183105469
 14.0134220123291016  8.7514619827270508 40.9458312988281321
 13.6216234425082803 18.0164417549967766 40.5678253173828125
  9.0289716720581055  4.5156092643737793 46.4455223083496165
  9.0265130996704102 13.5470085144042969 46.4455223083496165
 18.0593719482421875  4.5156092643737793 46.4455223083496165
 18.0569133758544922 13.5470085144042969 46.4455223083496165
  4.5152091979980469  0.0000180629995157 46.4442062377929759
  4.5127501487731934  9.0314178466796857 46.4442062377929759
 13.5456094741821289  0.0000180629995157 46.4442062377929759
 13.5431499481201172  9.0314178466796857 46.4442062377929759
 11.2924785614013672  8.2425785064697266 30.9616260528564489
 12.3505840301513672  7.9316105842590332 30.0978813171386719
 10.8818702697753888  7.2647671699523926 31.8747901916503906
 12.9906902313232404  6.6964898109436035 30.1544075012207067
 11.5266494750976562  6.0252442359924316 31.9492149353027379
 12.5905570983886701  5.7398166656494141 31.0930709838867223
 13.2132968902587891  9.6731529235839844 33.0972862243652415
 15.0065441131591779  8.6263427734375000 34.4029464721679759
 14.3226985931396484 10.9302511215209961 34.9590911865234375
 12.7720041275024414  9.0777864456176758 35.4690361022949219
 11.9673814773559570 10.5388593673706055 32.9874610900878906
 11.5273857116699201 10.7322463989257812 31.5238018035888672
 14.6844968795776367  7.1867003440856925 34.0860939025878906
 15.4337234497070312 11.5658035278320312 34.1509628295898438
 13.3347454071044922  8.7305793762207031 36.8246955871582031
 10.6447391510009766  9.6039772033691406 30.9540061950683594
 17.9433975219726562  3.4932632446289062 35.3404159545898509
  0.5881652832031237 12.6698703765869141 35.7340965270996094
  9.6294336318969727  3.8606486320495605 34.9393272399902344
  8.5565500259399414 12.5481615066528320 35.1847419738769531
  7.7393999099731445  5.2369475364685059 34.8350563049316406
  8.5421476364135742 14.8588247299194318 34.9085922241210938
 17.9753189086914062  5.8004026412963867 35.1802368164062500
 17.7915706634521484 14.7290105819702131 35.0900955200195312
  4.2515883445739746  8.4089536666870117 35.3663558959960938
  3.4951948383823037 17.5942009687423706 35.1906509399414062
 12.7367700794711709 17.7889184057712555 35.2380065917968750
  5.7636040905490518 18.0160252824425697 35.1212310791015625
  5.4144291877746582 10.3471708297729492 34.8061065673828125
 14.8797378540039062  0.6320754885673523 35.1102752685546875
  1.0076087713241577  3.4810030460357666 40.9631881713867188
  1.1648098230361936 12.8981380462646467 41.0746421813964844
  9.9996747970581055  3.8148624897003169 40.9705390930175852
  9.6390285491943359 12.6568212509155273 41.1917953491210938
  3.7325656414031978  8.1058549880981445 41.0914192199707031
  3.7563261250033975 17.2636418342590332 41.1425170898437571
 12.7872333526611328  8.3382263183593750 41.1656875610351562
 12.7516864994540811 17.2652213573455811 41.1965637207031250
  8.2135076522827148  5.3119039535522452 41.0908889770507884
  8.3044643402099609 14.5674228668212891 41.0873451232910227
 17.4887923002243042  5.1795725822448730 41.2466278076171875
 17.0662652254104650 13.7371253967285156 41.3072204589843821
  5.4165158271789551  0.8269619345664978 40.8546600341796875
  5.3420367240905762  9.7999925613403320 41.1783790588378906
 14.4238815307617188  0.8349835872650146 41.1313171386718750
 14.3891716003417969 10.0101957321166992 40.9334716796875071
  0.8273094892501831  3.6869695186614990 47.0359649658203125
  0.8248501420021057 12.7183685302734375 47.0359649658203125
  9.8577098846435547  3.6869695186614990 47.0359649658203125
  9.8552503585815412 12.7183685302734375 47.0359649658203125
  3.6843190193176270  8.2023353576660156 47.0346527099609375
  3.6818594932556152 17.2337341308593750 47.0346527099609375
 12.7147188186645508  8.2023353576660156 47.0346527099609375
 12.7122592926025391 17.2337341308593750 47.0346527099609375
  8.2006769180297852  5.3445744514465332 47.0360260009765696
  8.1982173919677734 14.3759746551513672 47.0360260009765696
 17.2310771942138672  5.3445744514465332 47.0360260009765696
 17.2286186218261719 14.3759746551513672 47.0360260009765696
  5.3436489105224600  0.8290914893150328 47.0346527099609375
  5.3411893844604483  9.8604917526245117 47.0346527099609375
 14.3740482330322266  0.8290914893150328 47.0346527099609375
 14.3715896606445312  9.8604917526245117 47.0346527099609375
 13.8214073181152344  9.5761871337890625 34.4804267883300781
  9.2696332931518555  0.3232989013195038 34.4829139709472656
  8.6850728988647461  8.9452266693115234 34.6673736572265696
  0.1794144511222839  0.0979942381381989 34.2664451599121094
  0.6871688365936279  9.1500072479248047 34.5734291076660156
  4.2769799232482910  4.3683915138244629 34.5002326965332031
  4.6279754638671875 13.8316879272460938 34.5938720703125071
 13.3220272064208984  3.6730482578277588 34.6586875915527344
 12.6644010543823242 14.3056631088256836 34.6349029541015625
  0.0207151463255286 17.7522043585777283 40.8305091857910156
 17.9972041174769402  9.1389703750610352 40.9194374084472656
  9.0005836486816406  0.2151482403278351 40.8736686706542969
  9.1982469558715820  8.8580989837646484 40.9305915832519602
  4.7011733055114746  4.4445505142211914 40.8833732604980469
  4.6795754432678223 13.6202888488769531 40.9083786010742188
 13.5040616989135742  4.7900776863098145 40.8994750976562571
 13.4668703079223633 13.5540971755981445 40.8989486694335938
  2.4501788616180415  2.0284337997436523 37.9383239746093750
  2.7263684272766113 10.9179887771606445 38.0002174377441406
 11.7011184692382812  1.8898372650146484 38.0904350280761790
 11.1252508163452148 11.3504514694213867 38.0745201110839844
  6.4902930259704590  6.9903845787048331 37.7848014831542969
  6.7652621269226074 15.8941574096679688 37.8925666809082031
 16.0785617828369141  6.5894584655761719 38.0822868347167969
 15.7062797546386719 15.8358030319213849 37.7804450988769531
  2.2217636108398438  6.6499829292297363 38.0982284545898438
  2.2307286262512207 15.6288661956787109 37.9477806091308594
 10.7038755416870117  6.1044754981994629 37.5701255798339915
 11.1402750015258789 15.7436494827270508 38.2849998474121165
  6.9767737388610840  2.4268133640289307 37.7597885131835938
  6.9552774429321289 11.3522872924804688 38.1818122863769531
 16.0196590423583984  2.4055376052856441 38.1415519714355469
 16.1794433593750000 11.6501188278198242 38.1474952697753906
  0.0000000000000000  0.0000000000000000 47.1735610961914062
 -0.0024593239650130  9.0313997268676740 47.1735610961914062
  9.0304002761840803  0.0000000000000000 47.1735610961914062
  9.0279407501220685  9.0313997268676740 47.1735610961914062
  4.5139794349670410  4.5156998634338379 47.1742515563964844
  4.5115203857421875 13.5470991134643537 47.1742515563964844
 13.5443792343139648  4.5156998634338379 47.1742515563964844
 13.5419197082519531 13.5470991134643537 47.1742515563964844
  2.4519233703613277  2.0629522800445557 44.0401268005371165
  2.4494640827178955 11.0943517684936523 44.0401268005371165
 11.4823226928710920  2.0629522800445557 44.0401268005371165
 11.4798641204833984 11.0943517684936523 44.0401268005371165
  6.5760178565979004  6.9684472084045410 44.0401268005371165
  6.5735583305358887 15.9998464584350586 44.0401268005371165
 15.6064186096191406  6.9684472084045410 44.0401268005371165
 15.6039590835571289 15.9998464584350586 44.0401268005371165
  2.0610768795013428  6.5788145065307617 44.0400009155273509
  2.0586175918579102 15.6102142333984375 44.0400009155273509
 11.0914773941040039  6.5788145065307617 44.0400009155273509
 11.0890178680419922 15.6102142333984375 44.0400009155273509
  6.9668641090393066  2.4525938034057613 44.0400657653808665
  6.9644045829772949 11.4839935302734375 44.0400657653808665
 15.9972639083862305  2.4525938034057613 44.0400657653808665
 15.9948053359985352 11.4839935302734375 44.0400657653808665
  2.4316265583038330  2.0832188129425049 50.0684852600097656
  2.4291670322418213 11.1146183013915998 50.0684852600097656
 11.4620265960693359  2.0832188129425049 50.0684852600097656
 11.4595670700073224 11.1146183013915998 50.0684852600097656
  6.5963144302368164  6.9481806755065918 50.0684852600097656
  6.5938549041748047 15.9795799255371076 50.0684852600097656
 15.6267137527465803  6.9481806755065918 50.0684852600097656
 15.6242542266845703 15.9795799255371076 50.0684852600097656
  2.0811281204223633  6.5990090370178223 50.0690460205078125
  2.0786688327789307 15.6304082870483398 50.0690460205078125
 11.1115283966064453  6.5990090370178223 50.0690460205078125
 11.1090688705444336 15.6304082870483398 50.0690460205078125
  6.9468131065368652  2.4323906898498531 50.0690460205078125
  6.9443535804748535 11.4637899398803711 50.0690460205078125
 15.9772129058837891  2.4323906898498531 50.0690460205078125
 15.9747543334960938 11.4637899398803711 50.0690460205078125
 -0.0017190740909427 18.0310828797519207 37.7845840454101562
  0.1239549070596695  9.1038055419921875 37.7944679260253906
  9.1162414550781250  0.1193546801805496 37.7164459228515625
  9.0030498504638672  8.8921318054199219 37.7900962829589915
  4.4795708656311035  4.4557924270629883 37.6392097473144531
  4.5622301101684570 13.4539537429809570 37.7369003295898509
 13.4286546707153320  4.4498648643493652 37.6628952026367188
 13.3272523880004883 13.6347837448120117 37.6910324096679759
  0.0000090280000222  0.0000090310004452 44.0429992675781250
 -0.0024502959568053  9.0314083099365234 44.0429992675781250
  9.0304088592529297  0.0000090310004452 44.0429992675781250
  9.0279493331909180  9.0314083099365234 44.0429992675781250
  4.5139703750610352  4.5156903266906738 44.0427513122558594
  4.5115113258361816 13.5470905303955078 44.0427513122558594
 13.5443706512451172  4.5156903266906738 44.0427513122558594
 13.5419111251831037 13.5470905303955078 44.0427513122558594
  0.0000000000000000  0.0000000000000000 50.4472808837890696
 -0.0024593239650130  9.0313997268676740 50.4472808837890696
  9.0304002761840803  0.0000000000000000 50.4472808837890696
  9.0279407501220685  9.0313997268676740 50.4472808837890696
  4.5139703750610352  4.5156998634338379 50.4472808837890696
  4.5115113258361816 13.5470991134643537 50.4472808837890696
 13.5443706512451172  4.5156998634338379 50.4472808837890696
 13.5419111251831055 13.5470991134643537 50.4472808837890696
