 H  C  N  I Pb 
 1.0000000000000000
    18.0608005523681641    0.0000000000000000    0.0000000000000000
    -0.0049186488613486   18.0627994537353516    0.0000000000000000
     0.0000000000000000    0.0000000000000000   62.4874992370605469
 H   C   N   I   Pb 
 143  39  47  72  24
Cartesian
  8.1349000930786133  6.0288143157958984 35.3087120056152344
  7.7152237892150879 15.0110731124877930 35.5377006530761719
 17.3455772399902344  5.9142680168151855 36.0309295654296875
 17.0814952850341797 14.7150077819824219 35.8271331787109375
  5.9204735020175576 17.2235341072082520 35.8321647644042969
  6.3816251754760742  9.8991069793701172 34.9891014099121094
 14.5584754943847656  1.5794157981872559 35.4408760070800781
  0.2003383636474629  2.5718371868133545 34.9964904785156250
  1.2558059692382828 11.8940944671630842 35.5675697326660227
 10.0309524536132812  2.9728460311889648 34.7841072082519531
  8.9527187347412109 11.6596117019653320 35.0288543701171946
  6.5612864494323730  0.4388681054115295 34.8386573791503977
  5.3929352760314941 11.3347530364990234 34.6334304809570312
 15.8329114913940430  0.4388524889945984 34.9606399536132884
 17.2728919982910156  3.4452567100524902 36.1343154907226634
 17.9080028533935547 12.4632368087768555 36.4337272644042969
 10.2058877944946271  4.5896134376525879 35.4364547729492188
  7.7870583534240723 12.5553960800170898 35.9466934204101562
  5.0577878952026358  7.8771033287048340 35.7488555908203125
  3.5067276218906045 16.7651004791259766 35.7086639404296875
 12.2619924545288086  0.6100506782531738 35.6040878295898438
  6.7045092582702637  5.2367000579833984 34.6392135620117188
  8.9535636901855469 15.7009401321411133 34.5163726806640625
  0.3252182006835957  6.6585230827331543 34.8352432250976562
 17.9728145599365234 15.6146545410156250 34.6377105712890625
  3.3493037223815918  7.9558382034301758 35.4414939880371094
  2.5068110683932900 17.9023251980543172 34.8517875671386719
 12.0950206974521279 16.9924714565277100 35.1218566894531321
  7.8360114097595206  3.2760899066925049 34.1808204650878906
  9.8934154510498047 13.5869054794311523 34.0525245666503906
  1.1085586547851567  4.5492200851440430 34.0758399963378906
  1.5023288726806638 13.8718461990356428 34.3638954162597656
  3.3974466323852539 10.1352138519287109 34.7179222106933594
  4.3767914772033691  1.1251795291900635 34.1681747436523438
 14.3309139469638467 16.7403618097305298 34.6869201660156321
  8.7662448883056641  6.1247920989990234 41.4261360168457031
  8.1126117706298828 14.6590538024902344 42.0875701904296946
 17.4452680945396423  5.1060323715209961 42.3006401062011790
 16.7601850032806396 13.0966672897338867 42.0622100830078125
  5.5788497924804688  0.9959151148796082 41.8977279663085938
  5.3843293190002441  9.9117507934570295 42.1879043579101562
 14.4691381454467773  1.0189864635467529 42.1497116088867188
 13.6618623733520490 10.8062543869018555 41.1377143859863281
  1.5372471809387207  2.9280126094818115 40.2908439636230469
  2.0543687343597412 12.9739761352539062 40.6365585327148438
 10.3758687973022443  2.9570739269256592 40.6425704956054688
 10.1666831970214844 11.9677524566650391 40.6656646728515625
  3.2251205444335933  7.4617762565612793 40.5105705261230469
  3.1537121990695596 16.6350853443145752 40.5888557434082031
 12.6884651184082031  7.2995758056640625 41.3227233886718750
 12.1623481968417764 16.6791226863861084 40.6190223693847656
  1.1336482763290403  3.2446613311767578 41.9689903259277415
  1.0439929962158203 12.1861610412597638 41.8123397827148438
 10.7576141357421875  4.5660395622253418 41.1885681152343750
  9.5892934799194318 12.5513343811035156 42.2148742675781250
  3.6022195816040039  8.0253219604492188 42.1158485412597656
  3.7438339451327920 17.2297797799110413 42.1098365783691406
 12.0400896072387695  8.9038543701171875 41.5454635620117188
 12.5882467487826943 17.3410862684249878 42.1834640502929688
  7.1969523429870605  5.4099154472351074 41.1140289306640696
  7.8652071952819824 15.2588672637939453 40.4760169982910156
 16.9233578443527222  5.8889532089233398 40.8250656127929688
 16.3139729499816895 14.3777885437011701 40.9735450744628977
  6.0007576942443848  1.4025869369506836 40.2560539245605469
  5.9671144485473633 10.4080991744995117 40.6219444274902344
 15.1008901596069336  1.3811458349227905 40.5659408569335938
 15.2369508743286133 10.3396224975585938 40.6193122863769602
  0.1695078164339065  4.5724544525146484 39.4596099853515625
  0.3800651431083679 14.4445152282714844 39.9616775512695312
  8.0883369445800781  3.3423261642456055 40.5325164794921946
  9.1388597488403320 13.6119785308837891 39.4602508544921875
  4.5055217007175088 17.9787623286247253 39.3235702514648438
  4.6829171180725098  8.8972797393798828 39.4665412902832031
 13.7159036854282022 17.9320713132619858 39.4880943298339844
 14.7783651351928693  8.0585546493530273 40.6527214050292969
  8.1032123565673828  5.4420318603515616 48.0459518432617259
  8.1007528305053711 14.4734306335449219 48.0459518432617259
 17.1336116790771484  5.4420318603515616 48.0459518432617259
 17.1311531066894531 14.4734306335449219 48.0459518432617259
  5.4410333633422852  0.9265221953392029 48.0449485778808594
  5.4385743141174316  9.9579219818115234 48.0449485778808594
 14.4714326858520490  0.9265221953392029 48.0449485778808594
 14.4689741134643555  9.9579219818115234 48.0449485778808594
  1.4218254089355467  3.0919990539550781 46.4558296203613281
  1.4193661212921143 12.1233978271484375 46.4558296203613281
 10.4522256851196289  3.0919990539550781 46.4558296203613281
 10.4497661590576172 12.1233978271484375 46.4558296203613281
  3.0899283885955806  7.6075901985168457 46.4545211791992188
  3.0874691009521484 16.6389904022216797 46.4545211791992188
 12.1203289031982422  7.6075901985168457 46.4545211791992188
 12.1178693771362305 16.6389904022216797 46.4545211791992188
  0.9247469902038573  3.5893490314483643 48.0459518432617259
  0.9222877025604248 12.6207475662231445 48.0459518432617259
  9.9551477432250977  3.5893490314483643 48.0459518432617259
  9.9526882171630859 12.6207475662231445 48.0459518432617259
  3.5868983268737793  8.1048498153686523 48.0448913574218821
  3.5844390392303462 17.1362495422363281 48.0448913574218821
 12.6172990798950195  8.1048498153686523 48.0448913574218821
 12.6148395538330078 17.1362495422363281 48.0448913574218821
  7.6061611175537109  5.9393639564514160 46.4558296203613281
  7.6037015914916992 14.9707632064819336 46.4558296203613281
 16.6365604400634766  5.9393639564514160 46.4558296203613281
 16.6341018676757812 14.9707632064819336 46.4558296203613281
  5.9380125999450684  1.4238001108169553 46.4545211791992188
  5.9355530738830566 10.4551992416381836 46.4545211791992188
 14.9684123992919904  1.4238001108169553 46.4545211791992188
 14.9659538269042951 10.4551992416381836 46.4545211791992188
 -0.0011664569610730  4.5157265663146973 45.3548011779785156
 -0.0036257810425013 13.5471258163452148 45.3548011779785156
  9.0292339324951172  4.5157265663146973 45.3548011779785156
  9.0267744064331037 13.5471258163452148 45.3548011779785156
  4.5152091979980469  0.0000000000000000 45.3536758422851562
  4.5127501487731934  9.0313997268676740 45.3536758422851562
 13.5456094741821289  0.0000000000000000 45.3536758422851562
 13.5431499481201172  9.0313997268676740 45.3536758422851562
 14.0179576873779297 10.0627288818359375 32.4690628051757812
 13.0065908432006836  8.6378173828125000 32.8073005676269531
 15.6889905929565430  9.0507574081420898 33.6980667114257812
 15.4971895217895490  8.6895246505737305 35.4203529357910156
 13.4417438507080078 11.5943107604980469 35.0064964294433594
 14.6302490234374982 10.7596054077148438 36.0223808288574219
 12.0280961990356445  9.9027128219604492 35.5696144104003977
 12.2671108245849592  8.2136659622192383 35.0250701904296875
 11.1456794738769531 10.0703144073486328 33.5515899658203125
 12.1485433578491211 11.5190372467041016 33.4432830810546875
 10.9477424621582031 11.6651821136474592 31.4814414978027344
 12.4032106399536115 10.8761844635009766 30.9024009704589844
 14.1781158447265607  7.0600581169128409 33.1425323486328125
 14.0725307464599592  6.7004714012145996 34.8712997436523438
 15.6346349716186506  6.6476478576660147 34.0488853454589844
 15.5843448638915998 12.5610828399658203 34.6053314208984446
 15.2248115539550781 11.6908798217773438 33.1214218139648509
 16.3879337310791016 11.0137939453125000 34.3067207336425781
 13.8573579788208008  9.5531091690063477 37.3364524841308665
 13.9463615417480469  7.8431353569030762 36.8244934082031250
 12.4553689956665039  8.4816989898681641 37.5043716430664062
  9.6830968856811523  9.5728712081909180 31.4914512634277344
 10.3956136703491193  9.8886423110961914 29.9013614654541016
 12.6164808273315430  8.6582260131835938 29.3391399383544957
 10.0719194412231445  7.4883379936218262 32.5902214050292969
 13.7922315597534180  6.4832172393798828 29.4628257751464844
 11.2441082000732422  5.3069443702697745 32.7427406311035156
 13.1357717514038068  4.8024907112121582 31.1937332153320348
  0.3391876220703115  4.6056270599365234 34.8499565124511719
  0.6452732086181645 13.7500200271606445 35.0424728393554688
  8.3888711929321289  4.1112995147705078 34.6301574707031250
  9.0063657760620117 13.6663055419921875 34.6869201660156321
  4.3394303321838379  9.6388092041015625 34.9621505737304688
  4.5203180313110352  0.2289606034755707 34.7764739990234446
 13.9719299534335732 17.7202941179275513 35.0076560974121094
  0.2002734094858170  4.4055738449096680 40.5405540466308594
  0.1655997633934021 13.7179136276245117 40.7528190612793040
  8.7592887878417969  4.1580338478088379 40.8374519348144531
  9.0206079483032227 13.6111736297607422 40.5572242736816477
  4.6024317741394043  8.9326152801513672 40.5549964904785156
  4.5691451290622345 18.0448720976710320 40.4128684997558594
 13.9981184005737287  8.7733888626098633 40.9413986206054688
 13.6329387882724387 18.0468992143869400 40.5733184814453196
  9.0289716720581055  4.5156092643737793 46.4455223083496165
  9.0265130996704102 13.5470085144042969 46.4455223083496165
 18.0593719482421875  4.5156092643737793 46.4455223083496165
 18.0569133758544922 13.5470085144042969 46.4455223083496165
  4.5152091979980469  0.0000180629995157 46.4442062377929759
  4.5127501487731934  9.0314178466796857 46.4442062377929759
 13.5456094741821289  0.0000180629995157 46.4442062377929759
 13.5431499481201172  9.0314178466796857 46.4442062377929759
 11.2774162292480469  8.2361545562744141 30.9589118957519567
 12.3286371231079102  7.9299712181091300 30.0836315155029297
 10.8971443176269531  7.2628402709960938 31.9053554534912145
 12.9847078323364240  6.6966443061828613 30.1577835083007812
 11.5569925308227539  6.0325040817260742 31.9881801605224645
 12.6097278594970703  5.7531619071960440 31.1128215789794922
 13.2146892547607404  9.6692514419555664 33.1131553649902344
 15.0050077438354492  8.6274518966674805 34.4420890808105540
 14.3108625411987287 10.9285116195678711 34.9862747192382812
 12.7557554244995117  9.0827255249023438 35.4904365539550781
 11.9749479293823224 10.5350351333618164 33.0007553100586009
 11.5174779891967773 10.7267761230468750 31.5436706542968786
 14.6797342300415021  7.1891045570373535 34.1071205139160156
 15.4439496994018555 11.5551033020019531 34.1908416748046875
 13.3046455383300781  8.7254419326782227 36.8598594665527415
 10.6351394653320312  9.6067628860473633 30.9416522979736364
 17.9675807952880859  3.4826426506042476 35.3761253356933594
  0.5823135375976554 12.6396303176879883 35.7389717102050781
  9.6581840515136719  3.9115266799926758 34.9040565490722727
  8.5231666564941406 12.5673713684082031 35.2246322631835938
  7.7202429771423340  5.2331438064575195 34.8322334289550852
  8.4885444641113281 14.8623847961425781 34.8759460449218821
 17.9727516174316406  5.7944130897521973 35.2120628356933594
 17.8111705780029297 14.7129230499267578 35.0995025634765625
  4.2714347839355469  8.3687362670898438 35.3077354431152344
  3.4534351089969277 17.5975006520748138 35.1096038818359375
 12.6771215656772256 17.8293779641389847 35.2082252502441477
  5.7375754574313760 17.9787773787975311 35.1501197814941406
  5.4470911026000968 10.3347663879394531 34.8628883361816477
 14.8523807525634766  0.6113187074661255 35.2068405151367188
  0.9902391433715820  3.4681730270385742 40.9692993164062500
  1.1173044443130493 12.8797616958618164 41.0610313415527344
 10.0406618118286133  3.8847522735595703 40.9086647033691406
  9.6235990524291992 12.6437282562255859 41.2050933837890625
  3.7588653564453125  8.0973882675170898 41.1203727722167969
  3.7748173931613564 17.2657857537269592 41.0977516174316406
 12.8155231475830078  8.3120536804199219 41.2533912658691477
 12.7452806690707803 17.3115127086639404 41.1812438964843750
  8.2192802429199219  5.3242464065551758 41.1337928771972656
  8.3009719848632812 14.5703725814819336 41.0869407653808594
 17.4954349398612976  5.1750774383544922 41.2812881469726562
 17.0403758287429810 13.7535390853881836 41.3200645446777344
  5.4452581405639640  0.8415321707725525 40.9066581726074290
  5.3627395629882812  9.7928676605224609 41.1792945861816406
 14.4484205245971680  0.8535990715026855 41.1518898010253977
 14.3229103088378906 10.0531768798828125 40.9385871887207031
  0.8273094892501831  3.6869695186614990 47.0359649658203125
  0.8248501420021057 12.7183685302734375 47.0359649658203125
  9.8577098846435547  3.6869695186614990 47.0359649658203125
  9.8552503585815412 12.7183685302734375 47.0359649658203125
  3.6843190193176270  8.2023353576660156 47.0346527099609375
  3.6818594932556152 17.2337341308593750 47.0346527099609375
 12.7147188186645508  8.2023353576660156 47.0346527099609375
 12.7122592926025391 17.2337341308593750 47.0346527099609375
  8.2006769180297852  5.3445744514465332 47.0360260009765696
  8.1982173919677734 14.3759746551513672 47.0360260009765696
 17.2310771942138672  5.3445744514465332 47.0360260009765696
 17.2286186218261719 14.3759746551513672 47.0360260009765696
  5.3436489105224600  0.8290914893150328 47.0346527099609375
  5.3411893844604483  9.8604917526245117 47.0346527099609375
 14.3740482330322266  0.8290914893150328 47.0346527099609375
 14.3715896606445312  9.8604917526245117 47.0346527099609375
 13.8162069320678693  9.5813789367675781 34.5029258728027344
  9.2275466918945312  0.3083451688289642 34.4612007141113281
  8.6503572463989258  8.9806442260742188 34.6799812316894531
  0.1291089504957199  0.0880576819181442 34.2871208190918040
  0.7003219127655029  9.1292486190795898 34.5784416198730540
  4.2491674423217773  4.3802180290222168 34.5009117126464844
  4.6294498443603516 13.8231019973754883 34.5821533203125000
 13.3042545318603516  3.6519813537597656 34.6751136779785227
 12.6795806884765625 14.3115444183349609 34.6219100952148438
 -0.0028685145080090 17.7656526863575017 40.8634834289550852
 17.9807423576712608  9.1042814254760724 40.9314270019531250
  9.0401620864868164  0.2246015220880508 40.8726310729980540
  9.2417526245117170  8.8485107421875000 40.9541702270507812
  4.7131237983703613  4.4491839408874512 40.8767509460449219
  4.7093701362609854 13.6090774536132812 40.9010353088378906
 13.5592298507690430  4.7451896667480469 40.8960647583007812
 13.4264621734619123 13.5733680725097656 40.9098663330078125
  2.4500381946563721  2.0171401500701904 37.9466209411621094
  2.7422633171081543 10.8961420059204102 38.0272521972656321
 11.7128162384033203  1.8932995796203613 38.1443557739257812
 11.1271753311157227 11.3642110824584961 38.1226005554199219
  6.5118951797485352  6.9644618034362793 37.8285865783691477
  6.7420659065246582 15.9066390991210938 37.8983039855957031
 16.0896396636962891  6.5905332565307608 38.1252670288085938
 15.7392988204956037 15.8234605789184570 37.8169670104980469
  2.2471075057983398  6.6550269126892090 38.0672416687011719
  2.2084279060363770 15.6294221878051758 37.9574737548828125
 10.6757440567016602  6.0837564468383789 37.5871849060058594
 11.1506977081298828 15.7430524826049805 38.2619476318359375
  6.9550909996032715  2.4144093990325928 37.7411346435546875
  6.9698963165283194 11.3671951293945295 38.1787948608398438
 16.0108394622802734  2.3931925296783443 38.1942520141601562
 16.2146644592285156 11.6073112487792969 38.1891479492187500
  0.0000000000000000  0.0000000000000000 47.1735610961914062
 -0.0024593239650130  9.0313997268676740 47.1735610961914062
  9.0304002761840803  0.0000000000000000 47.1735610961914062
  9.0279407501220685  9.0313997268676740 47.1735610961914062
  4.5139794349670410  4.5156998634338379 47.1742515563964844
  4.5115203857421875 13.5470991134643537 47.1742515563964844
 13.5443792343139648  4.5156998634338379 47.1742515563964844
 13.5419197082519531 13.5470991134643537 47.1742515563964844
  2.4519233703613277  2.0629522800445557 44.0401268005371165
  2.4494640827178955 11.0943517684936523 44.0401268005371165
 11.4823226928710920  2.0629522800445557 44.0401268005371165
 11.4798641204833984 11.0943517684936523 44.0401268005371165
  6.5760178565979004  6.9684472084045410 44.0401268005371165
  6.5735583305358887 15.9998464584350586 44.0401268005371165
 15.6064186096191406  6.9684472084045410 44.0401268005371165
 15.6039590835571289 15.9998464584350586 44.0401268005371165
  2.0610768795013428  6.5788145065307617 44.0400009155273509
  2.0586175918579102 15.6102142333984375 44.0400009155273509
 11.0914773941040039  6.5788145065307617 44.0400009155273509
 11.0890178680419922 15.6102142333984375 44.0400009155273509
  6.9668641090393066  2.4525938034057613 44.0400657653808665
  6.9644045829772949 11.4839935302734375 44.0400657653808665
 15.9972639083862305  2.4525938034057613 44.0400657653808665
 15.9948053359985352 11.4839935302734375 44.0400657653808665
  2.4316265583038330  2.0832188129425049 50.0684852600097656
  2.4291670322418213 11.1146183013915998 50.0684852600097656
 11.4620265960693359  2.0832188129425049 50.0684852600097656
 11.4595670700073224 11.1146183013915998 50.0684852600097656
  6.5963144302368164  6.9481806755065918 50.0684852600097656
  6.5938549041748047 15.9795799255371076 50.0684852600097656
 15.6267137527465803  6.9481806755065918 50.0684852600097656
 15.6242542266845703 15.9795799255371076 50.0684852600097656
  2.0811281204223633  6.5990090370178223 50.0690460205078125
  2.0786688327789307 15.6304082870483398 50.0690460205078125
 11.1115283966064453  6.5990090370178223 50.0690460205078125
 11.1090688705444336 15.6304082870483398 50.0690460205078125
  6.9468131065368652  2.4323906898498531 50.0690460205078125
  6.9443535804748535 11.4637899398803711 50.0690460205078125
 15.9772129058837891  2.4323906898498531 50.0690460205078125
 15.9747543334960938 11.4637899398803711 50.0690460205078125
 -0.0044870198762510 18.0187822431325912 37.8056106567382812
  0.1208250597119331  9.0689954757690412 37.8107719421386719
  9.0875759124755859  0.1377598047256470 37.6948394775390625
  8.9837064743041992  8.8921661376953125 37.7945518493652344
  4.4655251502990723  4.4469957351684570 37.6423873901367188
  4.5442600250244141 13.4531412124633789 37.7251548767089915
 13.4114694595336896  4.4534568786621094 37.6737213134765625
 13.3336009979248047 13.6390047073364258 37.7001152038574290
  0.0000090280000222  0.0000090310004452 44.0429992675781250
 -0.0024502959568053  9.0314083099365234 44.0429992675781250
  9.0304088592529297  0.0000090310004452 44.0429992675781250
  9.0279493331909180  9.0314083099365234 44.0429992675781250
  4.5139703750610352  4.5156903266906738 44.0427513122558594
  4.5115113258361816 13.5470905303955078 44.0427513122558594
 13.5443706512451172  4.5156903266906738 44.0427513122558594
 13.5419111251831037 13.5470905303955078 44.0427513122558594
  0.0000000000000000  0.0000000000000000 50.4472808837890696
 -0.0024593239650130  9.0313997268676740 50.4472808837890696
  9.0304002761840803  0.0000000000000000 50.4472808837890696
  9.0279407501220685  9.0313997268676740 50.4472808837890696
  4.5139703750610352  4.5156998634338379 50.4472808837890696
  4.5115113258361816 13.5470991134643537 50.4472808837890696
 13.5443706512451172  4.5156998634338379 50.4472808837890696
 13.5419111251831055 13.5470991134643537 50.4472808837890696
