 H  C  N  I Pb 
 1.0000000000000000
    18.0608005523681641    0.0000000000000000    0.0000000000000000
    -0.0049186488613486   18.0627994537353516    0.0000000000000000
     0.0000000000000000    0.0000000000000000   62.4874992370605469
 H   C   N   I   Pb 
 143  39  47  72  24
Cartesian
  8.1051940917968750  5.6062965393066406 36.2156295776367188
  8.0909757614135742 15.2229576110839844 35.9771766662597656
 16.8262882232666016  4.6715602874755850 36.4378318786621094
 17.2866096496582031 14.5700778961181641 36.5795974731445312
  5.3780436515808105  0.9549746513366699 36.3088798522949219
  5.5599784851074210 10.1079397201538086 36.3290481567382812
 14.1409444808959943  1.2909306287765503 36.3466148376464844
  1.9513511657714884  3.9259803295135498 34.7786598205566406
  1.6402950286865228 12.3035593032836896 35.0449943542480469
 10.3746519088745117  3.2017979621887207 34.8136482238769531
  9.2418651580810547 11.8344697952270508 35.4355659484863281
  6.4827327728271484  0.4691146910190582 35.0711555480957031
  5.2200317382812491 11.0725326538085938 34.9386138916015625
 15.4443864822387695  0.9344632029533385 35.2760887145996094
  1.2051334381103553  3.9136760234832764 36.3216743469238281
  0.6602687835693347 12.4901018142700195 36.4499816894531250
 10.1927051544189453  4.4318790435791016 36.0555534362792969
  8.7754230499267578 12.9493179321289062 36.6987457275390625
  4.4570393562316895  7.8213796615600586 36.3770904541015625
  3.0332405567169189  0.0044080950319767 36.1156921386718750
 12.1641906956210732 17.8215056955814397 36.2676162719726634
  6.8325400352478018  5.1424074172973633 35.1229553222656250
  8.3627328872680664 15.6400222778320295 34.3086509704589844
 16.0555477142333984  4.8860230445861808 34.9027633666992188
 17.4625034332275391 15.6714553833007812 35.2142219543457031
  3.4822773933410640  7.4228572845458975 35.0180053710937500
  2.6933323601260781 17.1450539231300354 34.7020645141601562
 12.3038038471713662 16.4810481071472168 35.1467170715332031
  8.1563796997070312  3.6135811805725098 34.0345993041992188
  9.1229019165039062 13.5007066726684570 33.8038215637207031
 18.0589160919189453  4.4990777969360352 33.6841125488281250
  0.9259490966796864 14.2932262420654297 34.0926971435546875
  3.8543763160705566  9.4494800567626953 33.9710845947265625
  4.8703259686008096 17.3181368708610535 33.9082870483398438
 14.3877701023593545 17.1532225608825684 34.3796310424804688
  8.2664012908935547  5.5690426826477051 42.2765846252441406
  7.7945508956909180 14.7279453277587891 41.9600410461425781
 17.3912354707717931  5.0813531875610352 42.5098266601562571
 16.8958802223205566 14.3183050155639631 42.1363372802734375
  5.5271434783935547  1.0135053396224976 42.0771980285644531
  5.3598718643188468  9.9199190139770490 42.2639884948730469
 14.4125347137451172  0.9139977693557739 42.3012313842773438
 15.1631536483764648  9.4619045257568359 41.8447227478027344
  1.5547907352447510  3.1736118793487549 40.3090286254882812
  1.7308524847030640 12.4470787048339844 40.9040145874023509
 10.2938547134399414  2.9368717670440674 40.6960983276367188
 10.3551664352416992 12.2383308410644513 41.1461982727050781
  3.2521936893463135  7.4634761810302734 40.5608367919921875
  3.1240889290347695 16.6304044723510742 40.7750053405761719
 11.8173542022705078  8.3480739593505859 41.0676155090332031
 12.0781168201938272 16.7407124042510986 40.5507164001464915
  1.1853158473968506  3.3790938854217525 41.9985580444336009
  0.7620134353637695 12.5724296569824219 42.3280677795410227
 10.0423994064331037  3.6990580558776855 42.2496643066406250
  9.5492906570434553 12.9640703201293945 42.5217666625976562
  3.7289197444915771  7.9333410263061523 42.1461639404296946
  3.6718205669894810 17.2546336650848389 42.2835922241211009
 13.0519094467163086  8.1532316207885742 42.2278060913085938
 12.4754604557529092 17.2475135326385498 42.1552734375000000
  7.5107307434082031  5.8694777488708496 40.7496032714843821
  7.6108231544494620 15.0618076324462891 40.2574081420898509
 16.6777439117431641  5.8391008377075195 41.0761833190917969
 16.7907443046569824 15.1246862411499006 40.6053543090820384
  5.9883303642272949  1.4123845100402830 40.4539833068847727
  5.8004279136657715 10.5702400207519531 40.7389907836914062
 15.1149520874023438  1.3434236049652097 40.7788848876953196
 15.2487220764160156 10.3307781219482404 40.3232879638671875
 18.0529978871345520  4.6819710731506348 39.6146392822265696
  0.5737524628639221 14.0600366592407227 39.7218894958496165
  8.7307481765747070  4.2485680580139160 39.6345825195312571
  9.2046327590942383 13.5452718734741211 39.6206054687500000
  4.5220193127170196 17.9790524542331696 39.5050964355468750
  4.5277867317199707  9.1055736541748029 39.5295104980468750
 13.7279300689697266  0.0062901079654694 39.5629119873046875
 13.1453924179077148  9.7537345886230469 39.7295989990234375
  8.1032123565673828  5.4420318603515616 48.0459518432617259
  8.1007528305053711 14.4734306335449219 48.0459518432617259
 17.1336116790771484  5.4420318603515616 48.0459518432617259
 17.1311531066894531 14.4734306335449219 48.0459518432617259
  5.4410333633422852  0.9265221953392029 48.0449485778808594
  5.4385743141174316  9.9579219818115234 48.0449485778808594
 14.4714326858520490  0.9265221953392029 48.0449485778808594
 14.4689741134643555  9.9579219818115234 48.0449485778808594
  1.4218254089355467  3.0919990539550781 46.4558296203613281
  1.4193661212921143 12.1233978271484375 46.4558296203613281
 10.4522256851196289  3.0919990539550781 46.4558296203613281
 10.4497661590576172 12.1233978271484375 46.4558296203613281
  3.0899283885955806  7.6075901985168457 46.4545211791992188
  3.0874691009521484 16.6389904022216797 46.4545211791992188
 12.1203289031982422  7.6075901985168457 46.4545211791992188
 12.1178693771362305 16.6389904022216797 46.4545211791992188
  0.9247469902038573  3.5893490314483643 48.0459518432617259
  0.9222877025604248 12.6207475662231445 48.0459518432617259
  9.9551477432250977  3.5893490314483643 48.0459518432617259
  9.9526882171630859 12.6207475662231445 48.0459518432617259
  3.5868983268737793  8.1048498153686523 48.0448913574218821
  3.5844390392303462 17.1362495422363281 48.0448913574218821
 12.6172990798950195  8.1048498153686523 48.0448913574218821
 12.6148395538330078 17.1362495422363281 48.0448913574218821
  7.6061611175537109  5.9393639564514160 46.4558296203613281
  7.6037015914916992 14.9707632064819336 46.4558296203613281
 16.6365604400634766  5.9393639564514160 46.4558296203613281
 16.6341018676757812 14.9707632064819336 46.4558296203613281
  5.9380125999450684  1.4238001108169553 46.4545211791992188
  5.9355530738830566 10.4551992416381836 46.4545211791992188
 14.9684123992919904  1.4238001108169553 46.4545211791992188
 14.9659538269042951 10.4551992416381836 46.4545211791992188
 -0.0011664569610730  4.5157265663146973 45.3548011779785156
 -0.0036257810425013 13.5471258163452148 45.3548011779785156
  9.0292339324951172  4.5157265663146973 45.3548011779785156
  9.0267744064331037 13.5471258163452148 45.3548011779785156
  4.5152091979980469  0.0000000000000000 45.3536758422851562
  4.5127501487731934  9.0313997268676740 45.3536758422851562
 13.5456094741821289  0.0000000000000000 45.3536758422851562
 13.5431499481201172  9.0313997268676740 45.3536758422851562
 12.9403018951415998  7.9798359870910645 33.9184074401855540
 13.2845430374145508  9.0520076751708984 32.5833396911621165
 11.7560110092163086  9.8164615631103516 35.0654869079589844
 12.5295448303222656 11.4166965484619141 35.0673637390136790
 15.1492118835449219  9.0994062423706055 35.9161987304687571
 13.9331073760986328 10.2693719863891602 36.5209350585937500
 15.6171092987060547 10.0692710876464844 33.5206947326660156
 14.3756141662597656 11.1742324829101562 33.0355529785156250
 15.6158018112182599  8.5914440155029297 32.5879096984863281
 15.6508207321166992  7.8970847129821777 34.2169113159179759
 15.9119911193847656  6.1608333587646484 32.5682525634765625
 14.3509511947631836  5.9243483543395996 33.3736534118652344
 11.3444738388061523  9.8693628311157209 32.7142753601074219
 12.4620447158813477 11.2301273345947266 32.4572143554687500
 10.9514293670654279 11.4671058654785156 33.3102531433105469
 13.5711183547973633  8.1133441925048828 37.4288978576660227
 13.3669595718383789  7.3131260871887207 35.8714103698730540
 12.1251430511474609  8.4922084808349609 36.4329490661621165
 15.0123720169067383 12.3214673995971680 35.4966354370117188
 15.9066123962402326 12.5375299453735352 34.0054359436035156
 16.4818115234375000 11.3698902130126953 35.1704673767089844
 14.9058494567871094  7.1398749351501465 30.5866947174072266
 14.2772121429443359  5.5274643898010254 30.8745803833007812
 12.0136156082153320  5.7109351158142090 32.5864715576171946
 13.3500747680664062  8.5322656631469727 29.6467628479003906
  9.7607698440551758  6.6979918479919434 32.4947357177734375
 11.0955486297607422  9.5285043716430664 29.5654602050781250
  9.2684669494628906  8.5926160812377930 31.0138034820556641
 18.0498580932617188  4.4206929206848145 34.7757034301757812
  0.5154228210449235 13.9781122207641584 35.0533409118652415
  8.5707302093505859  4.1623077392578125 34.8815116882324219
  8.8682346343994141 13.7305574417114240 34.8122367858886719
  4.3351378440856934  9.2606239318847656 34.9128417968750071
  4.5850228527560830 17.8168400824069977 34.8186874389648438
 13.8789877155795693 17.7323984801769257 35.1369743347167969
  0.0841586217284203  4.5083303451538086 40.6998519897460938
  0.2321850955486298 13.7947034835815430 40.7432975769042969
  8.9023141860961914  4.4044981002807617 40.7066307067871094
  9.0015020370483398 13.6466388702392578 40.7014961242675781
  4.5229129791259766  9.0221738815307617 40.6250228881835938
  4.5404009083285928 18.0400201007723808 40.5990066528320384
 13.5308017730712891  9.3323011398315430 40.6663169860839844
 13.5955209732055664  0.0080698709934950 40.6490554809570384
  9.0289716720581055  4.5156092643737793 46.4455223083496165
  9.0265130996704102 13.5470085144042969 46.4455223083496165
 18.0593719482421875  4.5156092643737793 46.4455223083496165
 18.0569133758544922 13.5470085144042969 46.4455223083496165
  4.5152091979980469  0.0000180629995157 46.4442062377929759
  4.5127501487731934  9.0314178466796857 46.4442062377929759
 13.5456094741821289  0.0000180629995157 46.4442062377929759
 13.5431499481201172  9.0314178466796857 46.4442062377929759
 12.8580284118652344  7.0728840827941895 31.1160278320312536
 11.8491563796997070  6.5461864471435547 31.9030132293701207
 12.5664396286010742  8.1397781372070312 30.2715072631835938
 10.5534801483154297  7.0846600532531738 31.8492031097412145
 11.2958908081054688  8.6921405792236328 30.2132320404052734
 10.2525987625122070  8.1777400970458984 31.0239658355712891
 13.6908760070800781  8.6849966049194336 33.5469398498535227
 12.3990812301635742 10.5019283294677717 34.5009651184082102
 14.0866384506225586  9.3858613967895508 35.8918228149414062
 14.8549079895019531 10.7489452362060547 33.9043388366699290
 15.0452508926391602  7.9675412178039542 33.2932357788085938
 14.8904218673706037  6.5772051811218262 32.6708145141601562
 11.7780551910400391 10.7639408111572266 33.1530876159667969
 13.2138433456420881  8.2645034790039062 36.4037513732910156
 15.5815572738647461 11.7906608581542951 34.7318382263183665
 14.2682390213012695  6.5536837577819824 31.2465572357177770
  1.1206760406494116  4.0534524917602539 35.3267135620117188
  0.9619121551513681 12.8576564788818359 35.5532188415527344
  9.7775297164916992  3.8698053359985352 35.3028182983398438
  9.0406723022460938 12.8003168106079102 35.7238616943359375
  7.8130393028259277  5.0791134834289551 35.4119224548339844
  8.4083290100097656 14.9447479248046875 35.0726280212402344
 16.9223327636718750  4.6881408691406241 35.4147224426269531
 17.6611213684082031 14.7424640655517578 35.6080169677734375
  4.0961565971374512  8.1024799346923828 35.4699516296386719
  3.3635362843051553 17.6618946492671967 35.2353439331054688
 12.6747564533725381 17.3589141368865967 35.5195884704589844
  5.5157699584960938  0.4495402872562408 35.4342651367187500
  5.0828824043273926 10.1943969726562500 35.4232254028320384
 14.5389480590820312  0.6757577657699585 35.6334609985351634
  0.9934420585632324  3.6448960304260254 41.0452270507812571
  0.9214901924133301 12.8939638137817383 41.3715667724609375
  9.7952213287353516  3.6496198177337646 41.2615127563476562
  9.6722869873046875 12.9044780731201172 41.5354652404785227
  3.8012301921844482  8.0807008743286133 41.1657371520996165
  3.7552408436313272 17.2846527099609375 41.2894477844238281
 12.7681655883789062  8.5372419357299805 41.3507118225097727
 12.6829723576083779 17.3235149383544922 41.1812324523925852
  8.1872816085815430  5.3443770408630371 41.3058242797851634
  8.0735540390014648 14.5409460067749006 41.0187377929687500
 17.3532992601394653  5.1806883811950675 41.4918632507324219
 17.2550308108329773 14.4445142745971680 41.1909980773925852
  5.4105935096740723  0.8566899299621581 41.0980758666992259
  5.2819094657897949  9.9012632369995117 41.2718276977539134
 14.4240646362304670  0.8087581396102905 41.3123664855957031
 14.7480869293212891  9.7238140106201172 40.9770965576171875
  0.8273094892501831  3.6869695186614990 47.0359649658203125
  0.8248501420021057 12.7183685302734375 47.0359649658203125
  9.8577098846435547  3.6869695186614990 47.0359649658203125
  9.8552503585815412 12.7183685302734375 47.0359649658203125
  3.6843190193176270  8.2023353576660156 47.0346527099609375
  3.6818594932556152 17.2337341308593750 47.0346527099609375
 12.7147188186645508  8.2023353576660156 47.0346527099609375
 12.7122592926025391 17.2337341308593750 47.0346527099609375
  8.2006769180297852  5.3445744514465332 47.0360260009765696
  8.1982173919677734 14.3759746551513672 47.0360260009765696
 17.2310771942138672  5.3445744514465332 47.0360260009765696
 17.2286186218261719 14.3759746551513672 47.0360260009765696
  5.3436489105224600  0.8290914893150328 47.0346527099609375
  5.3411893844604483  9.8604917526245117 47.0346527099609375
 14.3740482330322266  0.8290914893150328 47.0346527099609375
 14.3715896606445312  9.8604917526245117 47.0346527099609375
 13.7546100616455060  9.8464326858520508 34.4775924682617188
  8.9313306808471680  0.3327865004539490 34.4305000305175781
  8.7050476074218750  9.3465776443481445 34.7361755371093821
 17.8935129791498184  0.0590706132352352 34.5227050781250000
  0.5993883609771729  9.0927686691284180 34.6308784484863281
  4.4859485626220703  4.4224772453308105 34.4301643371582031
  4.6485695838928223 13.6418857574462891 34.5392913818359375
 13.4217586517333984  3.8843684196472168 34.9039649963378906
 12.8703317642211914 14.2204704284667969 34.1645774841308594
  0.0754447579383850  0.0170740745961666 40.9009056091308594
  0.2094071358442306  8.8726549148559570 40.9618949890136719
  8.9757690429687500  0.0540967993438244 40.8793754577636790
  9.1174306869506836  8.8517293930053711 40.9650230407714844
  4.5713372230529785  4.4633660316467285 40.9099426269531250
  4.5042157173156738 13.6336688995361328 40.9129219055175781
 13.3834323883056623  4.5812458992004395 40.9989433288574219
 13.5956859588623047 13.6515798568725586 40.8125457763671875
  2.5928711891174316  1.9479341506958006 37.9622955322265696
  2.6323444843292236 11.0730333328247053 38.1998825073242259
 11.6648912429809553  1.9048670530319214 38.1768455505371094
 11.1818361282348615 11.4131059646606445 38.4623451232910227
  6.3958978652954102  7.1029362678527832 38.1168632507324219
  6.6465463638305664 16.0314254760742188 38.0498199462890625
 15.9411554336547834  6.7021903991699219 38.3593559265136719
 15.5467205047607422 16.0550098419189453 38.1607818603515625
  2.0062739849090576  6.4091053009033203 38.0626449584960938
  2.1711721420288086 15.8081693649291992 38.0369567871093821
 10.6146364212036133  6.1898717880249015 37.9258232116699219
 11.0102062225341797 15.6173934936523438 38.1337585449218750
  7.0063223838806143  2.4538574218750000 38.0597953796386790
  6.9094362258911124 11.4134111404418945 38.3166313171386719
 15.9724683761596662  2.5464420318603516 38.3320732116699290
 16.5276527404785156 11.7718868255615234 38.5604591369628977
  0.0000000000000000  0.0000000000000000 47.1735610961914062
 -0.0024593239650130  9.0313997268676740 47.1735610961914062
  9.0304002761840803  0.0000000000000000 47.1735610961914062
  9.0279407501220685  9.0313997268676740 47.1735610961914062
  4.5139794349670410  4.5156998634338379 47.1742515563964844
  4.5115203857421875 13.5470991134643537 47.1742515563964844
 13.5443792343139648  4.5156998634338379 47.1742515563964844
 13.5419197082519531 13.5470991134643537 47.1742515563964844
  2.4519233703613277  2.0629522800445557 44.0401268005371165
  2.4494640827178955 11.0943517684936523 44.0401268005371165
 11.4823226928710920  2.0629522800445557 44.0401268005371165
 11.4798641204833984 11.0943517684936523 44.0401268005371165
  6.5760178565979004  6.9684472084045410 44.0401268005371165
  6.5735583305358887 15.9998464584350586 44.0401268005371165
 15.6064186096191406  6.9684472084045410 44.0401268005371165
 15.6039590835571289 15.9998464584350586 44.0401268005371165
  2.0610768795013428  6.5788145065307617 44.0400009155273509
  2.0586175918579102 15.6102142333984375 44.0400009155273509
 11.0914773941040039  6.5788145065307617 44.0400009155273509
 11.0890178680419922 15.6102142333984375 44.0400009155273509
  6.9668641090393066  2.4525938034057613 44.0400657653808665
  6.9644045829772949 11.4839935302734375 44.0400657653808665
 15.9972639083862305  2.4525938034057613 44.0400657653808665
 15.9948053359985352 11.4839935302734375 44.0400657653808665
  2.4316265583038330  2.0832188129425049 50.0684852600097656
  2.4291670322418213 11.1146183013915998 50.0684852600097656
 11.4620265960693359  2.0832188129425049 50.0684852600097656
 11.4595670700073224 11.1146183013915998 50.0684852600097656
  6.5963144302368164  6.9481806755065918 50.0684852600097656
  6.5938549041748047 15.9795799255371076 50.0684852600097656
 15.6267137527465803  6.9481806755065918 50.0684852600097656
 15.6242542266845703 15.9795799255371076 50.0684852600097656
  2.0811281204223633  6.5990090370178223 50.0690460205078125
  2.0786688327789307 15.6304082870483398 50.0690460205078125
 11.1115283966064453  6.5990090370178223 50.0690460205078125
 11.1090688705444336 15.6304082870483398 50.0690460205078125
  6.9468131065368652  2.4323906898498531 50.0690460205078125
  6.9443535804748535 11.4637899398803711 50.0690460205078125
 15.9772129058837891  2.4323906898498531 50.0690460205078125
 15.9747543334960938 11.4637899398803711 50.0690460205078125
 17.9374900758266449  0.0911682248115539 37.7887802124023509
  0.1261079460382462  9.1107168197631836 37.7635879516601562
  9.0806226730346680  0.1546249389648438 37.6912345886230469
  9.0059881210327148  9.0741872787475586 37.8221397399902344
  4.5375304222106934  4.5509052276611328 37.7378997802734375
  4.4915227890014648 13.6140060424804670 37.6885108947753906
 13.4473257064819336  4.6255345344543457 37.9247131347656250
 13.3976736068725586 13.6885108947753906 37.6720695495605540
  0.0000090280000222  0.0000090310004452 44.0429992675781250
 -0.0024502959568053  9.0314083099365234 44.0429992675781250
  9.0304088592529297  0.0000090310004452 44.0429992675781250
  9.0279493331909180  9.0314083099365234 44.0429992675781250
  4.5139703750610352  4.5156903266906738 44.0427513122558594
  4.5115113258361816 13.5470905303955078 44.0427513122558594
 13.5443706512451172  4.5156903266906738 44.0427513122558594
 13.5419111251831037 13.5470905303955078 44.0427513122558594
  0.0000000000000000  0.0000000000000000 50.4472808837890696
 -0.0024593239650130  9.0313997268676740 50.4472808837890696
  9.0304002761840803  0.0000000000000000 50.4472808837890696
  9.0279407501220685  9.0313997268676740 50.4472808837890696
  4.5139703750610352  4.5156998634338379 50.4472808837890696
  4.5115113258361816 13.5470991134643537 50.4472808837890696
 13.5443706512451172  4.5156998634338379 50.4472808837890696
 13.5419111251831055 13.5470991134643537 50.4472808837890696
