 H  C  N  I Pb 
 1.0000000000000000
    18.0608005523681641    0.0000000000000000    0.0000000000000000
    -0.0049186488613486   18.0627994537353516    0.0000000000000000
     0.0000000000000000    0.0000000000000000   62.4874992370605469
 H   C   N   I   Pb 
 143  39  47  72  24
Cartesian
  8.4911308288574219  5.9647612571716309 35.7455291748046875
  8.1440343856811523 15.1498746871948242 35.8471298217773509
 16.6245918273925781  4.3484134674072266 36.3087310791015625
 17.0078525543212891 14.6712589263916016 36.0372238159179688
  5.7204132080078125  1.2575712203979492 35.6958045959472727
  6.0183753967285156 10.2697534561157209 35.7434768676757884
 14.3453483581542969  1.5357124805450439 35.9281463623046875
  1.8838195800781266  4.4713654518127441 34.8595008850097727
  1.6118087768554696 12.2129077911376953 35.7139472961425781
 10.0582485198974609  2.8439636230468750 34.9078865051269602
  8.9075870513916016 11.6795387268066406 35.2008438110351562
  6.6242055892944336  0.0923167467117310 34.7859649658203125
  5.0483145713806152 11.4234590530395508 34.8413162231445384
 15.6556444168090820  0.5304987430572510 35.3184547424316406
  1.0274009704589846  4.3680672645568848 36.3606910705566406
  0.1773757934570321 12.5369262695312500 36.6421165466308594
 10.3516216278076172  4.3822593688964844 35.7005157470703125
  8.2017135620117188 12.7279710769653320 36.3964500427246165
  5.1355514526367188  7.9387588500976562 35.9402694702148438
  3.2404317855834961  1.0088421106338501 35.6950950622558594
 12.0502252578735352  0.5220565199851990 35.8255043029785156
  6.9943408966064453  5.4338541030883789 35.0117912292480469
  9.0386228561401367 15.6903362274169922 34.4601287841796875
 15.8589563369750977  4.2398505210876465 34.7672004699707031
 17.7783641815185547 15.6716480255126953 34.8315467834472656
  3.6081938743591309  7.6314101219177246 35.1718406677246165
  2.5377279976382852 17.8097265362739563 34.7337799072265625
 11.9776491383090615 16.9643266201019323 35.1580505371093750
  7.8866977691650391  3.3916583061218257 34.3947105407714844
  9.6292343139648420 13.4742507934570295 33.8804206848144531
 17.9427871704101562  4.4006137847900391 33.6095657348632812
  1.4452724456787109 14.1298570632934570 34.4541969299316477
  3.3994045257568359  9.8139953613281250 34.3823089599609446
  4.6835002163425088 17.0029091835021973 34.0942115783691406
 14.2450918415561318 16.8630926609039307 34.7365875244140696
  8.4289016723632812  5.5941748619079590 42.0904884338378906
  7.9742488861083975 14.6038465499877912 42.0450172424316406
 17.1630690097808838  5.0031423568725586 42.2864036560058594
 16.6651920080184937 13.5943670272827148 42.1069869995117188
  5.5582056045532218  0.9338476657867432 41.9927902221679688
  5.2929372787475586  9.8769340515136719 42.2876052856445312
 14.2735643386840820  0.9688032269477844 42.1546020507812500
 15.2715730667114240  8.6239137649536133 41.5644378662109375
  1.6525690555572510  3.1379709243774414 40.4278640747070312
  1.8539563417434692 12.6810894012451172 40.7661018371582031
 10.4648904800415039  3.0214772224426270 40.4786071777343821
 10.3882322311401367 12.1086902618408203 40.8434257507324219
  3.3240747451782222  7.3857870101928702 40.4524002075195384
  3.0998882511630654 16.6738202571868896 40.5207214355468750
 11.6682376861572266  8.6755657196044922 41.2459754943847656
 12.2587303379550576 16.4463999271392822 40.4945449829101562
  1.0530290603637695  3.3167848587036133 42.0459289550781321
  0.7485085725784302 12.2328910827636719 42.0341529846191477
 10.2662048339843750  3.8127241134643555 42.0216331481933665
  9.6921672821044922 12.6946229934692383 42.3301544189453196
  3.6747045516967773  7.8695812225341797 42.0941505432128906
  3.6368660191074014 17.2198736667633057 42.0897789001464844
 12.9575548171997070  7.7374424934387207 41.9318084716796875
 12.6189827183261514 17.0168182849884033 42.0994987487792969
  7.5694189071655265  5.8164243698120117 40.6076660156250071
  7.6823215484619141 15.0549221038818359 40.3901329040527415
 16.7126933336257935  5.7906589508056632 40.7845420837402344
 16.5133870840072632 14.8219785690307617 40.8915328979492188
  6.0639743804931641  1.3370368480682373 40.3789482116699219
  5.7746396064758301 10.5487785339355469 40.7595329284667969
 14.8497943878173828  1.4818289279937744 40.5958213806152344
 15.4297075271606445 10.0077619552612305 40.5150527954101562
  0.2278972566127777  4.6738743782043448 39.5184135437011719
  0.4938542544841766 14.3645715713500977 39.9379463195800852
  8.8017892837524414  4.2233414649963379 39.4541702270507812
  9.1636943817138672 13.5470247268676758 39.5067520141601562
  4.5959495762363067 17.9920852035284042 39.3370475769042969
  4.5889811515808097  9.0397548675537109 39.4921264648437500
 13.6451381901279092 17.9669173657894135 39.4290237426757812
 13.1124467849731445 10.1691217422485352 40.1710357666015696
  8.1032123565673828  5.4420318603515616 48.0459518432617259
  8.1007528305053711 14.4734306335449219 48.0459518432617259
 17.1336116790771484  5.4420318603515616 48.0459518432617259
 17.1311531066894531 14.4734306335449219 48.0459518432617259
  5.4410333633422852  0.9265221953392029 48.0449485778808594
  5.4385743141174316  9.9579219818115234 48.0449485778808594
 14.4714326858520490  0.9265221953392029 48.0449485778808594
 14.4689741134643555  9.9579219818115234 48.0449485778808594
  1.4218254089355467  3.0919990539550781 46.4558296203613281
  1.4193661212921143 12.1233978271484375 46.4558296203613281
 10.4522256851196289  3.0919990539550781 46.4558296203613281
 10.4497661590576172 12.1233978271484375 46.4558296203613281
  3.0899283885955806  7.6075901985168457 46.4545211791992188
  3.0874691009521484 16.6389904022216797 46.4545211791992188
 12.1203289031982422  7.6075901985168457 46.4545211791992188
 12.1178693771362305 16.6389904022216797 46.4545211791992188
  0.9247469902038573  3.5893490314483643 48.0459518432617259
  0.9222877025604248 12.6207475662231445 48.0459518432617259
  9.9551477432250977  3.5893490314483643 48.0459518432617259
  9.9526882171630859 12.6207475662231445 48.0459518432617259
  3.5868983268737793  8.1048498153686523 48.0448913574218821
  3.5844390392303462 17.1362495422363281 48.0448913574218821
 12.6172990798950195  8.1048498153686523 48.0448913574218821
 12.6148395538330078 17.1362495422363281 48.0448913574218821
  7.6061611175537109  5.9393639564514160 46.4558296203613281
  7.6037015914916992 14.9707632064819336 46.4558296203613281
 16.6365604400634766  5.9393639564514160 46.4558296203613281
 16.6341018676757812 14.9707632064819336 46.4558296203613281
  5.9380125999450684  1.4238001108169553 46.4545211791992188
  5.9355530738830566 10.4551992416381836 46.4545211791992188
 14.9684123992919904  1.4238001108169553 46.4545211791992188
 14.9659538269042951 10.4551992416381836 46.4545211791992188
 -0.0011664569610730  4.5157265663146973 45.3548011779785156
 -0.0036257810425013 13.5471258163452148 45.3548011779785156
  9.0292339324951172  4.5157265663146973 45.3548011779785156
  9.0267744064331037 13.5471258163452148 45.3548011779785156
  4.5152091979980469  0.0000000000000000 45.3536758422851562
  4.5127501487731934  9.0313997268676740 45.3536758422851562
 13.5456094741821289  0.0000000000000000 45.3536758422851562
 13.5431499481201172  9.0313997268676740 45.3536758422851562
 12.9824314117431641  7.9303979873657218 33.8445930480957031
 13.2929916381835938  8.9304838180541992 32.4266128540039062
 11.8806047439575178  9.9998731613159180 34.9616851806640696
 12.8176679611206037 11.5070619583129883 34.8298492431640625
 15.3142051696777326  9.0960521697998047 35.6542892456054759
 14.2195091247558594 10.3398504257202131 36.2529754638671946
 15.6701974868774414 10.1407938003540021 33.1278686523437500
 14.3492498397827131 11.2832498550415039 32.8450469970703125
 15.6635770797729492  8.3583097457885742 32.4098014831542969
 15.5990295410156250  7.6274070739746085 34.0136299133300781
 15.7151489257812500  5.8688149452209464 32.3801689147949219
 14.1373147964477539  5.8147225379943848 33.1446266174316406
 11.4860734939575178  9.9576473236083984 32.4915542602539062
 12.4248914718627930 11.4848251342773438 32.3069839477539062
 10.9546899795532209 11.4258813858032227 33.2928314208984446
 13.5920124053955078  8.3196420669555664 37.3495445251464844
 13.6137771606445312  7.3696136474609375 35.8809738159179688
 12.3101930618286133  8.5511903762817383 36.1547698974609375
 14.7968845367431641 12.4226703643798828 34.9914474487304688
 16.2813282012939453 12.2969245910644531 34.0362243652343750
 16.0614814758300781 11.2275047302246076 35.4030838012695312
 14.7875518798828107  6.9245486259460449 30.3210372924804723
 14.1208009719848633  5.3285326957702637 30.7106494903564489
 11.9515161514282209  5.6623296737670898 32.5213470458984375
 13.1545543670654297  8.3463935852050781 29.3520393371582067
  9.6911458969116211  6.6840462684631348 32.5150718688964844
 10.8710184097290039  9.3340473175048810 29.3315315246582031
  9.1454610824584961  8.4995918273925781 30.9306449890136719
 17.9033927917480469  4.3857536315917969 34.7126083374023509
  0.6498298645019535 13.9022750854492188 35.1763801574707031
  8.5151634216308594  4.1411771774291992 34.8817329406738281
  9.0491962432861328 13.6689529418945312 34.7747573852539062
  4.2984175682067871  9.5320224761962891 34.9380226135253977
  4.5900091389194122 17.9042048156261444 34.7059783935546946
 13.8138117054477316 17.7691316008567810 35.1828651428222656
  0.1498664468526840  4.4686970710754395 40.5881156921386719
  0.1549801230430603 13.7723045349121094 40.8005714416503906
  9.0176811218261719  4.4254407882690430 40.5020637512207102
  9.0320835113525391 13.5820236206054688 40.5995407104492188
  4.5552968978881836  8.9583625793457031 40.5900077819824219
  4.5802726009860635 18.0369937494397199 40.4346275329589844
 13.5168313980102539  9.3590230941772461 40.8182792663574290
 13.5556005695834756 17.9910902753472328 40.5231933593750071
  9.0289716720581055  4.5156092643737793 46.4455223083496165
  9.0265130996704102 13.5470085144042969 46.4455223083496165
 18.0593719482421875  4.5156092643737793 46.4455223083496165
 18.0569133758544922 13.5470085144042969 46.4455223083496165
  4.5152091979980469  0.0000180629995157 46.4442062377929759
  4.5127501487731934  9.0314178466796857 46.4442062377929759
 13.5456094741821289  0.0000180629995157 46.4442062377929759
 13.5431499481201172  9.0314178466796857 46.4442062377929759
 12.7184429168701154  6.9288353919982901 30.9395217895507848
 11.7283353805541992  6.4635734558105460 31.8125762939453161
 12.3934564590454102  7.9632167816162109 30.0393867492675781
 10.4468708038330078  7.0221433639526367 31.8079910278320312
 11.1148633956909180  8.5219583511352539 30.0251274108886754
 10.1382217407226562  8.0455493927001953 30.9220848083496094
 13.7299480438232422  8.5699377059936523 33.3642997741699219
 12.5611181259155273 10.5659322738647461 34.3169746398925781
 14.2630357742309570  9.4175176620483398 35.6649360656738281
 14.9009466171264648 10.7443742752075178 33.6216468811035227
 15.0146245956420898  7.7881250381469727 33.0895805358886719
 14.7544336318969727  6.4070987701416016 32.4507522583007884
 11.8540830612182617 10.8566217422485352 33.0090026855468750
 13.3789720535278303  8.3592700958251953 36.2756805419921875
 15.5335235595703125 11.7180700302124023 34.5851249694824219
 14.1307992935180646  6.3851418495178223 31.0394210815429688
  0.9818992614746097  4.3631272315979004 35.3439598083496094
  0.8095932006835949 12.8151216506957990 35.8801689147949219
  9.7566490173339844  3.7996625900268555 35.1081466674804688
  8.7565469741821289 12.6397371292114240 35.5368118286132812
  7.9907073974609366  5.2908678054809570 35.1779708862304688
  8.6972646713256836 14.9119100570678711 35.0201225280761719
 16.7286930084228516  4.4034991264343262 35.2911148071289134
 17.6985549926757812 14.7417678833007812 35.2730712890625071
  4.3772602081298828  8.2994852066040039 35.3615188598632812
  3.3891785144805904  0.2344472408294678 35.0465660095214915
 12.5179533222690225 17.8260580003261566 35.3409996032714844
  5.6873884201049805  0.4648385047912597 35.0517768859863281
  5.2146372795104980 10.4474124908447266 35.1441574096679759
 14.6511764526367188  0.6631844043731689 35.5023536682128906
  0.9984219074249266  3.5817627906799316 41.0674247741699219
  0.9623407125473022 12.8246526718139648 41.2372360229492188
  9.9816017150878888  3.7157590389251705 41.0440979003906250
  9.7470941543579084 12.7413988113403320 41.3275413513183665
  3.8203029632568359  8.0043268203735352 41.0985832214355540
  3.7241131523624058 17.2789602279663086 41.0759124755859375
 12.6717214584350586  8.5096387863159180 41.3400192260742188
 12.7725891331210732 17.1082779169082642 41.0976676940917969
  8.3069581985473633  5.3375849723815918 41.1145706176757812
  8.1791305541992188 14.4649438858032209 41.0569763183593750
 17.3104277849197388  5.1146211624145508 41.2813034057617188
 17.0646806955337524 14.0921773910522461 41.3315391540527344
  5.4519791603088370  0.7947993278503418 40.9861068725585938
  5.2616386413574219  9.8508396148681641 41.2712936401367188
 14.2678651809692383  0.8479598760604858 41.1427955627441406
 14.8158626556396484  9.3269262313842773 40.9845657348632812
  0.8273094892501831  3.6869695186614990 47.0359649658203125
  0.8248501420021057 12.7183685302734375 47.0359649658203125
  9.8577098846435547  3.6869695186614990 47.0359649658203125
  9.8552503585815412 12.7183685302734375 47.0359649658203125
  3.6843190193176270  8.2023353576660156 47.0346527099609375
  3.6818594932556152 17.2337341308593750 47.0346527099609375
 12.7147188186645508  8.2023353576660156 47.0346527099609375
 12.7122592926025391 17.2337341308593750 47.0346527099609375
  8.2006769180297852  5.3445744514465332 47.0360260009765696
  8.1982173919677734 14.3759746551513672 47.0360260009765696
 17.2310771942138672  5.3445744514465332 47.0360260009765696
 17.2286186218261719 14.3759746551513672 47.0360260009765696
  5.3436489105224600  0.8290914893150328 47.0346527099609375
  5.3411893844604483  9.8604917526245117 47.0346527099609375
 14.3740482330322266  0.8290914893150328 47.0346527099609375
 14.3715896606445312  9.8604917526245117 47.0346527099609375
 13.8785448074340803  9.8064975738525391 34.2452659606933594
  9.1765403747558594  0.2926879525184631 34.4677124023437571
  8.7123384475708008  9.2054405212402344 34.6683692932128906
 17.9651558324694633  0.1172984242439270 34.4864501953125071
  0.5915534496307373  9.1570243835449219 34.6716117858886719
  4.5131158828735352  4.4766387939453125 34.5810241699218750
  4.3155550956726074 13.8478221893310547 34.5347824096679688
 13.2389430999755842  3.8118302822113037 34.7469902038574219
 12.6722774505615217 14.3531436920166016 34.5618896484375000
  0.0059828087687492 17.9379430711269379 40.8942108154296875
  0.3195981383323669  8.9319801330566406 40.9587783813476634
  9.0783462524414062  0.0583075284957886 40.8912887573242188
  9.1066236495971680  8.9483823776245117 40.9520187377929688
  4.6447129249572754  4.3991093635559082 40.9368171691894531
  4.5240049362182617 13.6689996719360352 40.8993492126464915
 13.4913711547851562  4.8137874603271484 40.9590721130371094
 13.5054025650024414 13.4194841384887695 40.8526077270507884
  2.4325344562530518  2.1224317550659180 37.9472999572753906
  2.6957020759582520 10.9969606399536133 38.1671447753906250
 11.5675411224365234  2.0552427768707275 38.1475410461425852
 11.3006496429443359 11.2555027008056641 38.2250556945800781
  6.5464262962341309  7.0197649002075186 38.0272064208984446
  6.7372736930847168 15.9243364334106445 37.8686714172363281
 16.0081825256347656  6.6948695182800293 38.1957130432128906
 15.6576757431030273 15.8873586654663068 38.0299797058105469
  2.1886107921600342  6.5928168296813965 38.0321235656738281
  2.2115900516510010 15.8256940841674805 37.9713020324707102
 10.6992540359497070  6.2635040283203125 37.6837806701660156
 11.0740900039672852 15.6377563476562500 38.1833343505859375
  6.9271521568298331  2.3844554424285889 37.8578681945800852
  6.8734622001647940 11.4319114685058594 38.2433357238769531
 15.9873056411743164  2.5301976203918457 38.2627830505371094
 16.3939418792724609 11.6845273971557617 38.5062294006347656
  0.0000000000000000  0.0000000000000000 47.1735610961914062
 -0.0024593239650130  9.0313997268676740 47.1735610961914062
  9.0304002761840803  0.0000000000000000 47.1735610961914062
  9.0279407501220685  9.0313997268676740 47.1735610961914062
  4.5139794349670410  4.5156998634338379 47.1742515563964844
  4.5115203857421875 13.5470991134643537 47.1742515563964844
 13.5443792343139648  4.5156998634338379 47.1742515563964844
 13.5419197082519531 13.5470991134643537 47.1742515563964844
  2.4519233703613277  2.0629522800445557 44.0401268005371165
  2.4494640827178955 11.0943517684936523 44.0401268005371165
 11.4823226928710920  2.0629522800445557 44.0401268005371165
 11.4798641204833984 11.0943517684936523 44.0401268005371165
  6.5760178565979004  6.9684472084045410 44.0401268005371165
  6.5735583305358887 15.9998464584350586 44.0401268005371165
 15.6064186096191406  6.9684472084045410 44.0401268005371165
 15.6039590835571289 15.9998464584350586 44.0401268005371165
  2.0610768795013428  6.5788145065307617 44.0400009155273509
  2.0586175918579102 15.6102142333984375 44.0400009155273509
 11.0914773941040039  6.5788145065307617 44.0400009155273509
 11.0890178680419922 15.6102142333984375 44.0400009155273509
  6.9668641090393066  2.4525938034057613 44.0400657653808665
  6.9644045829772949 11.4839935302734375 44.0400657653808665
 15.9972639083862305  2.4525938034057613 44.0400657653808665
 15.9948053359985352 11.4839935302734375 44.0400657653808665
  2.4316265583038330  2.0832188129425049 50.0684852600097656
  2.4291670322418213 11.1146183013915998 50.0684852600097656
 11.4620265960693359  2.0832188129425049 50.0684852600097656
 11.4595670700073224 11.1146183013915998 50.0684852600097656
  6.5963144302368164  6.9481806755065918 50.0684852600097656
  6.5938549041748047 15.9795799255371076 50.0684852600097656
 15.6267137527465803  6.9481806755065918 50.0684852600097656
 15.6242542266845703 15.9795799255371076 50.0684852600097656
  2.0811281204223633  6.5990090370178223 50.0690460205078125
  2.0786688327789307 15.6304082870483398 50.0690460205078125
 11.1115283966064453  6.5990090370178223 50.0690460205078125
 11.1090688705444336 15.6304082870483398 50.0690460205078125
  6.9468131065368652  2.4323906898498531 50.0690460205078125
  6.9443535804748535 11.4637899398803711 50.0690460205078125
 15.9772129058837891  2.4323906898498531 50.0690460205078125
 15.9747543334960938 11.4637899398803711 50.0690460205078125
 18.0079155378043652  0.0513829216361046 37.8014068603515625
  0.1249260008335114  9.1474227905273438 37.7922286987304688
  9.0730123519897461  0.1141498833894730 37.7632637023925781
  9.0228357315063477  9.0636186599731445 37.7996597290039062
  4.5177936553955069  4.6113986968994141 37.7953033447265696
  4.4510283470153809 13.6158571243286133 37.7307739257812571
 13.4660091400146484  4.6424627304077148 37.8330650329589915
 13.3684949874877930 13.6756019592285156 37.6353034973144602
  0.0000090280000222  0.0000090310004452 44.0429992675781250
 -0.0024502959568053  9.0314083099365234 44.0429992675781250
  9.0304088592529297  0.0000090310004452 44.0429992675781250
  9.0279493331909180  9.0314083099365234 44.0429992675781250
  4.5139703750610352  4.5156903266906738 44.0427513122558594
  4.5115113258361816 13.5470905303955078 44.0427513122558594
 13.5443706512451172  4.5156903266906738 44.0427513122558594
 13.5419111251831037 13.5470905303955078 44.0427513122558594
  0.0000000000000000  0.0000000000000000 50.4472808837890696
 -0.0024593239650130  9.0313997268676740 50.4472808837890696
  9.0304002761840803  0.0000000000000000 50.4472808837890696
  9.0279407501220685  9.0313997268676740 50.4472808837890696
  4.5139703750610352  4.5156998634338379 50.4472808837890696
  4.5115113258361816 13.5470991134643537 50.4472808837890696
 13.5443706512451172  4.5156998634338379 50.4472808837890696
 13.5419111251831055 13.5470991134643537 50.4472808837890696
