 H  C  N  I Pb 
 1.0000000000000000
    18.0608005523681641    0.0000000000000000    0.0000000000000000
    -0.0049186488613486   18.0627994537353516    0.0000000000000000
     0.0000000000000000    0.0000000000000000   62.4874992370605469
 H   C   N   I   Pb 
 143  39  47  72  24
Cartesian
  8.5625953674316406  6.0464406013488761 35.5782966613769531
  8.1001138687133789 15.0816831588745117 35.8461761474609375
 16.6733226776123047  4.4817805290222168 36.2665901184082031
 16.9968547821044922 14.7616119384765625 35.9292869567871094
  5.7481083869934082  1.3549137115478516 35.5984344482421946
  6.2054972648620605 10.1368846893310547 35.3802566528320312
 14.4187183380126953  1.6503584384918213 35.7135963439941406
  1.8932170867919902  4.4500350952148438 34.8183288574218750
  1.4787082672119150 12.1782808303833008 35.8908767700195384
  9.8817663192749023  2.7142705917358398 35.0065536499023509
  8.9912443161010742 11.6495532989501953 35.0544509887695312
  6.6548275947570801  0.1886634975671768 34.7010307312011719
  5.2062997817993164 11.4259138107299805 34.7400703430175852
 15.7295837402343750  0.6352176666259766 35.1294670104980469
  1.0445995330810547  4.5115027427673340 36.3229866027832031
 18.0269470214843750 12.5623950958251953 36.6605453491211009
 10.3706474304199219  4.3047022819519043 35.6043052673339915
  8.1600370407104492 12.6114349365234375 36.2260360717773509
  5.0565366744995117  7.9601531028747559 35.8206443786621094
  3.2918133735656738  1.0746541023254395 35.7234268188476562
 12.1719646453857404  0.5407345890998840 35.8147964477539062
  7.0064187049865723  5.5259327888488770 34.9453849792480469
  9.0867261886596662 15.7112226486206037 34.5676612854003977
 15.8562307357788086  4.3019051551818848 34.7350807189941406
 17.8435401916503906 15.6528530120849609 34.7231101989746094
  3.4204835891723633  7.8449869155883780 35.2789688110351562
  2.5829512337222695 17.8434492051601445 34.8392295837402415
 12.1116060474887490 16.9545998573303223 35.2288818359375071
  7.7383346557617188  3.4033222198486328 34.4638137817382812
  9.7951774597167969 13.5654382705688477 33.8994598388671875
 17.9409503936767578  4.2922620773315430 33.5710563659667969
  1.4924945831298839 14.0359888076782227 34.5487213134765625
  3.3287408351898189 10.0261125564575195 34.5539398193359446
  4.6935052135959268 17.0233604907989502 34.1456527709960938
 14.3244899967685342 16.8835947513580322 34.7347793579101562
  8.3108415603637695  5.5581059455871582 42.0908699035644531
  7.9609041213989258 14.5889844894409162 42.0121879577636719
 17.0754436254501343  5.0010037422180176 42.2006034851074219
 16.6655961275100708 13.2634124755859357 42.0215873718261790
  5.5703110694885254  0.8795963525772095 41.9867591857910156
  5.3317985534667960  9.9825305938720703 42.2207298278808594
 14.3903369903564435  0.9649617671966553 42.1508827209472656
 15.2356128692626935  8.5288887023925781 41.4944572448730540
  1.6711150407791138  3.1383104324340820 40.5182571411132884
  1.9871629476547241 12.9248800277709961 40.7314109802246094
 10.4842472076415998  3.0461144447326660 40.5584564208984446
 10.3483257293701172 12.0976419448852539 40.7451133728027344
  3.3622536659240723  7.3966741561889640 40.5127716064453125
  3.0135850170627236 16.7832779884338379 40.4550895690918040
 11.6249179840087891  8.5818252563476562 41.1718177795410227
 12.2467836597934348 16.5335035324096680 40.5281524658203125
  1.0041217803955078  3.3408722877502441 42.1059265136718750
  0.9128668308258057 12.1984205245971680 41.8739814758300852
 10.1261091232299805  3.7435226440429683 42.1171531677246165
  9.7098426818847656 12.6641435623168945 42.2606353759765625
  3.6686785221099849  7.9554638862609863 42.1201591491699290
  3.5779508808627725 17.2434816956520081 42.0334510803222656
 12.9316425323486310  7.6072297096252441 41.7810516357421875
 12.6566614368930459 17.0999382734298706 42.1275215148925781
  7.6034374237060547  5.8713459968566895 40.5369606018066406
  7.6233706474304190 15.0310573577880859 40.3710746765136719
 16.6919459104537964  5.7648377418518066 40.6700592041015625
 16.3880355358123779 14.6354303359985352 40.9649124145507812
  6.0864582061767578  1.3131564855575562 40.3972473144531250
  5.8441519737243652 10.5567960739135742 40.6630821228027344
 14.9298219680786133  1.4744014739990234 40.5841789245605540
 15.3780632019042969 10.0187063217163086 40.6033515930175781
  0.2505726516246796  4.6648592948913565 39.5111389160156250
  0.4700157642364502 14.5302619934082031 40.0497550964355469
  8.9241762161254883  4.3466706275939941 39.4310684204101562
  9.0965213775634748 13.5064506530761719 39.4575843811035227
  4.5365013340488076 18.0571245066821575 39.3196716308593750
  4.6837506294250488  8.9568328857421875 39.4869689941406250
 13.6356605747714639 17.9968578964471853 39.4493408203125071
 13.0791749954223633 10.1901016235351545 40.2904014587402344
  8.1032123565673828  5.4420318603515616 48.0459518432617259
  8.1007528305053711 14.4734306335449219 48.0459518432617259
 17.1336116790771484  5.4420318603515616 48.0459518432617259
 17.1311531066894531 14.4734306335449219 48.0459518432617259
  5.4410333633422852  0.9265221953392029 48.0449485778808594
  5.4385743141174316  9.9579219818115234 48.0449485778808594
 14.4714326858520490  0.9265221953392029 48.0449485778808594
 14.4689741134643555  9.9579219818115234 48.0449485778808594
  1.4218254089355467  3.0919990539550781 46.4558296203613281
  1.4193661212921143 12.1233978271484375 46.4558296203613281
 10.4522256851196289  3.0919990539550781 46.4558296203613281
 10.4497661590576172 12.1233978271484375 46.4558296203613281
  3.0899283885955806  7.6075901985168457 46.4545211791992188
  3.0874691009521484 16.6389904022216797 46.4545211791992188
 12.1203289031982422  7.6075901985168457 46.4545211791992188
 12.1178693771362305 16.6389904022216797 46.4545211791992188
  0.9247469902038573  3.5893490314483643 48.0459518432617259
  0.9222877025604248 12.6207475662231445 48.0459518432617259
  9.9551477432250977  3.5893490314483643 48.0459518432617259
  9.9526882171630859 12.6207475662231445 48.0459518432617259
  3.5868983268737793  8.1048498153686523 48.0448913574218821
  3.5844390392303462 17.1362495422363281 48.0448913574218821
 12.6172990798950195  8.1048498153686523 48.0448913574218821
 12.6148395538330078 17.1362495422363281 48.0448913574218821
  7.6061611175537109  5.9393639564514160 46.4558296203613281
  7.6037015914916992 14.9707632064819336 46.4558296203613281
 16.6365604400634766  5.9393639564514160 46.4558296203613281
 16.6341018676757812 14.9707632064819336 46.4558296203613281
  5.9380125999450684  1.4238001108169553 46.4545211791992188
  5.9355530738830566 10.4551992416381836 46.4545211791992188
 14.9684123992919904  1.4238001108169553 46.4545211791992188
 14.9659538269042951 10.4551992416381836 46.4545211791992188
 -0.0011664569610730  4.5157265663146973 45.3548011779785156
 -0.0036257810425013 13.5471258163452148 45.3548011779785156
  9.0292339324951172  4.5157265663146973 45.3548011779785156
  9.0267744064331037 13.5471258163452148 45.3548011779785156
  4.5152091979980469  0.0000000000000000 45.3536758422851562
  4.5127501487731934  9.0313997268676740 45.3536758422851562
 13.5456094741821289  0.0000000000000000 45.3536758422851562
 13.5431499481201172  9.0313997268676740 45.3536758422851562
 12.9967288970947248  7.9834647178649902 33.8249969482421875
 13.3141164779663086  8.8958349227905273 32.3730049133300781
 11.9199600219726562  9.9823789596557617 34.9031372070312571
 12.7595157623290998 11.5284709930419922 34.7452774047851634
 15.3480043411254883  9.1657066345214826 35.5461196899414062
 14.2525596618652344 10.4210262298583984 36.1583442687988352
 15.7209138870239240 10.1592473983764631 33.1324310302734375
 14.3989410400390625 11.2770843505859375 32.7005195617675781
 15.7143917083740234  8.3621215820312500 32.4121284484863281
 15.5833473205566388  7.6520867347717276 34.0068473815917969
 15.7435274124145508  5.8911910057067871 32.4162025451660227
 14.1391925811767578  5.8212156295776367 33.1103324890136719
 11.4642868041992188  9.9456577301025391 32.4490394592285156
 12.4160575866699219 11.4517040252685547 32.2324066162109375
 10.9391689300537109 11.4414672851562482 33.1856193542480469
 13.6267728805541974  8.4576930999755859 37.2997932434082031
 13.6338319778442365  7.4102940559387207 35.8634490966796946
 12.3481540679931641  8.6178331375122070 36.0989303588867188
 14.7477512359619141 12.4914464950561523 34.9117279052734375
 16.2541255950927734 12.4045009613037109 33.9799995422363281
 16.0171260833740234 11.3060169219970703 35.3442077636718750
 14.8133277893066406  6.8714828491210938 30.3245410919189489
 14.1649866104125959  5.2853140830993652 30.7206630706787109
 11.9708404541015625  5.5535097122192374 32.4840698242187571
 13.2001123428344727  8.3131513595581055 29.4103622436523473
  9.6883049011230469  6.5119643211364746 32.4323043823242188
 10.9002237319946289  9.2502365112304688 29.3384799957275391
  9.1363639831542969  8.3689813613891602 30.8756904602050817
 17.9090137481689453  4.3765010833740234 34.6505165100097727
  0.6348667144775394 13.8805208206176758 35.2082901000976634
  8.4530134201049805  4.1118636131286621 34.8905220031738281
  9.1067609786987305 13.6765880584716797 34.7410202026367259
  4.2757201194763184  9.6382474899291992 34.9395675659179688
  4.6231254795566192 17.9522567689418793 34.7157745361328196
 13.9207023838534951 17.8150908499956131 35.1309967041015625
  0.1479552686214447  4.4597992897033691 40.5761222839355540
  0.1745712161064148 13.8123064041137695 40.8115348815917969
  9.0514183044433594  4.4614362716674805 40.5073280334472656
  8.9850692749023438 13.5559043884277344 40.5292243957519602
  4.6173744201660147  8.9641666412353516 40.5669479370117188
  4.5534124374389648  0.0162460878491402 40.4064369201660227
 13.4837045669555664  9.3500890731811523 40.8279800415039134
 13.5907453754916769 18.0309352725744247 40.5324211120605540
  9.0289716720581055  4.5156092643737793 46.4455223083496165
  9.0265130996704102 13.5470085144042969 46.4455223083496165
 18.0593719482421875  4.5156092643737793 46.4455223083496165
 18.0569133758544922 13.5470085144042969 46.4455223083496165
  4.5152091979980469  0.0000180629995157 46.4442062377929759
  4.5127501487731934  9.0314178466796857 46.4442062377929759
 13.5456094741821289  0.0000180629995157 46.4442062377929759
 13.5431499481201172  9.0314178466796857 46.4442062377929759
 12.7522802352905273  6.8774299621582031 30.9487342834472692
 11.7383279800415039  6.3608822822570801 31.7862701416015661
 12.4238367080688477  7.9093155860900879 30.0637683868408203
 10.4538316726684570  6.8937969207763672 31.7540054321289062
 11.1214084625244141  8.4332485198974609 30.0263786315918004
 10.1464548110961896  7.9490971565246582 30.8773059844970739
 13.7562751770019513  8.5889453887939453 33.3178024291992188
 12.5489244461059570 10.5780992507934553 34.2427635192871094
 14.2967300415039062  9.4871187210083008 35.5825691223144531
 14.9288082122802734 10.7938203811645490 33.5363540649414062
 15.0358829498290998  7.7968888282775879 33.0640296936035156
 14.7771873474121094  6.4158444404602051 32.4403419494628906
 11.8280696868896467 10.8508758544921875 32.9378433227539062
 13.4194927215576172  8.4286565780639648 36.2238578796386719
 15.5070705413818342 11.8025808334350568 34.5151138305664134
 14.1640157699584943  6.3444170951843262 31.0313224792480469
  0.9927234649658222  4.4095005989074707 35.3029975891113281
  0.6768798828125006 12.8033533096313477 35.9538879394531250
  9.6826515197753888  3.7136285305023193 35.1251525878906250
  8.7506170272827148 12.5925664901733398 35.3870925903320384
  8.0024776458740234  5.3376216888427734 35.0999221801757812
  8.7014465332031250 14.8816986083984375 35.0332412719726634
 16.7379589080810547  4.4429059028625488 35.2431793212890625
 17.7086715698242188 14.7523660659790039 35.1951484680175781
  4.2652301788330078  8.3775272369384766 35.3243217468261790
  3.4358720779418945  0.2920253276824951 35.0766601562500000
 12.6254848698154092 17.8152756243944204 35.3511505126953125
  5.7444925308227539  0.5338171720504761 34.9837417602539062
  5.3112115859985352 10.4361429214477539 34.9861221313476634
 14.7416944503784180  0.7450969219207764 35.3630142211914062
  0.9729483723640441  3.5949754714965820 41.1132888793945312
  1.0587475299835205 12.9130144119262678 41.1564254760742188
  9.9458169937133771  3.7162559032440186 41.1081237792968750
  9.7123432159423828 12.7243347167968750 41.2284317016601634
  3.8597922325134277  8.0441875457763672 41.1159286499023509
  3.6533123711124063 17.3290143013000524 41.0154876708984446
 12.6409921646118164  8.4466028213500977 41.2704429626464844
 12.7897981861606240 17.1643885374069249 41.1103515625000000
  8.2849483489990234  5.3535594940185547 41.0893592834472656
  8.1442708969116211 14.4370660781860352 41.0158462524414062
 17.2620673179626465  5.1206531524658203 41.2062683105468750
 17.0331908464431763 13.9296560287475586 41.3207664489746165
  5.4515228271484375  0.7705866694450378 40.9788131713867188
  5.2983427047729492  9.8708639144897461 41.2043151855468750
 14.3411331176757812  0.8544198274612427 41.1395606994628977
 14.7825708389282227  9.2971591949462891 40.9961051940917969
  0.8273094892501831  3.6869695186614990 47.0359649658203125
  0.8248501420021057 12.7183685302734375 47.0359649658203125
  9.8577098846435547  3.6869695186614990 47.0359649658203125
  9.8552503585815412 12.7183685302734375 47.0359649658203125
  3.6843190193176270  8.2023353576660156 47.0346527099609375
  3.6818594932556152 17.2337341308593750 47.0346527099609375
 12.7147188186645508  8.2023353576660156 47.0346527099609375
 12.7122592926025391 17.2337341308593750 47.0346527099609375
  8.2006769180297852  5.3445744514465332 47.0360260009765696
  8.1982173919677734 14.3759746551513672 47.0360260009765696
 17.2310771942138672  5.3445744514465332 47.0360260009765696
 17.2286186218261719 14.3759746551513672 47.0360260009765696
  5.3436489105224600  0.8290914893150328 47.0346527099609375
  5.3411893844604483  9.8604917526245117 47.0346527099609375
 14.3740482330322266  0.8290914893150328 47.0346527099609375
 14.3715896606445312  9.8604917526245117 47.0346527099609375
 13.8968515396118164  9.8454608917236328 34.1552124023437500
  9.1994152069091797  0.2569476962089539 34.4229736328125000
  8.7309169769287109  9.1206121444702148 34.6495704650878977
  0.0167400334030390  0.1622627824544907 34.4904708862304759
  0.5456545352935791  9.1194458007812500 34.6875801086425781
  4.5124654769897461  4.4836392402648926 34.5497131347656321
  4.4252371788024902 13.8401403427124023 34.5307426452636719
 13.2234668731689453  3.8031997680664058 34.7390594482421875
 12.6380348205566406 14.3722877502441406 34.6577682495117259
 17.9945398913696444 17.8283191323280334 40.9006881713867188
  0.2604047060012817  8.9376497268676758 40.9902725219726562
  9.0362186431884766  0.0892825946211815 40.8833427429199219
  9.0808048248291016  8.9490375518798828 40.9247245788574219
  4.6436104774475098  4.3939180374145508 40.9031333923339844
  4.5865402221679688 13.6580801010131836 40.8933639526367259
 13.4872541427612305  4.8463764190673828 40.9317207336425781
 13.4664840698242188 13.4344224929809570 40.8832168579101562
  2.3589711189270020  2.1827251911163330 37.9726638793945384
  2.7461690902709961 10.9521579742431641 38.0615653991699290
 11.5615835189819318  2.0589501857757568 38.1225090026855469
 11.3519487380981445 11.2120351791381836 38.0992698669433594
  6.5825395584106445  6.9953927993774414 37.9934883117675781
  6.7313108444213867 15.9392910003662109 37.8965835571289134
 16.0250244140625000  6.6982240676879883 38.0981674194335938
 15.6657533645629883 15.9095678329467773 37.9017219543457031
  2.2175192832946777  6.6065082550048819 38.0140495300292969
  2.2239842414855957 15.8345174789428693 37.9380683898925781
 10.7374887466430664  6.2584314346313477 37.6403465270996094
 11.1088180541992188 15.6492757797241211 38.2787513732910227
  6.9515972137451163  2.3969841003417969 37.8521118164062500
  6.9151415824890137 11.4213037490844727 38.2202529907226634
 15.9371700286865234  2.4606237411499023 38.2850952148437571
 16.3233013153076172 11.6236515045166016 38.4438972473144531
  0.0000000000000000  0.0000000000000000 47.1735610961914062
 -0.0024593239650130  9.0313997268676740 47.1735610961914062
  9.0304002761840803  0.0000000000000000 47.1735610961914062
  9.0279407501220685  9.0313997268676740 47.1735610961914062
  4.5139794349670410  4.5156998634338379 47.1742515563964844
  4.5115203857421875 13.5470991134643537 47.1742515563964844
 13.5443792343139648  4.5156998634338379 47.1742515563964844
 13.5419197082519531 13.5470991134643537 47.1742515563964844
  2.4519233703613277  2.0629522800445557 44.0401268005371165
  2.4494640827178955 11.0943517684936523 44.0401268005371165
 11.4823226928710920  2.0629522800445557 44.0401268005371165
 11.4798641204833984 11.0943517684936523 44.0401268005371165
  6.5760178565979004  6.9684472084045410 44.0401268005371165
  6.5735583305358887 15.9998464584350586 44.0401268005371165
 15.6064186096191406  6.9684472084045410 44.0401268005371165
 15.6039590835571289 15.9998464584350586 44.0401268005371165
  2.0610768795013428  6.5788145065307617 44.0400009155273509
  2.0586175918579102 15.6102142333984375 44.0400009155273509
 11.0914773941040039  6.5788145065307617 44.0400009155273509
 11.0890178680419922 15.6102142333984375 44.0400009155273509
  6.9668641090393066  2.4525938034057613 44.0400657653808665
  6.9644045829772949 11.4839935302734375 44.0400657653808665
 15.9972639083862305  2.4525938034057613 44.0400657653808665
 15.9948053359985352 11.4839935302734375 44.0400657653808665
  2.4316265583038330  2.0832188129425049 50.0684852600097656
  2.4291670322418213 11.1146183013915998 50.0684852600097656
 11.4620265960693359  2.0832188129425049 50.0684852600097656
 11.4595670700073224 11.1146183013915998 50.0684852600097656
  6.5963144302368164  6.9481806755065918 50.0684852600097656
  6.5938549041748047 15.9795799255371076 50.0684852600097656
 15.6267137527465803  6.9481806755065918 50.0684852600097656
 15.6242542266845703 15.9795799255371076 50.0684852600097656
  2.0811281204223633  6.5990090370178223 50.0690460205078125
  2.0786688327789307 15.6304082870483398 50.0690460205078125
 11.1115283966064453  6.5990090370178223 50.0690460205078125
 11.1090688705444336 15.6304082870483398 50.0690460205078125
  6.9468131065368652  2.4323906898498531 50.0690460205078125
  6.9443535804748535 11.4637899398803711 50.0690460205078125
 15.9772129058837891  2.4323906898498531 50.0690460205078125
 15.9747543334960938 11.4637899398803711 50.0690460205078125
 17.9998533315956593  0.0645888149738312 37.7992973327636719
  0.1054190844297409  9.1185388565063477 37.8021659851074219
  9.0756931304931641  0.0648721680045128 37.7582473754882812
  9.0814332962036133  9.0399074554443342 37.7626380920410156
  4.5602097511291504  4.5506343841552734 37.7590217590332031
  4.4679183959960938 13.5877408981323242 37.7260246276855540
 13.4820508956909180  4.6155300140380859 37.8148612976074219
 13.3959999084472656 13.6778450012207031 37.7036476135253977
  0.0000090280000222  0.0000090310004452 44.0429992675781250
 -0.0024502959568053  9.0314083099365234 44.0429992675781250
  9.0304088592529297  0.0000090310004452 44.0429992675781250
  9.0279493331909180  9.0314083099365234 44.0429992675781250
  4.5139703750610352  4.5156903266906738 44.0427513122558594
  4.5115113258361816 13.5470905303955078 44.0427513122558594
 13.5443706512451172  4.5156903266906738 44.0427513122558594
 13.5419111251831037 13.5470905303955078 44.0427513122558594
  0.0000000000000000  0.0000000000000000 50.4472808837890696
 -0.0024593239650130  9.0313997268676740 50.4472808837890696
  9.0304002761840803  0.0000000000000000 50.4472808837890696
  9.0279407501220685  9.0313997268676740 50.4472808837890696
  4.5139703750610352  4.5156998634338379 50.4472808837890696
  4.5115113258361816 13.5470991134643537 50.4472808837890696
 13.5443706512451172  4.5156998634338379 50.4472808837890696
 13.5419111251831055 13.5470991134643537 50.4472808837890696
