 H  C  N  I Pb 
 1.0000000000000000
    18.0608005523681641    0.0000000000000000    0.0000000000000000
    -0.0049186488613486   18.0627994537353516    0.0000000000000000
     0.0000000000000000    0.0000000000000000   62.4874992370605469
 H   C   N   I   Pb 
 143  39  47  72  24
Cartesian
  8.1891975402832031  5.4833602905273438 36.3575744628906250
  7.9987950325012207 14.4411811828613281 36.4180374145507884
 17.1003303527832031  5.3622560501098624 36.3593826293945384
 17.1491966247558594 14.4416313171386719 36.3584785461425852
  5.3731417655944824  0.9337165355682373 36.2987136840820312
  5.4429483413696289 10.0185508728027344 36.3052520751953196
 14.4079790115356428  0.9855669736862183 36.2987136840820312
  1.4066410064697277  3.1234672069549561 34.8013687133789134
  1.5478763580322259 12.2390584945678711 34.8036155700683665
 10.5599050521850586  3.1864790916442871 34.8613052368164134
 10.4582767486572266 12.2386083602905256 34.8631782531738281
  5.9943194389343253  1.4278079271316528 34.7431755065917969
  5.9390559196472159 10.5461711883544904 34.7161712646484446
 14.9984102249145508  1.5160174369812012 34.7431755065917969
  0.9651775360107427  3.6209034919738770 36.3570518493652344
  0.9541015625000008 12.6984863281250000 36.3587570190429688
 10.0548944473266602  3.7402076721191406 36.3570480346679688
  9.9262990951538086 12.6398906707763672 36.4183158874511719
  3.7101073265075684  8.1750726699829102 36.4125251770019531
  3.5247432449832554 17.2603611946105957 36.2986145019531250
 12.6670040348544717 17.2047932147979736 36.2986145019531250
  7.5987763404846191  5.8847923278808594 34.8639945983886719
  7.5552439689636230 14.9986686706542951 34.8639602661132812
 16.5680046081542969  5.8254323005676270 34.8622016906738281
 16.6457004547119141 14.9973192214965820 34.8026008605957031
  3.1235017776489258  7.5513319969177237 34.8905906677246094
  2.9940997818484902 16.6701468229293823 34.7431411743164134
 12.1727070072665811 16.5838212966918945 34.7431411743164134
  9.0449352264404297  4.5299921035766602 33.7095489501953196
  9.0103549957275391 13.6533479690551758 33.7104682922363352
 17.9560718536376953  4.4088878631591797 33.7113533020019602
  0.0400085449218754 13.6519994735717773 33.6491088867187500
  4.5285463333129883  9.0458621978759766 33.7093238830566406
  4.5593476295471191  0.0128890667110682 33.6509017944335938
 13.5877451160922647 18.0186508968472481 33.6509017944335938
  8.1007184982299805  5.4360589981079102 42.1881752014160156
  8.1071090698242188 14.4631414413452131 42.1843452453613281
 17.0719385147094762  5.3890433311462402 42.0735702514648438
 17.1377110481262207 14.5349712371826172 42.1866035461425852
  5.5036215782165527  0.9188989400863647 42.1857070922851562
  5.4314503669738761 10.0200433731079102 42.1856842041015696
 14.5356674194335938  1.0512365102767944 42.1286163330078125
 14.4720993041992188 10.0217018127441406 42.1284141540527344
  1.4136912822723389  3.1228244304656982 40.6295356750488281
  1.3067028522491455 12.0697393417358398 40.6052398681640625
 10.5063962936401367  3.2049300670623775 40.6049766540527415
 10.3319215774536133 12.0348577499389631 40.4002723693847656
  3.2018973827362056  7.5547442436218253 40.6042022705078125
  3.0333048561587930 16.7522947788238561 40.6041679382324290
 12.0920610427856445  7.4900851249694824 40.6314964294433594
 12.2105478504672629 16.6460165977478027 40.6880455017089844
  0.8535372018814087  3.5931320190429688 42.1828346252441477
  0.8698400259017943 12.5699663162231445 42.1884727478027344
 10.0063924789428711  3.6420419216156006 42.1882362365722656
  9.8984518051147461 12.5581808090209961 42.0734100341796875
  3.5789897441864014  8.0529794692993164 42.1856460571289062
  3.5316194752231236 17.1292586326599121 42.1856231689453196
 12.6230735778808576  8.0547399520874023 42.2429466247558665
 12.6817239979282022 17.1470749378204346 42.2431526184082102
  7.6346907615661621  5.9091620445251465 40.6050109863281250
  7.6361560821533194 14.9643621444702148 40.6293067932128906
 16.5479652881622350  5.8836107254028311 40.3987007141113281
 16.6631207466125488 14.9413042068481445 40.6052093505859375
  5.9099302291870117  1.3936610221862793 40.6042671203613281
  5.9062805175781250 10.4262485504150391 40.6042327880859446
 14.9112386703491211  1.5126607418060303 40.4590797424316477
 14.9093589782714844 10.4867782592773438 40.5170211791992259
 18.0464080162346399  4.4700865745544434 39.3748664855957031
 17.9501770883798599 13.4441890716552734 39.4977416992187571
  9.1318454742431641  4.6222362518310547 39.4975128173828125
  8.9825925827026367 13.5321025848388672 39.4345855712890625
  4.4127593040466309  0.1067602336406708 39.4968338012695312
  4.6192030906677246  8.9291620254516602 39.4968338012695312
 13.5019788742065430  0.0137085244059563 39.4952507019042969
 13.4402637481689435  8.9242305755615234 39.4968452453613281
  8.1032123565673828  5.4420318603515616 48.0459518432617259
  8.1007528305053711 14.4734306335449219 48.0459518432617259
 17.1336116790771484  5.4420318603515616 48.0459518432617259
 17.1311531066894531 14.4734306335449219 48.0459518432617259
  5.4410333633422852  0.9265221953392029 48.0449485778808594
  5.4385743141174316  9.9579219818115234 48.0449485778808594
 14.4714326858520490  0.9265221953392029 48.0449485778808594
 14.4689741134643555  9.9579219818115234 48.0449485778808594
  1.4218254089355467  3.0919990539550781 46.4558296203613281
  1.4193661212921143 12.1233978271484375 46.4558296203613281
 10.4522256851196289  3.0919990539550781 46.4558296203613281
 10.4497661590576172 12.1233978271484375 46.4558296203613281
  3.0899283885955806  7.6075901985168457 46.4545211791992188
  3.0874691009521484 16.6389904022216797 46.4545211791992188
 12.1203289031982422  7.6075901985168457 46.4545211791992188
 12.1178693771362305 16.6389904022216797 46.4545211791992188
  0.9247469902038573  3.5893490314483643 48.0459518432617259
  0.9222877025604248 12.6207475662231445 48.0459518432617259
  9.9551477432250977  3.5893490314483643 48.0459518432617259
  9.9526882171630859 12.6207475662231445 48.0459518432617259
  3.5868983268737793  8.1048498153686523 48.0448913574218821
  3.5844390392303462 17.1362495422363281 48.0448913574218821
 12.6172990798950195  8.1048498153686523 48.0448913574218821
 12.6148395538330078 17.1362495422363281 48.0448913574218821
  7.6061611175537109  5.9393639564514160 46.4558296203613281
  7.6037015914916992 14.9707632064819336 46.4558296203613281
 16.6365604400634766  5.9393639564514160 46.4558296203613281
 16.6341018676757812 14.9707632064819336 46.4558296203613281
  5.9380125999450684  1.4238001108169553 46.4545211791992188
  5.9355530738830566 10.4551992416381836 46.4545211791992188
 14.9684123992919904  1.4238001108169553 46.4545211791992188
 14.9659538269042951 10.4551992416381836 46.4545211791992188
 -0.0011664569610730  4.5157265663146973 45.3548011779785156
 -0.0036257810425013 13.5471258163452148 45.3548011779785156
  9.0292339324951172  4.5157265663146973 45.3548011779785156
  9.0267744064331037 13.5471258163452148 45.3548011779785156
  4.5152091979980469  0.0000000000000000 45.3536758422851562
  4.5127501487731934  9.0313997268676740 45.3536758422851562
 13.5456094741821289  0.0000000000000000 45.3536758422851562
 13.5431499481201172  9.0313997268676740 45.3536758422851562
 14.3134346008300763  9.7653264999389648 33.0651054382324219
 15.8740243911743164  9.5490922927856445 33.8162574768066477
 14.5339155197143555 11.6163263320922834 34.3117599487304688
 14.4485063552856445 11.6132335662841797 36.0514144897461009
 12.4842348098754865  8.7346916198730469 35.6102752685546875
 12.6641664505004883 10.4627046585083008 35.9802513122558594
 14.5231714248657209  8.0439624786376953 36.1057434082031250
 15.9125461578369141  9.1156835556030256 36.3621253967285156
 15.4720916748046857  7.3133339881896973 34.3384819030761790
 13.7316751480102539  7.3610506057739258 34.0647888183593750
 14.0206565856933594  7.6456813812255850 31.6512813568115270
 15.7734155654907227  8.0559873580932617 31.8138256072998082
 16.7370433807373047 11.4357690811157227 34.1992225646972656
 16.8229732513427734 10.7204675674438459 35.8126220703125000
 16.4957027435302734 12.3710556030273438 35.6683616638183594
 11.1185321807861328 10.3301534652709961 34.1956024169921875
 12.2152776718139648  9.3793802261352539 33.1417274475097727
 12.6658134460449219 11.1267099380493164 33.5394783020019531
 13.2975835800170898  8.8256320953369141 37.7771339416503977
 13.9031162261962891 10.4493341445922852 37.5980339050292969
 14.8737382888793945  9.2666549682617188 38.4381599426269531
 14.8640336990356445  5.3237986564636222 32.6396408081054688
 15.0705204010009766  5.6772041320800781 30.9311485290527379
 16.8456020355224609  3.6999123096466064 30.9129562377929723
 17.2706775665283203  7.4274382591247559 32.9816741943359375
  1.3108158111572279  3.3565733432769771 31.1124897003173864
  1.6690750122070326  7.0907292366027832 33.2389297485351562
  2.6817398071289076  5.0413765907287598 32.2915344238281250
 17.9880638122558594  4.4420928955078125 34.8011665344238281
  0.0702781677246122 13.6214866638183594 34.6807632446289134
  9.0169839859008789  4.5613985061645508 34.8011589050292969
  8.9789342880249023 13.6191844940185547 34.8002662658691406
  4.5602540969848633  9.0795469284057617 34.7991294860839844
  4.4676938056945801  0.0483729168772697 34.7389068603515625
 13.5572481155395490  0.0475220456719398 34.7389068603515625
 18.0129359252750874  4.5016045570373535 40.4636802673339844
 17.9838670194149017 13.5339002609252930 40.5248069763183594
  9.0421323776245117  4.5884604454040527 40.5245742797851562
  8.9545917510986328 13.5618591308593732 40.4670333862304688
  4.5856661796569824  9.0190181732177734 40.5237693786621094
  4.5026264190673828  0.0731286555528641 40.5237655639648509
 13.4719305038452148  8.9578437805175781 40.5855255126953125
 13.5918483734130859  0.0472687408328056 40.5221862792968750
  9.0289716720581055  4.5156092643737793 46.4455223083496165
  9.0265130996704102 13.5470085144042969 46.4455223083496165
 18.0593719482421875  4.5156092643737793 46.4455223083496165
 18.0569133758544922 13.5470085144042969 46.4455223083496165
  4.5152091979980469  0.0000180629995157 46.4442062377929759
  4.5127501487731934  9.0314178466796857 46.4442062377929759
 13.5456094741821289  0.0000180629995157 46.4442062377929759
 13.5431499481201172  9.0314178466796857 46.4442062377929759
 16.8668136596679688  5.6097645759582520 32.0113945007324219
 17.5212764739990234  4.4652037620544434 31.4614620208740270
 17.7508258819580078  6.4918780326843262 32.6387939453125000
  0.7891902923583979  4.2653121948242188 31.5414237976074254
  1.0642662048339868  6.3594808578491211 32.7347984313964844
  1.6535720825195310  5.2141356468200684 32.1922836303710938
 14.8403882980346680  9.1735200881958008 33.9202919006347727
 14.9119758605957031 11.1761741638183594 35.1666107177734375
 12.8209638595581055  9.7199411392211914 35.2196578979492188
 14.8277645111083984  9.0741043090820312 36.2943840026855469
 14.6944246292114240  7.8127670288085938 33.6853942871093750
 14.9321374893188459  7.3316745758056641 32.2569084167480469
 16.2939128875732422 11.4462137222290039 35.1977043151855469
 12.2297620773315430 10.1405420303344727 33.9193153381347656
 14.1528120040893555  9.3888063430786133 37.5968513488769531
 15.4675846099853516  6.0078730583190918 31.9322490692138707
  0.7961921691894522  3.6668264865875244 35.4036407470703125
  0.9041328430175797 12.8089618682861328 35.2837066650390696
  9.8860197067260742  3.7243335247039795 35.3454933166503906
  9.8127889633178711 12.8066587448120117 35.4032096862792969
  8.2425422668457031  5.3150448799133301 35.3444557189941406
  8.1728906631469727 14.3392601013183594 35.3431282043457031
 17.1535701751708984  5.2557382583618155 35.4044036865234375
 17.2614936828613281 14.3978548049926740 35.2835693359375000
  3.7760908603668213  8.2457580566406250 35.4515113830566406
  3.6523248413577676 17.3252373337745667 35.3434143066406250
 12.7904657581821084 17.2772029638290405 35.3434143066406250
  5.3011565208435059  0.8098429441452026 35.3437271118164062
  5.3214044570922843  9.8888711929321289 35.3560752868652344
 14.3435506820678711  0.8575996160507201 35.3437271118164062
  0.8445953130722046  3.6595628261566162 41.1679801940917969
  0.8040827512741088 12.6386384963989258 41.1758613586425781
  9.9373626708984375  3.7073919773101802 41.1756019592285156
  9.8346891403198242 12.6875152587890625 41.0666160583496094
  3.7060186862945557  8.1220283508300781 41.1149864196777344
  3.6002594688907266 17.2567515373229980 41.1149902343750000
 12.7455348968505859  8.1854524612426758 41.2228202819824219
 12.7443489292636496 17.2141910791397130 41.1666793823242188
  8.2337789535522461  5.3154001235961914 41.1158142089843750
  8.2281332015991211 14.3348579406738281 41.1043510437011719
 17.2030475139617920  5.2658147811889648 41.0687522888183594
 17.2589432001113927 14.3441696166992188 41.1759567260742188
  5.3726983070373535  0.8576382398605347 41.1149864196777344
  5.3123955726623535  9.8269634246826172 41.1149902343750000
 14.3526639938354492  0.8562356233596802 41.0673332214355469
 14.3507843017578125  9.8303537368774396 41.1252746582031250
  0.8273094892501831  3.6869695186614990 47.0359649658203125
  0.8248501420021057 12.7183685302734375 47.0359649658203125
  9.8577098846435547  3.6869695186614990 47.0359649658203125
  9.8552503585815412 12.7183685302734375 47.0359649658203125
  3.6843190193176270  8.2023353576660156 47.0346527099609375
  3.6818594932556152 17.2337341308593750 47.0346527099609375
 12.7147188186645508  8.2023353576660156 47.0346527099609375
 12.7122592926025391 17.2337341308593750 47.0346527099609375
  8.2006769180297852  5.3445744514465332 47.0360260009765696
  8.1982173919677734 14.3759746551513672 47.0360260009765696
 17.2310771942138672  5.3445744514465332 47.0360260009765696
 17.2286186218261719 14.3759746551513672 47.0360260009765696
  5.3436489105224600  0.8290914893150328 47.0346527099609375
  5.3411893844604483  9.8604917526245117 47.0346527099609375
 14.3740482330322266  0.8290914893150328 47.0346527099609375
 14.3715896606445312  9.8604917526245117 47.0346527099609375
 14.4518861770629883  9.8434152603149414 35.2365913391113281
  8.9654821613803506 18.0027994588017464 34.5471000671386719
  8.9679412841796875  8.9714002609252930 34.5471000671386719
 17.9958819122985005 18.0027994550764561 34.5471000671386719
  0.0575406774878502  9.0913991928100586 34.5471000671386719
  4.5739893913269043  4.4556994438171387 34.5482254028320384
  4.4515290260314941 13.4870996475219727 34.4282302856445312
 13.4843893051147443  4.4556994438171387 34.5482254028320384
 13.4819307327270508 13.6070985794067383 34.4282302856445312
  0.0550813050940633 18.0027994550764561 40.9203224182128906
 17.9983412325382268  9.0913991928100586 40.8003273010253906
  8.9654821613803506 18.0027994588017464 40.9203224182128906
  9.0879402160644531  9.0913991928100586 40.9203224182128906
  4.4539699554443359  4.5757002830505371 40.9211387634277344
  4.4515109062194824 13.4870996475219727 40.9211387634277344
 13.4843711853027344  4.4556994438171387 40.9211387634277344
 13.4819116592407227 13.6070985794067383 40.8011436462402344
  2.6450405120849605  1.8701816797256470 37.8960342407226562
  2.5225813388824463 10.9015817642211914 37.8960342407226562
 11.5554418563842773  1.8701816797256470 37.8960342407226562
 11.5529823303222656 11.0215806961059570 38.0160293579101634
  6.3828907012939453  7.0412354469299316 37.8960342407226562
  6.3804316520690918 16.0726337432861328 37.8960342407226562
 15.5332908630371094  7.0412354469299316 38.0160293579101634
 15.4108324050903303 16.0726337432861328 37.8960342407226562
  1.8688538074493406  6.5066132545471191 37.8982200622558594
  1.9863944053649902 15.4180126190185547 37.8982200622558594
 11.0192527770996094  6.5066132545471191 37.8982200622558594
 11.0167932510375977 15.4180126190185547 37.8982200622558594
  7.0390868186950675  2.5248048305511475 37.8982200622558594
  7.0366272926330566 11.6762027740478516 37.8982200622558594
 16.1894893646240234  2.5248048305511475 37.8982200622558594
 16.1870307922363281 11.6762027740478516 38.0182151794433665
  0.0000000000000000  0.0000000000000000 47.1735610961914062
 -0.0024593239650130  9.0313997268676740 47.1735610961914062
  9.0304002761840803  0.0000000000000000 47.1735610961914062
  9.0279407501220685  9.0313997268676740 47.1735610961914062
  4.5139794349670410  4.5156998634338379 47.1742515563964844
  4.5115203857421875 13.5470991134643537 47.1742515563964844
 13.5443792343139648  4.5156998634338379 47.1742515563964844
 13.5419197082519531 13.5470991134643537 47.1742515563964844
  2.4519233703613277  2.0629522800445557 44.0401268005371165
  2.4494640827178955 11.0943517684936523 44.0401268005371165
 11.4823226928710920  2.0629522800445557 44.0401268005371165
 11.4798641204833984 11.0943517684936523 44.0401268005371165
  6.5760178565979004  6.9684472084045410 44.0401268005371165
  6.5735583305358887 15.9998464584350586 44.0401268005371165
 15.6064186096191406  6.9684472084045410 44.0401268005371165
 15.6039590835571289 15.9998464584350586 44.0401268005371165
  2.0610768795013428  6.5788145065307617 44.0400009155273509
  2.0586175918579102 15.6102142333984375 44.0400009155273509
 11.0914773941040039  6.5788145065307617 44.0400009155273509
 11.0890178680419922 15.6102142333984375 44.0400009155273509
  6.9668641090393066  2.4525938034057613 44.0400657653808665
  6.9644045829772949 11.4839935302734375 44.0400657653808665
 15.9972639083862305  2.4525938034057613 44.0400657653808665
 15.9948053359985352 11.4839935302734375 44.0400657653808665
  2.4316265583038330  2.0832188129425049 50.0684852600097656
  2.4291670322418213 11.1146183013915998 50.0684852600097656
 11.4620265960693359  2.0832188129425049 50.0684852600097656
 11.4595670700073224 11.1146183013915998 50.0684852600097656
  6.5963144302368164  6.9481806755065918 50.0684852600097656
  6.5938549041748047 15.9795799255371076 50.0684852600097656
 15.6267137527465803  6.9481806755065918 50.0684852600097656
 15.6242542266845703 15.9795799255371076 50.0684852600097656
  2.0811281204223633  6.5990090370178223 50.0690460205078125
  2.0786688327789307 15.6304082870483398 50.0690460205078125
 11.1115283966064453  6.5990090370178223 50.0690460205078125
 11.1090688705444336 15.6304082870483398 50.0690460205078125
  6.9468131065368652  2.4323906898498531 50.0690460205078125
  6.9443535804748535 11.4637899398803711 50.0690460205078125
 15.9772129058837891  2.4323906898498531 50.0690460205078125
 15.9747543334960938 11.4637899398803711 50.0690460205078125
 18.0008095800876617  0.0600180663168430 37.6904067993164062
  0.0575497001409531  8.9714183807373047 37.6904067993164062
  9.0904083251953125  0.0600180551409721 37.6904067993164062
  9.0879487991333008  8.9714183807373047 37.5704116821289134
  4.5739707946777344  4.4556899070739746 37.6909065246582102
  4.5715117454528809 13.6070899963378906 37.6909065246582102
 13.4843711853027344  4.5756907463073730 37.6909065246582102
 13.4819116592407209 13.6070899963378906 37.6909065246582102
  0.0000090280000222  0.0000090310004452 44.0429992675781250
 -0.0024502959568053  9.0314083099365234 44.0429992675781250
  9.0304088592529297  0.0000090310004452 44.0429992675781250
  9.0279493331909180  9.0314083099365234 44.0429992675781250
  4.5139703750610352  4.5156903266906738 44.0427513122558594
  4.5115113258361816 13.5470905303955078 44.0427513122558594
 13.5443706512451172  4.5156903266906738 44.0427513122558594
 13.5419111251831037 13.5470905303955078 44.0427513122558594
  0.0000000000000000  0.0000000000000000 50.4472808837890696
 -0.0024593239650130  9.0313997268676740 50.4472808837890696
  9.0304002761840803  0.0000000000000000 50.4472808837890696
  9.0279407501220685  9.0313997268676740 50.4472808837890696
  4.5139703750610352  4.5156998634338379 50.4472808837890696
  4.5115113258361816 13.5470991134643537 50.4472808837890696
 13.5443706512451172  4.5156998634338379 50.4472808837890696
 13.5419111251831055 13.5470991134643537 50.4472808837890696
