 H  C  N  I Pb 
 1.0000000000000000
    18.0608005523681641    0.0000000000000000    0.0000000000000000
    -0.0049186488613486   18.0627994537353516    0.0000000000000000
     0.0000000000000000    0.0000000000000000   62.4874992370605469
 H   C   N   I   Pb 
 143  39  47  72  24
Cartesian
  8.0871725082397461  6.0063772201538077 35.3513488769531250
  7.6696987152099600 15.0168485641479492 35.5203170776367188
 17.3442306518554688  5.8762221336364746 36.0548400878906250
 17.0940246582031250 14.7189989089965820 35.8378067016601634
  5.8715996006503701 17.2021326422691381 35.8642044067382812
  6.3432426452636710  9.9690237045288086 35.1000061035156250
 14.5518999099731445  1.5528937578201294 35.5575294494628906
  0.2269992828369136  2.5535173416137695 35.0079994201660156
  1.2111492156982426 11.8555965423583967 35.5536651611328125
 10.0701484680175781  3.0337367057800293 34.7415885925293040
  8.9665765762329102 11.6760807037353498 35.0898971557617188
  6.5693778991699219  0.3862698078155517 34.8740997314453125
  5.3308448791503906 11.3555746078491193 34.6607551574707031
 15.8097562789916992  0.4243819117546082 35.0437278747558594
 17.3230381011962891  3.4023957252502437 36.1570549011230469
 17.8953838348388672 12.4654245376586896 36.4480171203613281
 10.1838693618774396  4.6358981132507324 35.4458656311035156
  7.7757062911987305 12.5635519027709943 35.9636268615722656
  5.0814437866210929  7.8873696327209473 35.7610626220703125
  3.4509767750278115 16.7836236953735352 35.6668701171875071
 12.2401838302612287  0.6176877021789551 35.6189880371093750
  6.6806077957153320  5.2030782699584961 34.6509513854980469
  8.9135990142822266 15.6975278854370099 34.5106086730957031
  0.3226890563964828  6.6456131935119629 34.8672218322753906
 17.9962120056152344 15.5993604660034180 34.6392097473144531
  3.3967821598052979  7.8879103660583496 35.3647232055664062
  2.5136427143588662 17.9141695499420166 34.7588806152343750
 12.0622514942660928 17.0276230573654175 35.0909194946289062
  7.8625707626342773  3.2888052463531494 34.1427040100097656
  9.9072437286376953 13.6006202697753906 34.1228981018066477
  1.0942726135253904  4.5402579307556152 34.0636901855468750
  1.4828872680664087 13.8221511840820295 34.3447914123535156
  3.3851442337036133 10.0767230987548828 34.6473846435546946
  4.4206809997558594  1.0930733680725098 34.1165313720703125
 14.3041815022006631 16.7593563795089722 34.6811218261718750
  8.7641134262084961  6.1166701316833496 41.5131072998046875
  8.0902967453002930 14.6626472473144531 42.0976448059082031
 17.4553198814392090  5.0928654670715332 42.3288307189941406
 16.7397491931915283 13.0925989151000977 42.0641098022460938
  5.5767703056335440  0.9721261262893677 41.9364662170410227
  5.3970918655395499  9.9283618927001953 42.1807632446289134
 14.4566078186035156  1.0341477394104004 42.1569595336914134
 13.6025161743164062 10.8071336746215820 41.2257156372070312
  1.5270203351974487  2.9270105361938477 40.2928314208984375
  2.0245480537414551 12.9777812957763672 40.6302795410156250
 10.4231710433959961  3.0127873420715328 40.5839309692382812
 10.1615390777587891 11.9845743179321289 40.6721725463867188
  3.2489008903503418  7.4638433456420898 40.5264053344726562
  3.1653558472171426 16.6502035856246948 40.5345115661621165
 12.7700309753417969  7.2557730674743652 41.3462142944335938
 12.1638540485873818 16.7046074867248535 40.5963592529296875
  1.1354655027389526  3.2229235172271729 41.9754486083984446
  1.0352631807327271 12.1887102127075195 41.8133659362792969
 10.7729959487915039  4.6063518524169922 41.1924896240234375
  9.5757827758789062 12.5647897720336914 42.2170028686523438
  3.6065757274627686  8.0461397171020508 42.1204872131347656
  3.7293605068698525 17.1924413442611694 42.0773200988769531
 12.0776090621948242  8.8302192687988281 41.6510543823242188
 12.5525211552157980 17.3651893138885498 42.1655998229980540
  7.2059946060180664  5.3938107490539551 41.1765098571777344
  7.8367066383361816 15.2636032104492170 40.4848213195800781
 16.9254549741744995  5.8910741806030273 40.8676605224609446
 16.2960411310195923 14.3806667327880859 40.9703941345214844
  6.0113420486450195  1.4195901155471800 40.3146896362304688
  5.9891810417175284 10.3946628570556623 40.6107482910156250
 15.1212615966796857  1.3751281499862671 40.5920791625976562
 15.1638345718383771 10.4184112548828125 40.5898170471191406
  0.1609543263912201  4.5848746299743652 39.4856719970703125
  0.3535247147083282 14.4406232833862305 39.9630775451660156
  8.1207780838012695  3.3805458545684814 40.4951019287109446
  9.1248445510864258 13.6202144622802734 39.4669418334961009
  4.5308288792148232 18.0294654518365860 39.3202209472656321
  4.7058668136596680  8.8773527145385742 39.4655342102050781
 13.7541364887729287 17.9326977133750916 39.4931640625000000
 14.7776699066162109  8.1162767410278320 40.5697364807128906
  8.1032123565673828  5.4420318603515616 48.0459518432617259
  8.1007528305053711 14.4734306335449219 48.0459518432617259
 17.1336116790771484  5.4420318603515616 48.0459518432617259
 17.1311531066894531 14.4734306335449219 48.0459518432617259
  5.4410333633422852  0.9265221953392029 48.0449485778808594
  5.4385743141174316  9.9579219818115234 48.0449485778808594
 14.4714326858520490  0.9265221953392029 48.0449485778808594
 14.4689741134643555  9.9579219818115234 48.0449485778808594
  1.4218254089355467  3.0919990539550781 46.4558296203613281
  1.4193661212921143 12.1233978271484375 46.4558296203613281
 10.4522256851196289  3.0919990539550781 46.4558296203613281
 10.4497661590576172 12.1233978271484375 46.4558296203613281
  3.0899283885955806  7.6075901985168457 46.4545211791992188
  3.0874691009521484 16.6389904022216797 46.4545211791992188
 12.1203289031982422  7.6075901985168457 46.4545211791992188
 12.1178693771362305 16.6389904022216797 46.4545211791992188
  0.9247469902038573  3.5893490314483643 48.0459518432617259
  0.9222877025604248 12.6207475662231445 48.0459518432617259
  9.9551477432250977  3.5893490314483643 48.0459518432617259
  9.9526882171630859 12.6207475662231445 48.0459518432617259
  3.5868983268737793  8.1048498153686523 48.0448913574218821
  3.5844390392303462 17.1362495422363281 48.0448913574218821
 12.6172990798950195  8.1048498153686523 48.0448913574218821
 12.6148395538330078 17.1362495422363281 48.0448913574218821
  7.6061611175537109  5.9393639564514160 46.4558296203613281
  7.6037015914916992 14.9707632064819336 46.4558296203613281
 16.6365604400634766  5.9393639564514160 46.4558296203613281
 16.6341018676757812 14.9707632064819336 46.4558296203613281
  5.9380125999450684  1.4238001108169553 46.4545211791992188
  5.9355530738830566 10.4551992416381836 46.4545211791992188
 14.9684123992919904  1.4238001108169553 46.4545211791992188
 14.9659538269042951 10.4551992416381836 46.4545211791992188
 -0.0011664569610730  4.5157265663146973 45.3548011779785156
 -0.0036257810425013 13.5471258163452148 45.3548011779785156
  9.0292339324951172  4.5157265663146973 45.3548011779785156
  9.0267744064331037 13.5471258163452148 45.3548011779785156
  4.5152091979980469  0.0000000000000000 45.3536758422851562
  4.5127501487731934  9.0313997268676740 45.3536758422851562
 13.5456094741821289  0.0000000000000000 45.3536758422851562
 13.5431499481201172  9.0313997268676740 45.3536758422851562
 14.0192108154296875 10.0573635101318359 32.4601287841796875
 13.0182743072509766  8.6356973648071289 32.8226127624511719
 15.6983308792114240  9.0531740188598633 33.7338600158691477
 15.4868059158325178  8.6912479400634766 35.4548225402832031
 13.4278736114501953 11.5947637557983381 35.0005111694335938
 14.6077404022216797 10.7609586715698224 36.0350685119628906
 12.0245990753173828  9.9115257263183594 35.5788230895996165
 12.2569026947021484  8.2384061813354492 35.0276184082031250
 11.1352090835571271 10.0628499984741193 33.5553970336914062
 12.1420602798461896 11.5038394927978516 33.4483222961425781
 10.9428653717041016 11.6650114059448242 31.4859828948974645
 12.4028358459472656 10.8686161041259766 30.9086494445800817
 14.1784629821777344  7.0794882774353027 33.1495933532714915
 14.0698919296264648  6.6757578849792480 34.8875999450683594
 15.6368103027343750  6.6536788940429688 34.0573196411132812
 15.5830764770507812 12.5517244338989258 34.6413345336914062
 15.2437267303466797 11.6929435729980469 33.1531791687011719
 16.3974990844726562 11.0135822296142578 34.3493766784667969
 13.8066720962524396  9.5576286315917969 37.3642578125000000
 13.9452943801879883  7.8579564094543457 36.8393249511718750
 12.4311895370483398  8.4514913558959961 37.5056076049804688
  9.6794347763061523  9.5820636749267578 31.4683074951171875
 10.4185867309570295  9.9000043869018555 29.8996829986572266
 12.5956459045410156  8.6421966552734375 29.3152961730957067
 10.0926141738891602  7.4980669021606445 32.6136131286621094
 13.7808046340942365  6.4731049537658691 29.4585037231445312
 11.2816238403320312  5.3312277793884277 32.7810630798339844
 13.1509351730346680  4.8154525756835938 31.2189254760742188
  0.3477840423583999  4.5964188575744629 34.8598060607910156
  0.6356239318847672 13.7250223159790039 35.0350265502929759
  8.3905696868896484  4.1233043670654297 34.6148033142089844
  8.9952220916748047 13.6721105575561506 34.7216758728027344
  4.3328456878662109  9.6162862777709961 34.9371833801269602
  4.5303688049316397  0.2080841660499573 34.7498741149902344
 13.9436315754428506 17.7292255759239197 35.0289573669433594
  0.1969432979822159  4.4065260887145996 40.5563926696777344
  0.1436235904693604 13.7166242599487305 40.7496566772460938
  8.7856492996215820  4.1825857162475586 40.8315887451171946
  9.0052518844604492 13.6207733154296857 40.5634956359863281
  4.6202464103698730  8.9223766326904297 40.5502548217773438
  4.5862951278686523  0.0005071824416518 40.4066047668457031
 14.0047101974487305  8.7943191528320312 40.9316024780273509
 13.6470054844394326 18.0587152428925037 40.5692596435546875
  9.0289716720581055  4.5156092643737793 46.4455223083496165
  9.0265130996704102 13.5470085144042969 46.4455223083496165
 18.0593719482421875  4.5156092643737793 46.4455223083496165
 18.0569133758544922 13.5470085144042969 46.4455223083496165
  4.5152091979980469  0.0000180629995157 46.4442062377929759
  4.5127501487731934  9.0314178466796857 46.4442062377929759
 13.5456094741821289  0.0000180629995157 46.4442062377929759
 13.5431499481201172  9.0314178466796857 46.4442062377929759
 11.2769145965576172  8.2339754104614258 30.9608230590820312
 12.3139934539794922  7.9242472648620605 30.0717277526855469
 10.9082689285278320  7.2769846916198730 31.9204902648925817
 12.9816017150878906  6.6952052116394043 30.1598243713378906
 11.5712404251098615  6.0535578727722168 32.0147476196289062
 12.6192808151245117  5.7617931365966788 31.1371746063232457
 13.2221431732177717  9.6695070266723633 33.1201553344726634
 15.0027332305908185  8.6313743591308594 34.4684753417968750
 14.3020048141479492 10.9256105422973633 34.9962692260742188
 12.7537117004394531  9.0921964645385742 35.5067634582519602
 11.9662199020385742 10.5250272750854492 33.0055885314941406
 11.5126371383666992 10.7179555892944336 31.5497112274169922
 14.6781187057495117  7.1898531913757324 34.1227264404296875
 15.4457559585571289 11.5480508804321289 34.2208747863769531
 13.2870340347290039  8.7250251770019531 36.8768882751464915
 10.6359367370605469  9.5991525650024414 30.9386539459228516
 17.9996719360351562  3.4597032070159912 35.3962936401367188
  0.5671501159667973 12.6248998641967773 35.7427368164062500
  9.6598978042602539  3.9553058147430420 34.8870429992675852
  8.5222835540771484 12.5774812698364258 35.2621192932128977
  7.6940975189208984  5.2162232398986816 34.8473892211914062
  8.4582834243774414 14.8571996688842773 34.8740768432617188
 17.9762859344482422  5.7753376960754386 35.2436981201171875
 17.8250484466552734 14.7067136764526367 35.1125030517578196
  4.3012566566467285  8.3435487747192383 35.2727241516113352
  3.4427558640018106 17.5988082289695740 35.0475044250488281
 12.6437467793002725 17.8421416431665421 35.2012176513671875
  5.7328457096591592 17.9527321085333824 35.1662788391113281
  5.4078216552734375 10.3664093017578125 34.8976516723632812
 14.8310928344726562  0.5985486507415771 35.2767868041992188
  0.9843759536743164  3.4625358581542969 40.9837722778320384
  1.0989671945571899 12.8858394622802717 41.0617828369140696
 10.0672206878662109  3.9277844429016113 40.8900871276855540
  9.6165847778320312 12.6551647186279297 41.2088279724121094
  3.7762897014617920  8.0976762771606445 41.1212081909179688
  3.7730447510257359 17.2598060369491577 41.0596389770507812
 12.8562479019165039  8.2723102569580078 41.3000259399414062
 12.7336906651034951 17.3296840190887451 41.1600189208984375
  8.2277669906616211  5.3204822540283203 41.1776809692382812
  8.2788619995117188 14.5751867294311523 41.0948982238769531
 17.4945505857467651  5.1749081611633301 41.3151817321777415
 17.0193055868148804 13.7573919296264648 41.3260498046875000
  5.4457621574401855  0.8399590253829955 40.9340820312500000
  5.3862552642822266  9.7964820861816406 41.1653556823730469
 14.4502458572387695  0.8555653095245360 41.1590919494628977
 14.2727155685424787 10.0765600204467773 40.9538040161132812
  0.8273094892501831  3.6869695186614990 47.0359649658203125
  0.8248501420021057 12.7183685302734375 47.0359649658203125
  9.8577098846435547  3.6869695186614990 47.0359649658203125
  9.8552503585815412 12.7183685302734375 47.0359649658203125
  3.6843190193176270  8.2023353576660156 47.0346527099609375
  3.6818594932556152 17.2337341308593750 47.0346527099609375
 12.7147188186645508  8.2023353576660156 47.0346527099609375
 12.7122592926025391 17.2337341308593750 47.0346527099609375
  8.2006769180297852  5.3445744514465332 47.0360260009765696
  8.1982173919677734 14.3759746551513672 47.0360260009765696
 17.2310771942138672  5.3445744514465332 47.0360260009765696
 17.2286186218261719 14.3759746551513672 47.0360260009765696
  5.3436489105224600  0.8290914893150328 47.0346527099609375
  5.3411893844604483  9.8604917526245117 47.0346527099609375
 14.3740482330322266  0.8290914893150328 47.0346527099609375
 14.3715896606445312  9.8604917526245117 47.0346527099609375
 13.8131246566772443  9.5768861770629865 34.5169410705566406
  9.1869602203369123  0.2954128682613372 34.4510269165039062
  8.6322317123413086  8.9998674392700195 34.6811981201171875
  0.0959795266389847  0.0806502029299736 34.3111839294433594
  0.7091230154037476  9.1300649642944336 34.5850601196289062
  4.2306737899780273  4.3844599723815918 34.4917411804199219
  4.6189579963684082 13.8027048110961914 34.5713119506835938
 13.2923889160156250  3.6451909542083740 34.6864280700683594
 12.6926040649414045 14.3137331008911133 34.6062622070312500
 18.0558261317273718 17.7678462862968445 40.8663978576660156
 18.0017716810107267  9.0654897689819336 40.9352340698242188
  9.0672178268432617  0.2520778775215149 40.8673362731933594
  9.2558193206787109  8.8295898437500000 40.9530410766601562
  4.7173562049865723  4.4381918907165527 40.8764686584472656
  4.6922135353088379 13.6034002304077131 40.8987464904785227
 13.5997171401977521  4.7497868537902832 40.8982620239257812
 13.4268341064453125 13.5696001052856445 40.9012069702148438
  2.4423763751983643  1.9961854219436646 37.9615631103515625
  2.7330560684204102 10.9008855819702148 38.0513954162597656
 11.7082033157348633  1.8934968709945679 38.1646575927734375
 11.1318902969360334 11.3780517578125000 38.1588783264160156
  6.5150632858276367  6.9427752494812012 37.8609619140625000
  6.7287650108337402 15.9227294921875000 37.9049720764160227
 16.0982723236083984  6.5896553993225098 38.1582946777343750
 15.7482900619506836 15.8023548126220703 37.8504219055175781
  2.2542626857757568  6.6526803970336914 38.0590667724609446
  2.2157831192016602 15.6454572677612305 37.9719009399414062
 10.6492567062377930  6.0667638778686523 37.5948600769042969
 11.1534070968627930 15.7527132034301758 38.2514991760253906
  6.9498286247253409  2.4109611511230464 37.7591896057128906
  6.9591021537780762 11.3806085586547852 38.1794128417968750
 16.0013599395751953  2.3854763507843018 38.2351188659667969
 16.2444419860839844 11.5834350585937482 38.2179832458496094
  0.0000000000000000  0.0000000000000000 47.1735610961914062
 -0.0024593239650130  9.0313997268676740 47.1735610961914062
  9.0304002761840803  0.0000000000000000 47.1735610961914062
  9.0279407501220685  9.0313997268676740 47.1735610961914062
  4.5139794349670410  4.5156998634338379 47.1742515563964844
  4.5115203857421875 13.5470991134643537 47.1742515563964844
 13.5443792343139648  4.5156998634338379 47.1742515563964844
 13.5419197082519531 13.5470991134643537 47.1742515563964844
  2.4519233703613277  2.0629522800445557 44.0401268005371165
  2.4494640827178955 11.0943517684936523 44.0401268005371165
 11.4823226928710920  2.0629522800445557 44.0401268005371165
 11.4798641204833984 11.0943517684936523 44.0401268005371165
  6.5760178565979004  6.9684472084045410 44.0401268005371165
  6.5735583305358887 15.9998464584350586 44.0401268005371165
 15.6064186096191406  6.9684472084045410 44.0401268005371165
 15.6039590835571289 15.9998464584350586 44.0401268005371165
  2.0610768795013428  6.5788145065307617 44.0400009155273509
  2.0586175918579102 15.6102142333984375 44.0400009155273509
 11.0914773941040039  6.5788145065307617 44.0400009155273509
 11.0890178680419922 15.6102142333984375 44.0400009155273509
  6.9668641090393066  2.4525938034057613 44.0400657653808665
  6.9644045829772949 11.4839935302734375 44.0400657653808665
 15.9972639083862305  2.4525938034057613 44.0400657653808665
 15.9948053359985352 11.4839935302734375 44.0400657653808665
  2.4316265583038330  2.0832188129425049 50.0684852600097656
  2.4291670322418213 11.1146183013915998 50.0684852600097656
 11.4620265960693359  2.0832188129425049 50.0684852600097656
 11.4595670700073224 11.1146183013915998 50.0684852600097656
  6.5963144302368164  6.9481806755065918 50.0684852600097656
  6.5938549041748047 15.9795799255371076 50.0684852600097656
 15.6267137527465803  6.9481806755065918 50.0684852600097656
 15.6242542266845703 15.9795799255371076 50.0684852600097656
  2.0811281204223633  6.5990090370178223 50.0690460205078125
  2.0786688327789307 15.6304082870483398 50.0690460205078125
 11.1115283966064453  6.5990090370178223 50.0690460205078125
 11.1090688705444336 15.6304082870483398 50.0690460205078125
  6.9468131065368652  2.4323906898498531 50.0690460205078125
  6.9443535804748535 11.4637899398803711 50.0690460205078125
 15.9772129058837891  2.4323906898498531 50.0690460205078125
 15.9747543334960938 11.4637899398803711 50.0690460205078125
 18.0443208394572139 18.0192976631224155 37.8267898559570312
  0.1336138695478439  9.0513715744018555 37.8122177124023438
  9.0826559066772461  0.1466839611530304 37.6953887939453125
  8.9857177734375000  8.8933429718017578 37.8000068664550781
  4.4517130851745605  4.4385995864868164 37.6461753845214844
  4.5231323242187500 13.4513292312622070 37.7295494079589844
 13.4087409973144531  4.4344620704650879 37.6703529357910156
 13.3260021209716797 13.6473531723022461 37.6910514831542969
  0.0000090280000222  0.0000090310004452 44.0429992675781250
 -0.0024502959568053  9.0314083099365234 44.0429992675781250
  9.0304088592529297  0.0000090310004452 44.0429992675781250
  9.0279493331909180  9.0314083099365234 44.0429992675781250
  4.5139703750610352  4.5156903266906738 44.0427513122558594
  4.5115113258361816 13.5470905303955078 44.0427513122558594
 13.5443706512451172  4.5156903266906738 44.0427513122558594
 13.5419111251831037 13.5470905303955078 44.0427513122558594
  0.0000000000000000  0.0000000000000000 50.4472808837890696
 -0.0024593239650130  9.0313997268676740 50.4472808837890696
  9.0304002761840803  0.0000000000000000 50.4472808837890696
  9.0279407501220685  9.0313997268676740 50.4472808837890696
  4.5139703750610352  4.5156998634338379 50.4472808837890696
  4.5115113258361816 13.5470991134643537 50.4472808837890696
 13.5443706512451172  4.5156998634338379 50.4472808837890696
 13.5419111251831055 13.5470991134643537 50.4472808837890696
