PerovskiteSurface_12951678_1            
    1.000000000000000     
    18.0608005523999999    0.0000000000000000    0.0000000000000000
    -0.0049186487000000   18.0627987840000017    0.0000000000000000
     0.0000000000000000    0.0000000000000000   62.4874992371000033
   H    C    N    I    Pb
   143    39    47    72    24
Selective dynamics
Direct
  0.4324747567662025  0.3183564368405231  0.5731222888945632   T   T   T
  0.4275762482244491  0.7144950533854005  0.5726741453203587   T   T   T
  0.9216466464834689  0.3022091041620178  0.5738940238392527   T   T   T
  0.9093929800051826  0.7687273764788635  0.5651270703861943   T   T   T
  0.2977980989648642  0.0856286603785899  0.5550774910882074   T   T   T
  0.1939335264708958  0.5637071175079592  0.5646935328790218   T   T   T
  0.6848861921304187  0.0626763862255722  0.5758692351587532   T   T   T
  0.1002659242120791  0.2236348052965076  0.5589667205966302   T   T   T
  0.1017296135732708  0.7080514072550088  0.5583786428957740   T   T   T
  0.5154291780120903  0.1408188790620354  0.5595290739636941   T   T   T
  0.6165817151040693  0.7116334483771782  0.5524128677074833   T   T   T
  0.3648149650563655  0.0151312363458104  0.5528596823936288   T   T   T
  0.2871457782997398  0.5770895974083505  0.5708492849176132   T   T   T
  0.7480614978170937  0.1071379996251565  0.5594116346882063   T   T   T
  0.0604196500956809  0.2937028155762432  0.5740937211750471   T   T   T
  0.0139940222203431  0.6711751999929255  0.5645537930649234   T   T   T
  0.4440023280027686  0.1800741340194149  0.5742613547052761   T   T   T
  0.5416184428880509  0.6522045772438643  0.5580340730627270   T   T   T
  0.1572247391184120  0.4389807670822861  0.5528783133279435   T   T   T
  0.1736860647859956  0.0469194212252131  0.5688855736929941   T   T   T
  0.6791443013741780  0.9249365378122033  0.5736844814626786   T   T   T
  0.4971133583982984  0.3660146961263112  0.5579472180750165   T   T   T
  0.4297346405881011  0.8103798587425662  0.5737561574999029   T   T   T
  0.8745594461680963  0.2363102222509290  0.5590070305851491   T   T   T
  0.9394577443649743  0.8595440927680120  0.5598672531341653   T   T   T
  0.2272125188976876  0.3706431736540070  0.5523012880292250   T   T   T
  0.1618977541814916  0.9528213822288035  0.5736018024326849   T   T   T
  0.7412478847467714  0.8810987215937439  0.5565605399823983   T   T   T
  0.5596268774519119  0.2566578454555908  0.5478419678405082   T   T   T
  0.5483089973354707  0.8182259427548717  0.5595506549821546   T   T   T
 -0.0157467846695306  0.1767150219439468  0.5480016123801080   T   T   T
  0.0603742900336638  0.8262088755781125  0.5545065212522955   T   T   T
  0.3191552151905588  0.4565219317643696  0.5621406201996719   T   T   T
  0.2797852828244820 -0.0776892699978145  0.5621686382919617   T   T   T
  0.7954439474002624 -0.0054829046879124  0.5459669205536013   T   T   T
  0.4383228149641804  0.3108570243512975  0.6703392078332693   T   T   T
  0.4472219296528679  0.8010209642000802  0.6715402086211406   T   T   T
  0.9403501643490244  0.3133685354896463  0.6695347883240879   T   T   T
  0.9472966965923608  0.8101917577337457  0.6711666691662062   T   T   T
  0.2960240683659113  0.0328182418787661  0.6746682538485707   T   T   T
  0.2950132477191254  0.5564677720881236  0.6726740030872406   T   T   T
  0.7976682862426527  0.0523486148769204  0.6730529067843605   T   T   T
  0.7952135521101105  0.5448345046773730  0.6729987968659137   T   T   T
  0.0694091223596518  0.1700439012127033  0.6509989024850855   T   T   T
  0.0738194929989041  0.6718734421008651  0.6482656173969008   T   T   T
  0.5694600566563391  0.1695086933130681  0.6516861020921041   T   T   T
  0.5815658792175916  0.6726241649647487  0.6475771202068933   T   T   T
  0.1719925183802890  0.4190341225545783  0.6477958694356455   T   T   T
  0.1578126803069868  0.9294587611782790  0.6437359327544221   T   T   T
  0.6602771790723772  0.4277546433950272  0.6449544543364281   T   T   T
  0.6727789541998761  0.9187393533441566  0.6471843399389641   T   T   T
  0.0398807022552708  0.2112038186641087  0.6746217757838570   T   T   T
  0.0477644768643210  0.7070543041127042  0.6730762271143351   T   T   T
  0.5359953447420034  0.2069454432927999  0.6754115129218448   T   T   T
  0.5550370275323450  0.7052908786256930  0.6726720525135632   T   T   T
  0.1984813565168246  0.4492695123388512  0.6730541368391937   T   T   T
  0.1878656801516239  0.9399362254357980  0.6700567191970754   T   T   T
  0.6871130622924657  0.4503491020414816  0.6709588146332509   T   T   T
  0.7010269978905719  0.9450943170107672  0.6726798482357855   T   T   T
  0.4182963593020550  0.3308980059680052  0.6436824247422347   T   T   T
  0.4137778158030718  0.8191844648551355  0.6460099183609016   T   T   T
  0.9165386622374212  0.3298381671322239  0.6429445396489646   T   T   T
  0.9190274277189144  0.8317827620214630  0.6452498625429457   T   T   T
  0.3262082291088791  0.0734747056094879  0.6510520551314957   T   T   T
  0.3197295318037374  0.5858647442621002  0.6471751019816734   T   T   T
  0.8201541738155647  0.0856692767591020  0.6476813510496711   T   T   T
  0.8300578069239736  0.5721152499879449  0.6484542208943326   T   T   T
 -0.0047166243864652  0.2412293802360036  0.6293326299007974   T   T   T
  0.9953724205443963  0.7466897325772976  0.6290803545793079   T   T   T
  0.4988744999963555  0.2441456309610617  0.6300041279636216   T   T   T
  0.4953957595661145  0.7402070000455292  0.6291291366853055   T   T   T
  0.2417509944338940  0.0125491557288683  0.6297946225504291   T   T   T
  0.2456121247906953  0.5021235663004066  0.6296703435325653   T   T   T
  0.7446109413620471  0.0050741326640675  0.6297708152327826   T   T   T
  0.7470789369382019  0.5018324754864582  0.6288048703804540   T   T   T
  0.4487450123026875  0.3012839853932547  0.7688890099553589   F   F   F
  0.4487450122585699  0.8012839555529183  0.7688890099553589   F   F   F
  0.9487449526597018  0.3012839853932547  0.7688890099553589   F   F   F
  0.9487450123028651  0.8012839555529183  0.7688890099553589   F   F   F
  0.3012759983606372  0.0512944981605372  0.7688729763004289   F   F   F
  0.3012759983266733  0.5512945055790937  0.7688729763004289   F   F   F
  0.8012759685612991  0.0512944981605372  0.7688729763004289   F   F   F
  0.8012759685273281  0.5512945055790937  0.7688729763004289   F   F   F
  0.0787710025712300  0.1711805015919765  0.7434419989625454   F   F   F
  0.0787710025865564  0.6711804866994839  0.7434419989625454   F   F   F
  0.5787709951407791  0.1711805015919765  0.7434419989625454   F   F   F
  0.5787709951560984  0.6711804866994839  0.7434419989625454   F   F   F
  0.1711995005657982  0.4211744964317958  0.7434210181261207   F   F   F
  0.1711995005379165  0.9211745262167668  0.7434210181261207   F   F   F
  0.6711995005547209  0.4211744964317958  0.7434210181261207   F   F   F
  0.6711995005822118  0.9211745262167668  0.7434210181261207   F   F   F
  0.0512560010060099  0.1987150013639862  0.7688890099553589   F   F   F
  0.0512560010172578  0.6987149715236498  0.7688890099553589   F   F   F
  0.5512560009949325  0.1987150013639862  0.7688890099553589   F   F   F
  0.5512560010061875  0.6987149715236498  0.7688890099553589   F   F   F
  0.1987234949972319  0.4487039745014059  0.7688720226216859   F   F   F
  0.1987234950247228  0.9487040042863839  0.7688720226216859   F   F   F
  0.6987234949861616  0.4487039745014059  0.7688720226216859   F   F   F
  0.6987234950136525  0.9487040042863839  0.7688720226216859   F   F   F
  0.4212315082396927  0.3288174867596396  0.7434419989625454   F   F   F
  0.4212315082590763  0.8288174867596396  0.7434419989625454   F   F   F
  0.9212314486520796  0.3288174867596396  0.7434419989625454   F   F   F
  0.9212315082479989  0.8288174867596396  0.7434419989625454   F   F   F
  0.3288004994152729  0.0788249969468282  0.7434210181261207   F   F   F
  0.3288004994346494  0.5788249969468282  0.7434210181261207   F   F   F
  0.8288004994595681  0.0788249969468282  0.7434210181261207   F   F   F
  0.8288004994235791  0.5788249969468282  0.7434210181261207   F   F   F
  0.0000034999835279  0.2500014901345224  0.7258219718940495   F   F   F
  0.0000035000029044  0.7500014901345224  0.7258219718940495   F   F   F
  0.5000035166937522  0.2500014901345224  0.7258219718940495   F   F   F
  0.5000035166577632  0.7500014901345224  0.7258219718940495   F   F   F
  0.2500005066165230  0.0000000000000000  0.7258039712857141   F   F   F
  0.2500005066359066  0.5000000000000000  0.7258039712857141   F   F   F
  0.7500004768171777  0.0000000000000000  0.7258039712857141   F   F   F
  0.7500004768365613  0.5000000000000000  0.7258039712857141   F   F   F
  0.7342653207814654  0.5112910651792705  0.4886334924512958   T   T   T
  0.8014417378000485  0.5749800408674213  0.4796486478932411   T   T   T
  0.8754109208090426  0.5323438819803955  0.5304130748964943   T   T   T
  0.8309555735825004  0.5981813809425732  0.5137160926983322   T   T   T
  0.9554980611570973  0.4880012772645094  0.5081573079399226   T   T   T
  0.9340056087812668  0.4538462538983042  0.4822201325299184   T   T   T
  0.7674511331426354  0.4082545609883316  0.5095513926352300   T   T   T
  0.8348331148472824  0.3798671504287404  0.4906221277093017   T   T   T
  0.8563878250289116  0.4705942670362406  0.4564584254735506   T   T   T
  0.7788133345053212  0.4157701145951739  0.4631993578190850   T   T   T
  0.7636575586271980  0.5688736545414044  0.4424991221610447   T   T   T
  0.7772132696412968  0.4873530289944608  0.4275372021112660   T   T   T
  0.7536548094607614  0.4742144724406018  0.5394881385731002   T   T   T
  0.7511813074737068  0.5712342161536222  0.5434846370348819   T   T   T
  0.7066860289344522  0.5331103086624148  0.5209058857989740   T   T   T
  0.9185265190633787  0.5847024987035152  0.4687129153603579   T   T   T
  0.9338017756109520  0.6193522905955046  0.4950970168332271   T   T   T
  0.0052089318382304  0.5721696801073405  0.4815654050475124   T   T   T
  0.8699593243230536  0.4104600255241138  0.5382467428351189   T   T   T
  0.8513787201589087  0.3235098927382284  0.5266980970638139   T   T   T
  0.9320527610297860  0.3735174519949579  0.5189596294110667   T   T   T
  0.6466077642550897  0.5158671291381897  0.4278448313404321   T   T   T
  0.6617089566155667  0.4323593287357395  0.4418604537913182   T   T   T
  0.6436291933821061  0.6375358738296282  0.4524745721412518   T   T   T
  0.6071116620368355  0.4158746584634249  0.4756909256439142   T   T   T
  0.5848441422508642  0.6882161391903610  0.4851704335359265   T   T   T
  0.5482943600283637  0.4675478243380439  0.5087000338722063   T   T   T
  0.5374402631085582  0.6026174222565173  0.5134977615420395   T   T   T
 -0.0127595119339179  0.2268629068805581  0.5578013112160751   T   T   T
  0.0200807726714321  0.7831546711545573  0.5583750679828673   T   T   T
  0.5094197207420424  0.2535249967545101  0.5576094342401497   T   T   T
  0.5224839260426768  0.7638313885530408  0.5613774516496445   T   T   T
  0.2616238773179985  0.4741079340407747  0.5603365830533041   T   T   T
  0.2622457442686368 -0.0197850166286752  0.5615881693236353   T   T   T
  0.7488089917787611 -0.0058336304306113  0.5571284745695405   T   T   T
 -0.0067219258731092  0.2500505719687374  0.6466032140756808   T   T   T
 -0.0036137292007081  0.7517316106619848  0.6464934682208269   T   T   T
  0.4939592370086822  0.2501507662802465  0.6473287607055097   T   T   T
  0.4977249994108206  0.7456765746780668  0.6465152094269337   T   T   T
  0.2460744507414370  0.5023700866021406  0.6471414227259765   T   T   T
  0.2418874149417163  0.0018009576746019  0.6469886225916986   T   T   T
  0.7447625476051266  0.5002332097268739  0.6462541198021643   T   T   T
  0.7464076685034230  0.0024298343395652  0.6472077646762930   T   T   T
  0.4999889731548066  0.2499949931900858  0.7432770133073987   F   F   F
  0.4999890327507259  0.7499949931900858  0.7432770133073987   F   F   F
  0.9999889731437364  0.2499949931900858  0.7432770133073987   F   F   F
  0.9999890327396557  0.7499949931900858  0.7432770133073987   F   F   F
  0.2500005066120252  0.0000010000111388  0.7432559728590533   F   F   F
  0.2500005066350184  0.5000010132981174  0.7432559728590533   F   F   F
  0.7500004768126800  0.0000010000111388  0.7432559728590533   F   F   F
  0.7500004768356803  0.5000010132981174  0.7432559728590533   F   F   F
  0.7904313573688383  0.5159592898925317  0.4822218296286214   T   T   T
  0.8281378435610950  0.5410395233788560  0.5196501600487031   T   T   T
  0.9232637766476850  0.4988895580465884  0.4935905587474753   T   T   T
  0.8264578657613768  0.4110035419878043  0.5054871905505307   T   T   T
  0.7978177187146664  0.4732692298262901  0.4612111619652480   T   T   T
  0.7540945108193819  0.5085439359482771  0.4426521856194818   T   T   T
  0.7555849730989317  0.5278024963428752  0.5312289345945533   T   T   T
  0.9450710126713225  0.5731683668762887  0.4841795716830919   T   T   T
  0.8734760667094924  0.3788602104455936  0.5232922722307273   T   T   T
  0.6702587386286923  0.4927015507353623  0.4426468504094365   T   T   T
  0.6299029461142216  0.5231450087427464  0.4618695259545981   T   T   T
  0.6228809132775849  0.5998278367022772  0.4647870665196921   T   T   T
  0.6021932926741161  0.4757804237016569  0.4777690845145963   T   T   T
  0.5899164623110456  0.6285194146934969  0.4832001138342223   T   T   T
  0.5692735023321470  0.5043494789196130  0.4962480362602573   T   T   T
  0.5633565545112132  0.5808574978130728  0.4990351497464650   T   T   T
  0.0530715040733001  0.2511665664561923  0.5633251347102487   T   T   T
  0.0455242676959065  0.7152432563361039  0.5599174938227827   T   T   T
  0.4872399628400392  0.1876561405769908  0.5637768216164135   T   T   T
  0.5613004898230084  0.7051445843505658  0.5560040019827270   T   T   T
  0.4758879523335350  0.3157715296345300  0.5624953290211565   T   T   T
  0.4540947325470071  0.7625828037925468  0.5685376660480583   T   T   T
  0.9246524871344264  0.2584232713591695  0.5633572250285945   T   T   T
  0.9510047876257450  0.8040257631542996  0.5607774457184902   T   T   T
  0.2124516794487547  0.4252110003279713  0.5538927082573337   T   T   T
  0.1933573194774371 -0.0057287787642850  0.5670187149439284   T   T   T
  0.7200119649530913  0.9299454655063468  0.5623453086607593   T   T   T
  0.3105390512614620  0.0301615656035643  0.5552782127984721   T   T   T
  0.2467402289073140  0.5437298383598752  0.5646460455496075   T   T   T
  0.7259288117720611  0.0580444916665267  0.5645744545719843   T   T   T
  0.0369061767705242  0.2084575812443025  0.6583516244723214   T   T   T
  0.0418639592077635  0.7077436730596626  0.6568496722831960   T   T   T
  0.5354577849607849  0.2065028740612807  0.6590974531037705   T   T   T
  0.5477145949713670  0.7058218248122721  0.6564777234043389   T   T   T
  0.2032724535586082  0.4540855286491977  0.6568318661145452   T   T   T
  0.1932106154224612  0.9542107751244217  0.6542916069712017   T   T   T
  0.6942420151562755  0.4573839167961388  0.6548660522269650   T   T   T
  0.7045288242988293  0.9524498659349018  0.6565197666954985   T   T   T
  0.4474734348122996  0.3001317663026822  0.6544903187753961   T   T   T
  0.4503148957230740  0.7912404524906727  0.6554809796489162   T   T   T
  0.9476038323435216  0.3008723872574917  0.6537163970516262   T   T   T
  0.9519296059397961  0.8008276392474142  0.6551044602969810   T   T   T
  0.2907029716402817  0.0381154351687642  0.6585071798023894   T   T   T
  0.2892992283168646  0.5509524612684039  0.6564961769544497   T   T   T
  0.7903005857113806  0.0496423425489968  0.6568807043375767   T   T   T
  0.7926075912930692  0.5413444788824022  0.6567251430017820   T   T   T
  0.0458624996011352  0.2041195035215679  0.7527260184237576   F   F   F
  0.0458624996205117  0.7041195035215679  0.7527260184237576   F   F   F
  0.5458624958803711  0.2041195035215679  0.7527260184237576   F   F   F
  0.5458624958997476  0.7041195035215679  0.7527260184237576   F   F   F
  0.2041189968698021  0.4541010260417480  0.7527049779914137   F   F   F
  0.2041189968729569  0.9541009664717990  0.7527049779914137   F   F   F
  0.7041189670704568  0.4541010260417480  0.7527049779914137   F   F   F
  0.7041189670736117  0.9541009664717990  0.7527049779914137   F   F   F
  0.4541400075181912  0.2958885133423621  0.7527269721025078   F   F   F
  0.4541400074903166  0.7958885431273401  0.7527269721025078   F   F   F
  0.9541400075071209  0.2958885133423621  0.7527269721025078   F   F   F
  0.9541400671111475  0.7958885431273401  0.7527269721025078   F   F   F
  0.2958824932447897  0.0459005012963090  0.7527049779914137   F   F   F
  0.2958824932702626  0.5459005236627235  0.7527049779914137   F   F   F
  0.7958824634454515  0.0459005012963090  0.7527049779914137   F   F   F
  0.7958824634709174  0.5459005236627235  0.7527049779914137   F   F   F
  0.8422400964628428  0.4916149004635751  0.5000729823523993   T   T   T
  0.5078459060654853 -0.0113878921584377  0.5534779149188848   T   T   T
  0.4818166406697111  0.5141130996438438  0.5534883967237288   T   T   T
 -0.0278716644127467  0.0041236004100948  0.5525010110462418   T   T   T
  0.0280446313332672  0.5065893184344493  0.5513197262533859   T   T   T
  0.2504217631953149  0.2256146088104198  0.5527054510719357   T   T   T
  0.2383834906874966  0.7557781802883655  0.5534786725846212   T   T   T
  0.7289010779223684  0.2478677632820013  0.5510915085018856   T   T   T
  0.7562781181946349  0.7421598766229552  0.5501947497678324   T   T   T
 -0.0060475713517582  0.0033195292828596  0.6544396117966440   T   T   T
 -0.0058733539100002  0.5029037763812177  0.6534966228931345   T   T   T
  0.4958922889476458 -0.0034778153426299  0.6548544308837434   T   T   T
  0.4904701415294543  0.5039362840573244  0.6547291826034771   T   T   T
  0.2445661867737126  0.2480577327121900  0.6544444046387362   T   T   T
  0.2459982706759251  0.7544752067780692  0.6547350514460225   T   T   T
  0.7444301555749285  0.2560501597003619  0.6540725902401667   T   T   T
  0.7517350867194373  0.7442556556994362  0.6536587932437584   T   T   T
  0.1179139646620112  0.1213184898240182  0.6069991068668176   T   T   T
  0.1277131708595485  0.6184114342214604  0.6082849861327276   T   T   T
  0.6196841677183350  0.1228700401395464  0.6093924612737217   T   T   T
  0.6262742942878349  0.6173020103030185  0.6071993821128697   T   T   T
  0.3592581866874846  0.3810876623389520  0.6055307835351413   T   T   T
  0.3595694599566032  0.8842914440129009  0.6067142272390654   T   T   T
  0.8616841166388108  0.3856800361913523  0.6034230183235910   T   T   T
  0.8549475767533037  0.8848884596910542  0.6080141694846446   T   T   T
  0.1131062767636225  0.3683275591463270  0.6067696615836001   T   T   T
  0.1040439734458141  0.8718783534078528  0.6052266268889042   T   T   T
  0.6059320689245306  0.3707424692711838  0.6073107387135436   T   T   T
  0.6127121547776151  0.8651113429015322  0.6076306944094910   T   T   T
  0.3733043877365709  0.1276005498257927  0.6079274656116074   T   T   T
  0.3684366519953651  0.6328581774399329  0.6052708663332893   T   T   T
  0.8666157662093915  0.1353436625732013  0.6078203614069727   T   T   T
  0.8888251532500596  0.6416053234067383  0.6008267075659853   T   T   T
  0.0000000000000000  0.0000000000000000  0.7549279928135135   F   F   F
  0.0000000000193765  0.5000000000000000  0.7549279928135135   F   F   F
  0.4999999999889297  0.0000000000000000  0.7549279928135135   F   F   F
  0.5000000000083062  0.5000000000000000  0.7549279928135135   F   F   F
  0.2500005066262148  0.2500000000000000  0.7549390196750210   F   F   F
  0.2500005066455913  0.7500000000000000  0.7549390196750210   F   F   F
  0.7500004768268695  0.2500000000000000  0.7549390196750210   F   F   F
  0.7500004768462460  0.7500000000000000  0.7549390196750210   F   F   F
  0.1357904970913637  0.1142100020970958  0.7047830224073479   F   F   F
  0.1357904970574069  0.6142100095710177  0.7047830224073479   F   F   F
  0.6357904672366530  0.1142100020970958  0.7047830224073479   F   F   F
  0.6357904672580617  0.6142100095710177  0.7047830224073479   F   F   F
  0.3642095029149104  0.3857899904289823  0.7047830224073479   F   F   F
  0.3642095029342869  0.8857899904289823  0.7047830224073479   F   F   F
  0.8642095327474735  0.3857899904289823  0.7047830224073479   F   F   F
  0.8642095327114845  0.8857899904289823  0.7047830224073479   F   F   F
  0.1142179891403217  0.3642190098927216  0.7047809958420075   F   F   F
  0.1142179891596982  0.8642190098927216  0.7047809958420075   F   F   F
  0.6142179966039976  0.3642190098927216  0.7047809958420075   F   F   F
  0.6142179965680086  0.8642190098927216  0.7047809958420075   F   F   F
  0.3857820034204806  0.1357814967840127  0.7047820091166770   F   F   F
  0.3857820033926060  0.6357815265689908  0.7047820091166770   F   F   F
  0.8857820034094104  0.1357814967840127  0.7047820091166770   F   F   F
  0.8857820033815287  0.6357815265689908  0.7047820091166770   F   F   F
  0.1346669942216394  0.1153320073988340  0.8012560009966521   F   F   F
  0.1346669941856504  0.6153320073988340  0.8012560009966521   F   F   F
  0.6346669793164352  0.1153320073988340  0.8012560009966521   F   F   F
  0.6346669793358117  0.6153320073988340  0.8012560009966521   F   F   F
  0.3653329908925258  0.3846679926011660  0.8012560009966521   F   F   F
  0.3653329908565368  0.8846679926011589  0.8012560009966521   F   F   F
  0.8653329610931877  0.3846679926011660  0.8012560009966521   F   F   F
  0.8653329610571987  0.8846679926011589  0.8012560009966521   F   F   F
  0.1153285056432978  0.3653370142087482  0.8012650012928191   F   F   F
  0.1153285056073088  0.8653370142087482  0.8012650012928191   F   F   F
  0.6153284907380936  0.3653370142087482  0.8012650012928191   F   F   F
  0.6153284907574701  0.8653370142087482  0.8012650012928191   F   F   F
  0.3846715092631925  0.1346630006837373  0.8012650012928191   F   F   F
  0.3846715092785189  0.6346629857912518  0.8012650012928191   F   F   F
  0.8846715092521222  0.1346630006837373  0.8012650012928191   F   F   F
  0.8846715092674415  0.6346629857912518  0.8012650012928191   F   F   F
 -0.0193594137542340  0.0053079718785446  0.6034621752720384   T   T   T
 -0.0029309495018750  0.5024999994285752  0.6030922035227406   T   T   T
  0.4955273107511382 -0.0031730298052191  0.6047747168292357   T   T   T
  0.4929873455950138  0.5042468083061979  0.6043851572525984   T   T   T
  0.2423924651680959  0.2449137936241783  0.6047659445497268   T   T   T
  0.2367492598896423  0.7556332859331548  0.6038698498782736   T   T   T
  0.7367242643750103  0.2564218138372949  0.6039420165886807   T   T   T
  0.7476231804445864  0.7443046327834038  0.6034973086173212   T   T   T
  0.0000005000032601  0.0000004999778866  0.7048289775829417   F   F   F
  0.0000005000163412  0.5000004768364050  0.7048289775829417   F   F   F
  0.5000004768481432  0.0000004999778866  0.7048289775829417   F   F   F
  0.5000004768612172  0.5000004768364050  0.7048289775829417   F   F   F
  0.2499999999728644  0.2499994784861386  0.7048249840801901   F   F   F
  0.2500000000044054  0.7499995231635950  0.7048249840801901   F   F   F
  0.7500000000171596  0.2499994784861386  0.7048249840801901   F   F   F
  0.7499999999933351  0.7499995231635950  0.7048249840801901   F   F   F
  0.0000000000000000  0.0000000000000000  0.8073179721848831   F   F   F
  0.0000000000193765  0.5000000000000000  0.8073179721848831   F   F   F
  0.4999999999889297  0.0000000000000000  0.8073179721848831   F   F   F
  0.5000000000083062  0.5000000000000000  0.8073179721848831   F   F   F
  0.2500000000041496  0.2500000000000000  0.8073179721848831   F   F   F
  0.2500000000235332  0.7500000000000000  0.8073179721848831   F   F   F
  0.7499999999930793  0.2500000000000000  0.8073179721848831   F   F   F
  0.7500000000124558  0.7500000000000000  0.8073179721848831   F   F   F
 
  0.00000000E+00  0.00000000E+00  0.00000000E+00
  0.00000000E+00  0.00000000E+00  0.00000000E+00
  0.00000000E+00  0.00000000E+00  0.00000000E+00
  0.00000000E+00  0.00000000E+00  0.00000000E+00
  0.00000000E+00  0.00000000E+00  0.00000000E+00
  0.00000000E+00  0.00000000E+00  0.00000000E+00
  0.00000000E+00  0.00000000E+00  0.00000000E+00
  0.00000000E+00  0.00000000E+00  0.00000000E+00
  0.00000000E+00  0.00000000E+00  0.00000000E+00
  0.00000000E+00  0.00000000E+00  0.00000000E+00
  0.00000000E+00  0.00000000E+00  0.00000000E+00
  0.00000000E+00  0.00000000E+00  0.00000000E+00
  0.00000000E+00  0.00000000E+00  0.00000000E+00
  0.00000000E+00  0.00000000E+00  0.00000000E+00
  0.00000000E+00  0.00000000E+00  0.00000000E+00
  0.00000000E+00  0.00000000E+00  0.00000000E+00
  0.00000000E+00  0.00000000E+00  0.00000000E+00
  0.00000000E+00  0.00000000E+00  0.00000000E+00
  0.00000000E+00  0.00000000E+00  0.00000000E+00
  0.00000000E+00  0.00000000E+00  0.00000000E+00
  0.00000000E+00  0.00000000E+00  0.00000000E+00
  0.00000000E+00  0.00000000E+00  0.00000000E+00
  0.00000000E+00  0.00000000E+00  0.00000000E+00
  0.00000000E+00  0.00000000E+00  0.00000000E+00
  0.00000000E+00  0.00000000E+00  0.00000000E+00
  0.00000000E+00  0.00000000E+00  0.00000000E+00
  0.00000000E+00  0.00000000E+00  0.00000000E+00
  0.00000000E+00  0.00000000E+00  0.00000000E+00
  0.00000000E+00  0.00000000E+00  0.00000000E+00
  0.00000000E+00  0.00000000E+00  0.00000000E+00
  0.00000000E+00  0.00000000E+00  0.00000000E+00
  0.00000000E+00  0.00000000E+00  0.00000000E+00
  0.00000000E+00  0.00000000E+00  0.00000000E+00
  0.00000000E+00  0.00000000E+00  0.00000000E+00
  0.00000000E+00  0.00000000E+00  0.00000000E+00
  0.00000000E+00  0.00000000E+00  0.00000000E+00
  0.00000000E+00  0.00000000E+00  0.00000000E+00
  0.00000000E+00  0.00000000E+00  0.00000000E+00
  0.00000000E+00  0.00000000E+00  0.00000000E+00
  0.00000000E+00  0.00000000E+00  0.00000000E+00
  0.00000000E+00  0.00000000E+00  0.00000000E+00
  0.00000000E+00  0.00000000E+00  0.00000000E+00
  0.00000000E+00  0.00000000E+00  0.00000000E+00
  0.00000000E+00  0.00000000E+00  0.00000000E+00
  0.00000000E+00  0.00000000E+00  0.00000000E+00
  0.00000000E+00  0.00000000E+00  0.00000000E+00
  0.00000000E+00  0.00000000E+00  0.00000000E+00
  0.00000000E+00  0.00000000E+00  0.00000000E+00
  0.00000000E+00  0.00000000E+00  0.00000000E+00
  0.00000000E+00  0.00000000E+00  0.00000000E+00
  0.00000000E+00  0.00000000E+00  0.00000000E+00
  0.00000000E+00  0.00000000E+00  0.00000000E+00
  0.00000000E+00  0.00000000E+00  0.00000000E+00
  0.00000000E+00  0.00000000E+00  0.00000000E+00
  0.00000000E+00  0.00000000E+00  0.00000000E+00
  0.00000000E+00  0.00000000E+00  0.00000000E+00
  0.00000000E+00  0.00000000E+00  0.00000000E+00
  0.00000000E+00  0.00000000E+00  0.00000000E+00
  0.00000000E+00  0.00000000E+00  0.00000000E+00
  0.00000000E+00  0.00000000E+00  0.00000000E+00
  0.00000000E+00  0.00000000E+00  0.00000000E+00
  0.00000000E+00  0.00000000E+00  0.00000000E+00
  0.00000000E+00  0.00000000E+00  0.00000000E+00
  0.00000000E+00  0.00000000E+00  0.00000000E+00
  0.00000000E+00  0.00000000E+00  0.00000000E+00
  0.00000000E+00  0.00000000E+00  0.00000000E+00
  0.00000000E+00  0.00000000E+00  0.00000000E+00
  0.00000000E+00  0.00000000E+00  0.00000000E+00
  0.00000000E+00  0.00000000E+00  0.00000000E+00
  0.00000000E+00  0.00000000E+00  0.00000000E+00
  0.00000000E+00  0.00000000E+00  0.00000000E+00
  0.00000000E+00  0.00000000E+00  0.00000000E+00
  0.00000000E+00  0.00000000E+00  0.00000000E+00
  0.00000000E+00  0.00000000E+00  0.00000000E+00
  0.00000000E+00  0.00000000E+00  0.00000000E+00
  0.00000000E+00  0.00000000E+00  0.00000000E+00
  0.00000000E+00  0.00000000E+00  0.00000000E+00
  0.00000000E+00  0.00000000E+00  0.00000000E+00
  0.00000000E+00  0.00000000E+00  0.00000000E+00
  0.00000000E+00  0.00000000E+00  0.00000000E+00
  0.00000000E+00  0.00000000E+00  0.00000000E+00
  0.00000000E+00  0.00000000E+00  0.00000000E+00
  0.00000000E+00  0.00000000E+00  0.00000000E+00
  0.00000000E+00  0.00000000E+00  0.00000000E+00
  0.00000000E+00  0.00000000E+00  0.00000000E+00
  0.00000000E+00  0.00000000E+00  0.00000000E+00
  0.00000000E+00  0.00000000E+00  0.00000000E+00
  0.00000000E+00  0.00000000E+00  0.00000000E+00
  0.00000000E+00  0.00000000E+00  0.00000000E+00
  0.00000000E+00  0.00000000E+00  0.00000000E+00
  0.00000000E+00  0.00000000E+00  0.00000000E+00
  0.00000000E+00  0.00000000E+00  0.00000000E+00
  0.00000000E+00  0.00000000E+00  0.00000000E+00
  0.00000000E+00  0.00000000E+00  0.00000000E+00
  0.00000000E+00  0.00000000E+00  0.00000000E+00
  0.00000000E+00  0.00000000E+00  0.00000000E+00
  0.00000000E+00  0.00000000E+00  0.00000000E+00
  0.00000000E+00  0.00000000E+00  0.00000000E+00
  0.00000000E+00  0.00000000E+00  0.00000000E+00
  0.00000000E+00  0.00000000E+00  0.00000000E+00
  0.00000000E+00  0.00000000E+00  0.00000000E+00
  0.00000000E+00  0.00000000E+00  0.00000000E+00
  0.00000000E+00  0.00000000E+00  0.00000000E+00
  0.00000000E+00  0.00000000E+00  0.00000000E+00
  0.00000000E+00  0.00000000E+00  0.00000000E+00
  0.00000000E+00  0.00000000E+00  0.00000000E+00
  0.00000000E+00  0.00000000E+00  0.00000000E+00
  0.00000000E+00  0.00000000E+00  0.00000000E+00
  0.00000000E+00  0.00000000E+00  0.00000000E+00
  0.00000000E+00  0.00000000E+00  0.00000000E+00
  0.00000000E+00  0.00000000E+00  0.00000000E+00
  0.00000000E+00  0.00000000E+00  0.00000000E+00
  0.00000000E+00  0.00000000E+00  0.00000000E+00
  0.00000000E+00  0.00000000E+00  0.00000000E+00
  0.00000000E+00  0.00000000E+00  0.00000000E+00
  0.00000000E+00  0.00000000E+00  0.00000000E+00
  0.00000000E+00  0.00000000E+00  0.00000000E+00
  0.00000000E+00  0.00000000E+00  0.00000000E+00
  0.00000000E+00  0.00000000E+00  0.00000000E+00
  0.00000000E+00  0.00000000E+00  0.00000000E+00