PerovskiteSurface_12951678_1
1.0
       18.0608005524         0.0000000000         0.0000000000
       -0.0049186487        18.0627987840         0.0000000000
        0.0000000000         0.0000000000        62.4874992371
     H     C     N     I     Pb
     143     39     47     72     24
Selective Dynamics
Cartesian
         8.123312019          5.415272448         36.359539078   T   T   T
         8.120852694         14.446672378         36.359539078   T   T   T
        17.153711757          5.415272448         36.359539078   T   T   T
        17.151252432         14.446672378         36.359539078   T   T   T
         5.440076621          0.925718430         36.359539078   T   T   T
         5.437617297          9.957117485         36.359539078   T   T   T
        14.470477436          0.925718430         36.359539078   T   T   T
         1.437502120          3.092170409         34.802600971   T   T   T
         1.435042796         12.123570339         34.802600971   T   T   T
        10.467902665          3.092170409         34.802600971   T   T   T
        10.465443341         12.123570339         34.802600971   T   T   T
         5.939222150          1.425172893         34.802600971   T   T   T
         5.936762826         10.456572150         34.802600971   T   T   T
        14.969622426          1.425172893         34.802600971   T   T   T
         0.904683160          3.616136095         36.359412444   T   T   T
         0.902223835         12.647535487         36.359412444   T   T   T
         9.935083571          3.616136095         36.359412444   T   T   T
         9.932624246         12.647535487         36.359412444   T   T   T
         3.587846578          8.105644155         36.359412444   T   T   T
         3.585387253         17.137045162         36.359412444   T   T   T
        12.615787529         17.137045162         36.359412444   T   T   T
         7.590258216          5.939346336         34.802537654   T   T   T
         7.587798891         14.970746266         34.802537654   T   T   T
        16.620659030          5.939346336         34.802537654   T   T   T
        16.618200782         14.970746266         34.802537654   T   T   T
         3.088718802          7.606226634         34.802537654   T   T   T
         3.086259477         16.637627103         34.802537654   T   T   T
        12.116659753         16.637627103         34.802537654   T   T   T
         9.029125386          4.515754066         33.649329073   T   T   T
         9.026665523         13.547152919         33.649329073   T   T   T
        18.059526739          4.515754066         33.649329073   T   T   T
        18.057066338         13.547152919         33.649329073   T   T   T
         4.512740545          9.031399392         33.649329073   T   T   T
         4.515200138          0.000000000         33.649329073   T   T   T
        13.545600414          0.000000000         33.649329073   T   T   T
         8.104079043          5.441300975         42.128133299   T   T   T
         8.101619719         14.472700906         42.128133299   T   T   T
        17.134479319          5.441300975         42.128133299   T   T   T
        17.132018918         14.472700906         42.128133299   T   T   T
         5.440076621          0.925718430         42.127008486   T   T   T
         5.437617297          9.957117485         42.127008486   T   T   T
        14.470477436          0.925718430         42.127008486   T   T   T
        14.468018112          9.957117485         42.127008486   T   T   T
         1.422810135          3.090481720         40.545324501   T   T   T
         1.420350811         12.121881112         40.545324501   T   T   T
        10.453209873          3.090481720         40.545324501   T   T   T
        10.450750549         12.121881112         40.545324501   T   T   T
         3.088718802          7.606226634         40.544076778   T   T   T
         3.086259477         16.637627103         40.544076778   T   T   T
        12.119119078          7.606226634         40.544076778   T   T   T
        12.116659753         16.637627103         40.544076778   T   T   T
         0.923852758          3.590098686         42.128196616   T   T   T
         0.921393434         12.621498347         42.128196616   T   T   T
         9.954252496          3.590098686         42.128196616   T   T   T
         9.951793172         12.621498347         42.128196616   T   T   T
         3.587846578          8.105644155         42.126948894   T   T   T
         3.585387253         17.137045162         42.126948894   T   T   T
        12.618246854          8.105644155         42.126948894   T   T   T
        12.615787529         17.137045162         42.126948894   T   T   T
         7.605166887          5.940890757         40.545324501   T   T   T
         7.602707563         14.972290149         40.545324501   T   T   T
        16.635567163          5.940890757         40.545324501   T   T   T
        16.633107839         14.972290149         40.545324501   T   T   T
         5.939222150          1.425172893         40.544140096   T   T   T
         5.936762826         10.456572150         40.544140096   T   T   T
        14.969622426          1.425172893         40.544140096   T   T   T
        14.967163102         10.456572150         40.544140096   T   T   T
        -0.001229667          4.515717999         39.435048752   T   T   T
        -0.003688992         13.547117391         39.435048752   T   T   T
         9.029170609          4.515717999         39.435048752   T   T   T
         9.026711285         13.547117391         39.435048752   T   T   T
         4.515200131          0.000027094         39.433923939   T   T   T
         4.512740537          9.031426308         39.433923939   T   T   T
        13.545600407          0.000027094         39.433923939   T   T   T
        13.543141083          9.031426308         39.433923939   T   T   T
         8.103212256          5.442032005         48.045951423   F   F   F
         8.100752931         14.473430858         48.045951423   F   F   F
        17.133611455          5.442032005         48.045951423   F   F   F
        17.131153208         14.473430858         48.045951423   F   F   F
         5.441033418          0.926522199         48.044949520   F   F   F
         5.438574093          9.957921725         48.044949520   F   F   F
        14.471433156          0.926522199         48.044949520   F   F   F
        14.468973831          9.957921725         48.044949520   F   F   F
         1.421825390          3.091998956         46.455831343   F   F   F
         1.419366066         12.123398079         46.455831343   F   F   F
        10.452225532          3.091998956         46.455831343   F   F   F
        10.449766208         12.123398079         46.455831343   F   F   F
         3.089928425          7.607590182         46.454520303   F   F   F
         3.087469100         16.638990112         46.454520303   F   F   F
        12.120328701          7.607590182         46.454520303   F   F   F
        12.117869377         16.638990112         46.454520303   F   F   F
         0.924747002          3.589349085         48.045951423   F   F   F
         0.922287678         12.620747938         48.045951423   F   F   F
         9.955147278          3.589349085         48.045951423   F   F   F
         9.952687954         12.620747938         48.045951423   F   F   F
         3.586898391          8.104849605         48.044889927   F   F   F
         3.584439067         17.136249535         48.044889927   F   F   F
        12.617298667          8.104849605         48.044889927   F   F   F
        12.614839343         17.136249535         48.044889927   F   F   F
         7.606160919          5.939364100         46.455831343   F   F   F
         7.603701595         14.970763492         46.455831343   F   F   F
        16.636560119          5.939364100         46.455831343   F   F   F
        16.634101871         14.970763492         46.455831343   F   F   F
         5.938012529          1.423800059         46.454520303   F   F   F
         5.935553205         10.455199451         46.454520303   F   F   F
        14.968412806          1.423800059         46.454520303   F   F   F
        14.965953481         10.455199451         46.454520303   F   F   F
        -0.001166457          4.515726612         45.354799915   F   F   F
        -0.003625781         13.547126004         45.354799915   F   F   F
         9.029234121          4.515726612         45.354799915   F   F   F
         9.026774796         13.547126004         45.354799915   F   F   F
         4.515209288          0.000000000         45.353675102   F   F   F
         4.512749964          9.031399392         45.353675102   F   F   F
        13.545609026          0.000000000         45.353675102   F   F   F
        13.543149702          9.031399392         45.353675102   F   F   F
        12.820857000          9.788760000         29.926614000   T   T   T
        14.000580000         10.677460000         28.965688000   T   T   T
        15.925158000         10.097581000         31.888727000   T   T   T
        15.295569000         11.265893000         30.727893000   T   T   T
        16.860121000          8.695134000         30.317941000   T   T   T
        15.954427000          8.133227000         28.912581000   T   T   T
        13.379565000          8.148024000         31.355580000   T   T   T
        14.336752000          7.207766000         30.215944000   T   T   T
        14.313631000          8.755047000         27.455889000   T   T   T
        13.287516000          7.726923000         28.451567000   T   T   T
        12.151841000         10.336421000         27.359645000   T   T   T
        12.334368000          8.961944000         26.292799000   T   T   T
        13.609613000          9.836526000         32.885278000   T   T   T
        14.171809000         11.505156000         32.888135000   T   T   T
        12.968234000         10.997936000         31.706574000   T   T   T
        16.010634000         10.508849000         27.965849000   T   T   T
        17.006801000         11.006866000         29.353554000   T   T   T
        17.596820000          9.791468000         28.229232000   T   T   T
        15.346683000          8.187362000         32.964270000   T   T   T
        14.855506000          6.557644000         32.518259000   T   T   T
        16.309089000          7.240611000         31.805130000   T   T   T
        10.070631000          9.036254000         27.164751000   T   T   T
        10.878187000          7.559308000         27.659382000   T   T   T
        10.042543000         11.010771000         28.944107000   T   T   T
        10.795586000          6.893000000         29.924820000   T   T   T
         9.489460000         11.473607000         31.307790000   T   T   T
        10.241325000          7.354250000         32.293406000   T   T   T
         9.598555000          9.652436000         33.000000000   T   T   T
        -0.001003784          4.515265815         34.740114277   T   T   T
        -0.003463108         13.546665207         34.740114277   T   T   T
         9.029396799          4.515265815         34.740114277   T   T   T
         9.026937474         13.546665207         34.740114277   T   T   T
         4.512740545          9.031399392         34.740114277   T   T   T
         4.515200138          0.000000000         34.740114277   T   T   T
        13.545600414          0.000000000         34.740114277   T   T   T
        -0.001067071          4.515537395         40.524832053   T   T   T
        -0.003526395         13.546936517         40.524832053   T   T   T
         9.029333211          4.515537395         40.524832053   T   T   T
         9.026873887         13.546936517         40.524832053   T   T   T
         4.512731666          9.031390241         40.523580606   T   T   T
         4.510272611         18.062790171         40.523580606   T   T   T
        13.543132480          9.031390241         40.523580606   T   T   T
        13.540673156         18.062790171         40.523580606   T   T   T
         9.028971485          4.515609259         46.445521802   F   F   F
         9.026513237         13.547008651         46.445521802   F   F   F
        18.059371761          4.515609259         46.445521802   F   F   F
        18.056913513         13.547008651         46.445521802   F   F   F
         4.515209283          0.000018063         46.444207037   F   F   F
         4.512749959          9.031417695         46.444207037   F   F   F
        13.545609021          0.000018063         46.444207037   F   F   F
        13.543149697          9.031417695         46.444207037   F   F   F
        13.719980000          9.683799000         29.322463000   T   T   T
        15.042095000         10.380286000         31.311466000   T   T   T
        16.141537000          8.996395000         29.554026000   T   T   T
        14.394566000          7.965892000         30.997593000   T   T   T
        13.449937000          8.761532000         28.129672000   T   T   T
        12.201996000          9.239090000         27.344186000   T   T   T
        13.867583000         10.678138000         32.237948000   T   T   T
        16.699429000         10.157305000         28.738460000   T   T   T
        15.294086000          7.483082000         32.130647000   T   T   T
        10.856827000          8.643971000         27.821724000   T   T   T
        10.495534000          8.923791000         29.267239000   T   T   T
        10.113662000         10.211137000         29.678812000   T   T   T
        10.539903000          7.905656000         30.230381000   T   T   T
         9.800880000         10.474863000         31.013606000   T   T   T
        10.224662000          8.163820000         31.568270000   T   T   T
         9.859475000          9.451583000         31.964795000   T   T   T
         0.825826051          3.695820199         35.343367688   T   T   T
         0.823366727         12.727219860         35.343367688   T   T   T
         9.856225991          3.695820199         35.343367688   T   T   T
         9.853766666         12.727219860         35.343367688   T   T   T
         8.201952075          5.335841083         35.343680550   T   T   T
         8.199492212         14.367241013         35.343680550   T   T   T
        17.232352889          5.335841083         35.343680550   T   T   T
        17.229892488         14.367241013         35.343680550   T   T   T
         3.684716237          8.203039037         35.343367688   T   T   T
         3.682256912         17.234440044         35.343367688   T   T   T
        12.712657457         17.234440044         35.343367688   T   T   T
         5.343224982          0.828368968         35.343680550   T   T   T
         5.340765657          9.859768899         35.343680550   T   T   T
        14.373624720          0.828368968         35.343680550   T   T   T
         0.826469604          3.687159006         41.116461159   T   T   T
         0.824010280         12.718558398         41.116461159   T   T   T
         9.856869948          3.687159006         41.116461159   T   T   T
         9.854410623         12.718558398         41.116461159   T   T   T
         3.684716237          8.203039037         41.115336347   T   T   T
         3.682256912         17.234440044         41.115336347   T   T   T
        12.715116782          8.203039037         41.115336347   T   T   T
        12.712657457         17.234440044         41.115336347   T   T   T
         8.201236533          5.344493393         41.116587794   T   T   T
         8.198777208         14.375892785         41.116587794   T   T   T
        17.231635732          5.344493393         41.116587794   T   T   T
        17.229177484         14.375892785         41.116587794   T   T   T
         5.343224982          0.828368968         41.115336347   T   T   T
         5.340765657          9.859768899         41.115336347   T   T   T
        14.373624720          0.828368968         41.115336347   T   T   T
        14.371165395          9.859768899         41.115336347   T   T   T
         0.827309466          3.686969520         47.035966502   F   F   F
         0.824850142         12.718368912         47.035966502   F   F   F
         9.857709675          3.686969520         47.035966502   F   F   F
         9.855250351         12.718368912         47.035966502   F   F   F
         3.684318928          8.202335461         47.034651738   F   F   F
         3.681859604         17.233733777         47.034651738   F   F   F
        12.714718666          8.202335461         47.034651738   F   F   F
        12.712259342         17.233733777         47.034651738   F   F   F
         8.200676727          5.344574679         47.036026095   F   F   F
         8.198217402         14.375974609         47.036026095   F   F   F
        17.231077003          5.344574679         47.036026095   F   F   F
        17.228618755         14.375974609         47.036026095   F   F   F
         5.343648929          0.829091519         47.034651738   F   F   F
         5.341189605          9.860491315         47.034651738   F   F   F
        14.374048667          0.829091519         47.034651738   F   F   F
        14.371589343          9.860491315         47.034651738   F   F   F
        14.827660000          9.256834000         30.292697000   T   T   T
         9.030400276          0.000000000         34.487102197   T   T   T
         9.027940952          9.031399392         34.487102197   T   T   T
         0.000000000          0.000000000         34.487102197   T   T   T
        -0.002459324          9.031399392         34.487102197   T   T   T
         4.513988777          4.515699696         34.488227010   T   T   T
         4.511529452         13.547099088         34.488227010   T   T   T
        13.544389053          4.515699696         34.488227010   T   T   T
        13.541929728         13.547099088         34.488227010   T   T   T
         0.000000000          0.000000000         40.860324186   T   T   T
        -0.002459324          9.031399392         40.860324186   T   T   T
         9.030400276          0.000000000         40.860324186   T   T   T
         9.027940952          9.031399392         40.860324186   T   T   T
         4.513970476          4.515699696         40.861139862   T   T   T
         4.511511152         13.547099088         40.861139862   T   T   T
        13.544370752          4.515699696         40.861139862   T   T   T
        13.541911428         13.547099088         40.861139862   T   T   T
         2.585040579          1.930181606         37.956031855   T   T   T
         2.582581255         10.961581132         37.956031855   T   T   T
        11.615441394          1.930181606         37.956031855   T   T   T
        11.612982069         10.961581132         37.956031855   T   T   T
         6.442891217          7.101235955         37.956031855   T   T   T
         6.440431893         16.132635347         37.956031855   T   T   T
        15.473291493          7.101235955         37.956031855   T   T   T
        15.470832169         16.132635347         37.956031855   T   T   T
         1.928853805          6.446613004         37.958218163   T   T   T
         1.926394480         15.478011858         37.958218163   T   T   T
        10.959253543          6.446613004         37.958218163   T   T   T
        10.956794218         15.478011858         37.958218163   T   T   T
         7.099087142          2.584804691         37.958218163   T   T   T
         7.096627818         11.616203544         37.958218163   T   T   T
        16.129487957          2.584804691         37.958218163   T   T   T
        16.127029709         11.616203544         37.958218163   T   T   T
         0.000000000          0.000000000         47.173562375   F   F   F
        -0.002459324          9.031399392         47.173562375   F   F   F
         9.030400276          0.000000000         47.173562375   F   F   F
         9.027940952          9.031399392         47.173562375   F   F   F
         4.513979626          4.515699696         47.174251416   F   F   F
         4.511520302         13.547099088         47.174251416   F   F   F
        13.544379364          4.515699696         47.174251416   F   F   F
        13.541920040         13.547099088         47.174251416   F   F   F
         2.451923326          2.062952287         44.040128575   F   F   F
         2.449464001         11.094351814         44.040128575   F   F   F
        11.482323063          2.062952287         44.040128575   F   F   F
        11.479863739         11.094351814         44.040128575   F   F   F
         6.576017626          6.968446970         44.040128575   F   F   F
         6.573558302         15.999846362         44.040128575   F   F   F
        15.606418441          6.968446970         44.040128575   F   F   F
        15.603959116         15.999846362         44.040128575   F   F   F
         2.061076856          6.578814689         44.040001940   F   F   F
         2.058617532         15.610214081         44.040001940   F   F   F
        11.091477267          6.578814689         44.040001940   F   F   F
        11.089017942         15.610214081         44.040001940   F   F   F
         6.966863959          2.452593855         44.040065257   F   F   F
         6.964404634         11.483993785         44.040065257   F   F   F
        15.997264235          2.452593855         44.040065257   F   F   F
        15.994804910         11.483993785         44.040065257   F   F   F
         2.431626446          2.083218843         50.068483751   F   F   F
         2.429167121         11.114618235         50.068483751   F   F   F
        11.462026453          2.083218843         50.068483751   F   F   F
        11.459567129         11.114618235         50.068483751   F   F   F
         6.596314237          6.948180549         50.068483751   F   F   F
         6.593854912         15.979579941         50.068483751   F   F   F
        15.626713975          6.948180549         50.068483751   F   F   F
        15.624254650         15.979579941         50.068483751   F   F   F
         2.081128174          6.599008976         50.069046157   F   F   F
         2.078668849         15.630408368         50.069046157   F   F   F
        11.111528181          6.599008976         50.069046157   F   F   F
        11.109068857         15.630408368         50.069046157   F   F   F
         6.946813047          2.432390685         50.069046157   F   F   F
         6.944353723         11.463789808         50.069046157   F   F   F
        15.977213323          2.432390685         50.069046157   F   F   F
        15.974753999         11.463789808         50.069046157   F   F   F
         0.000009025          0.000018063         37.630409767   T   T   T
        -0.002450299          9.031417695         37.630409767   T   T   T
         9.030408883          0.000018063         37.630409767   T   T   T
         9.027949559          9.031417695         37.630409767   T   T   T
         4.513970478          4.515690276         37.630908856   T   T   T
         4.511511154         13.547090475         37.630908856   T   T   T
        13.544370755          4.515690276         37.630908856   T   T   T
        13.541911430         13.547090475         37.630908856   T   T   T
         0.000009028          0.000009031         44.043000199   F   F   F
        -0.002450296          9.031408005         44.043000199   F   F   F
         9.030408886          0.000009031         44.043000199   F   F   F
         9.027949562          9.031408005         44.043000199   F   F   F
         4.513970478          4.515690276         44.042750655   F   F   F
         4.511511154         13.547090475         44.042750655   F   F   F
        13.544370755          4.515690276         44.042750655   F   F   F
        13.541911430         13.547090475         44.042750655   F   F   F
         0.000000000          0.000000000         50.447281171   F   F   F
        -0.002459324          9.031399392         50.447281171   F   F   F
         9.030400276          0.000000000         50.447281171   F   F   F
         9.027940952          9.031399392         50.447281171   F   F   F
         4.513970476          4.515699696         50.447281171   F   F   F
         4.511511152         13.547099088         50.447281171   F   F   F
        13.544370752          4.515699696         50.447281171   F   F   F
        13.541911428         13.547099088         50.447281171   F   F   F
