 H  C  N  I Pb 
 1.0000000000000000
    18.0608005523681641    0.0000000000000000    0.0000000000000000
    -0.0049186488613486   18.0627994537353516    0.0000000000000000
     0.0000000000000000    0.0000000000000000   62.4874992370605469
 H   C   N   I   Pb 
 143  39  47  72  24
Cartesian
  8.0380926132202148  5.3894252777099609 36.4083824157714915
  8.0001220703125000 14.8948440551757812 36.2076988220214844
 17.3221778869628906  4.8995556831359863 36.6616287231445312
 17.5149898529052734 14.5632810592651367 36.6092300415039062
  5.4043750762939453  0.8216308355331421 36.4660110473632884
  5.4138984680175781  9.9068441390991211 36.4233474731445312
 14.1377010345458967  1.1746162176132202 36.3269538879394531
  1.7231254577636745  3.3168644905090332 34.6378936767578125
  1.4067153930664069 12.1779079437255859 34.6934890747070384
 10.6235914230346680  3.2571055889129639 34.7391777038574219
  9.9451284408569336 11.9400463104248047 35.3394584655761719
  6.1913261413574219  1.1319282054901121 34.9283256530761719
  5.7900509834289551 10.6628360748291016 34.8862266540527344
 14.9643869400024414  1.4876649379730225 34.8169059753417969
  1.2985763549804710  3.5586390495300293 36.2514839172363281
  0.9071979522705106 12.5454216003417969 36.3276786804199290
 10.1884078979492188  3.9190051555633545 36.3371963500976562
  9.3552064895629865 12.8415269851684570 36.6999206542968750
  3.7359845638275146  7.9179625511169434 36.3152313232421875
  3.2985977390781045 17.3421369194984436 36.3354568481445312
 12.5600570896640420 17.1847499012947083 36.3137550354003906
  7.1719021797180167  5.4782595634460440 34.8554039001464915
  7.7936363220214844 15.3036842346191388 34.5063400268554688
 16.4359340667724609  5.5045218467712402 35.3254051208496094
 17.0961894989013672 15.4616184234619141 35.1895484924316406
  3.1665847301483154  7.5387034416198730 34.7059631347656321
  2.8791450718417764 16.8022167682647705 34.7237091064453125
 12.4911922672763449 16.2906988859176671 34.7894172668457102
  8.7512321472167969  4.1442284584045410 33.6697921752929759
  9.0940399169921875 13.3831062316894531 33.7752342224121165
 17.9294528961181641  4.5655117034912109 33.7839889526367188
  0.2121658325195327 14.0486297607421875 33.7748908996582031
  4.4374551773071289  9.2542953491210938 33.6547088623046946
  4.6655768612399688 17.9149114340543747 33.6873359680175781
 13.9920801380649209 17.7291451692581177 33.7027397155761719
  8.1489639282226562  5.5196948051452628 42.1686286926269531
  7.9852089881896964 14.4419260025024414 42.2552375793457031
 17.0363758802413940  5.3982095718383780 42.1281661987304759
 17.1000454425811803 14.5553531646728516 42.1981697082519531
  5.3724746704101562  0.8122290968894958 42.2173881530761790
  5.3244647979736328 10.0080490112304688 42.1900596618652344
 14.6086645126342773  0.9985385537147521 42.0655632019042969
 14.9227676391601562  9.7334365844726562 42.2067184448242259
  1.5118914842605591  3.0845456123352051 40.6214408874511719
  1.5135194063186646 12.2364463806152344 40.7306976318359375
 10.3588666915893555  3.0058400630950923 40.6043624877929688
 10.3495740890502912 12.1086339950561523 40.6776809692382812
  3.2958221435546875  7.4574775695800781 40.5230522155761790
  3.0564231136813755 16.6256151199340820 40.3676033020019531
 11.9214830398559570  8.0390214920043945 40.7288017272949219
 12.0554537037387490 16.7082903385162354 40.7285423278808594
  0.9632517099380493  3.5876319408416748 42.2030067443847656
  0.8231808543205260 12.7125396728515625 42.2956542968750071
  9.9417419433593732  3.6504423618316650 42.2118721008300781
  9.8514404296875000 12.6187801361083967 42.2417678833007812
  3.7158095836639404  8.0205535888671875 42.1365242004394602
  3.4973692158237095 17.0393111705780029 42.0268783569335938
 12.7282476425170898  8.0975847244262695 42.2366905212402344
 12.6852115849032980 17.2716279625892675 42.2718124389648438
  7.5574917793273926  5.9281134605407715 40.5721054077148438
  7.4918370246887207 14.9755887985229492 40.6605682373046875
 16.5891975164413488  5.8171591758728027 40.5353507995605540
 16.6799477338790929 15.0652904510498029 40.5766983032226562
  5.9698505401611328  1.3937518596649170 40.6769752502441477
  5.8416872024536133 10.5856409072875977 40.6227455139160156
 15.0047464370727539  1.4193413257598877 40.4091033935546875
 15.1950464248657227 10.3912649154663086 40.6214027404785227
  0.0274639613926411  4.4576811790466309 39.4572448730468750
  0.1801587343215942 13.6597394943237305 39.5437812805175852
  8.8752431869506836  4.3447356224060059 39.4820175170898438
  8.9594440460205078 13.5152540206909180 39.5445518493652344
  4.5363377789035431 18.0612590759992599 39.4079818725586009
  4.6320633888244620  9.0682325363159180 39.4399528503418040
 13.4323705891147238 18.0028147101402283 39.4636116027832031
 13.3149003982543945  9.4101314544677734 39.5899047851562571
  8.1032123565673828  5.4420318603515616 48.0459518432617259
  8.1007528305053711 14.4734306335449219 48.0459518432617259
 17.1336116790771484  5.4420318603515616 48.0459518432617259
 17.1311531066894531 14.4734306335449219 48.0459518432617259
  5.4410333633422852  0.9265221953392029 48.0449485778808594
  5.4385743141174316  9.9579219818115234 48.0449485778808594
 14.4714326858520490  0.9265221953392029 48.0449485778808594
 14.4689741134643555  9.9579219818115234 48.0449485778808594
  1.4218254089355467  3.0919990539550781 46.4558296203613281
  1.4193661212921143 12.1233978271484375 46.4558296203613281
 10.4522256851196289  3.0919990539550781 46.4558296203613281
 10.4497661590576172 12.1233978271484375 46.4558296203613281
  3.0899283885955806  7.6075901985168457 46.4545211791992188
  3.0874691009521484 16.6389904022216797 46.4545211791992188
 12.1203289031982422  7.6075901985168457 46.4545211791992188
 12.1178693771362305 16.6389904022216797 46.4545211791992188
  0.9247469902038573  3.5893490314483643 48.0459518432617259
  0.9222877025604248 12.6207475662231445 48.0459518432617259
  9.9551477432250977  3.5893490314483643 48.0459518432617259
  9.9526882171630859 12.6207475662231445 48.0459518432617259
  3.5868983268737793  8.1048498153686523 48.0448913574218821
  3.5844390392303462 17.1362495422363281 48.0448913574218821
 12.6172990798950195  8.1048498153686523 48.0448913574218821
 12.6148395538330078 17.1362495422363281 48.0448913574218821
  7.6061611175537109  5.9393639564514160 46.4558296203613281
  7.6037015914916992 14.9707632064819336 46.4558296203613281
 16.6365604400634766  5.9393639564514160 46.4558296203613281
 16.6341018676757812 14.9707632064819336 46.4558296203613281
  5.9380125999450684  1.4238001108169553 46.4545211791992188
  5.9355530738830566 10.4551992416381836 46.4545211791992188
 14.9684123992919904  1.4238001108169553 46.4545211791992188
 14.9659538269042951 10.4551992416381836 46.4545211791992188
 -0.0011664569610730  4.5157265663146973 45.3548011779785156
 -0.0036257810425013 13.5471258163452148 45.3548011779785156
  9.0292339324951172  4.5157265663146973 45.3548011779785156
  9.0267744064331037 13.5471258163452148 45.3548011779785156
  4.5152091979980469  0.0000000000000000 45.3536758422851562
  4.5127501487731934  9.0313997268676740 45.3536758422851562
 13.5456094741821289  0.0000000000000000 45.3536758422851562
 13.5431499481201172  9.0313997268676740 45.3536758422851562
 12.9741334915161133  8.2015514373779297 34.2246208190918040
 13.3750543594360334  9.3306970596313459 32.8854293823242188
 11.8454666137695312  9.9490432739257795 35.1438102722168040
 12.4327983856201172 11.6006364822387695 35.2261543273925781
 15.1578397750854474  9.3293170928955060 36.3085899353027344
 14.0092964172363281 10.5692415237426758 36.7681159973144531
 15.8309993743896484 10.1023826599121094 34.0362815856933594
 14.7440223693847638 11.2117242813110352 33.1304321289062500
 15.7685317993164062  8.7144851684570312 33.0195541381835938
 15.5984125137329102  8.1938486099243164 34.6948890686035156
 16.0130863189697266  6.3797650337219238 33.1774177551269602
 14.3387718200683576  6.1585884094238281 33.8113136291503906
 11.2072162628173828 10.1193990707397443 32.9408340454101562
 12.6331892013549805 11.0821743011474609 32.4606933593750071
 11.3331775665283185 11.8705587387084961 33.2755393981933594
 13.0691184997558594  8.4495439529418945 37.6942863464355469
 13.4220495223999023  7.5570306777954102 36.1869354248046875
 12.0735063552856428  8.7287158966064453 36.2936668395996165
 15.1837682723999023 12.2494554519653303 35.8720550537109375
 15.8223619461059553 12.8839368820190430 34.3903656005859446
 16.7021236419677734 11.5208969116210938 35.2829856872558594
 15.2047166824340820  7.1974196434020987 31.0327072143554723
 14.5092372894287109  5.6070079803466788 31.4588165283203161
 12.1844425201415998  5.7800893783569327 32.7796401977539062
 13.6333799362182617  8.8258018493652344 30.0791683197021484
  9.8576602935791016  6.6553430557250977 32.5922126770019531
 11.3009424209594727  9.7320652008056641 29.8707561492919957
  9.4491443634033203  8.7392654418945312 31.1469745635986328
  0.0613861083984388  4.4156613349914551 34.8583488464355540
  0.2346744537353505 13.8266983032226562 34.8565139770507812
  8.8970012664794922  4.3576683998107910 34.7328796386718750
  8.9194221496582031 13.6040143966674805 34.8387641906738281
  4.4719681739807129  9.1083822250366211 34.7550048828125000
  4.5331224659457803 17.9949204921722412 34.7875175476074219
 13.7284301975741982 17.9231924116611481 34.7640266418457031
  0.0066607631742954  4.4641489982604980 40.5595169067382884
  0.0564671941101551 13.6687583923339844 40.6400642395019602
  8.9575529098510742  4.4630784988403320 40.5680580139160156
  8.9348926544189453 13.5395355224609375 40.6458816528320312
  4.5702786445617676  9.0146827697753906 40.5408668518066406
  4.5176405170932412 18.0505928471684456 40.4982795715332031
 13.5344209671020508  9.1955833435058576 40.6788597106933594
 13.5493297576904297  0.0315218903124332 40.5438652038574290
  9.0289716720581055  4.5156092643737793 46.4455223083496165
  9.0265130996704102 13.5470085144042969 46.4455223083496165
 18.0593719482421875  4.5156092643737793 46.4455223083496165
 18.0569133758544922 13.5470085144042969 46.4455223083496165
  4.5152091979980469  0.0000180629995157 46.4442062377929759
  4.5127501487731934  9.0314178466796857 46.4442062377929759
 13.5456094741821289  0.0000180629995157 46.4442062377929759
 13.5431499481201172  9.0314178466796857 46.4442062377929759
 13.0648803710937500  7.2255105972290039 31.4067268371582031
 11.9892625808715820  6.6290216445922852 32.1085662841796946
 12.8015470504760742  8.3190469741821289 30.5998210906982457
 10.6784124374389631  7.1422200202941895 32.0335617065429759
 11.5161962509155273  8.8513116836547852 30.4998798370361328
 10.4424133300781232  8.2814960479736328 31.2128715515136719
 13.7473154067993164  8.8735885620117188 33.8222236633300852
 12.4431667327880859 10.6763439178466797 34.6345176696777415
 14.1040554046630859  9.6405344009399414 36.1870079040527415
 15.0690908432006836 10.8778829574584961 34.1343116760253906
 15.1012868881225586  8.1705141067504883 33.7139663696289134
 14.9855346679687482  6.7908854484558105 33.1590652465820312
 11.8670463562011719 10.9311294555664062 33.2544288635253906
 13.1255168914794904  8.5459041595458984 36.6017379760742188
 15.7269487380981445 11.9474296569824219 34.9720954895019531
 14.5030870437622070  6.6696720123291016 31.7169532775878906
  1.0996646881103507  3.7144379615783687 35.2702293395996094
  0.8578739166259758 12.7944040298461914 35.3177146911621094
  9.9447307586669922  3.7713410854339595 35.3057212829589844
  9.4710912704467773 12.7639760971069336 35.6897048950195312
  7.9903154373168936  5.1252408027648926 35.3626213073730540
  8.2011146545410156 14.6598548889160138 35.2163238525390625
 17.2551059722900391  4.9854369163513184 35.6495399475097727
 17.6428146362304688 14.6983842849731445 35.5828323364257812
  3.7671859264373779  8.1440677642822266 35.3176078796386790
  3.5231565693393350 17.3493485450744629 35.3333587646484446
 12.8718580463901162 17.1079084277153015 35.3479652404785227
  5.4099717140197754  0.6654605269432068 35.4571304321289062
  5.2600708007812491  9.9320640563964844 35.4102592468261719
 14.3062667846679688  0.8879703283309937 35.3574295043945384
  0.8775172233581543  3.6655814647674561 41.1678428649902415
  0.8618360161781311 12.8153972625732422 41.2819633483886719
  9.8120260238647461  3.6541330814361568 41.1826019287109375
  9.7543268203735352 12.7286453247070312 41.2707405090332031
  3.8375394344329834  8.0907573699951172 41.1151733398437500
  3.6530191162601113 17.2101083397865331 41.0278930664062500
 12.6863660812377930  8.4089422225952148 41.2718887329101562
 12.7331642368808389 17.3315704464912415 41.2502441406250000
  8.1721754074096680  5.3571567535400391 41.1472244262695312
  8.0806283950805664 14.3701314926147443 41.2298431396484375
 17.2143086791038513  5.2434158325195312 41.1434173583984375
 17.2583845853805542 14.4688577651977539 41.1752433776855469
  5.3403530120849609  0.7786906361579895 41.1854095458984446
  5.2870855331420898  9.9748754501342773 41.1670875549316406
 14.4512033462524414  0.8615707755088806 41.0506896972656321
 14.5982675552368164  9.7881250381469727 41.2203750610351634
  0.8273094892501831  3.6869695186614990 47.0359649658203125
  0.8248501420021057 12.7183685302734375 47.0359649658203125
  9.8577098846435547  3.6869695186614990 47.0359649658203125
  9.8552503585815412 12.7183685302734375 47.0359649658203125
  3.6843190193176270  8.2023353576660156 47.0346527099609375
  3.6818594932556152 17.2337341308593750 47.0346527099609375
 12.7147188186645508  8.2023353576660156 47.0346527099609375
 12.7122592926025391 17.2337341308593750 47.0346527099609375
  8.2006769180297852  5.3445744514465332 47.0360260009765696
  8.1982173919677734 14.3759746551513672 47.0360260009765696
 17.2310771942138672  5.3445744514465332 47.0360260009765696
 17.2286186218261719 14.3759746551513672 47.0360260009765696
  5.3436489105224600  0.8290914893150328 47.0346527099609375
  5.3411893844604483  9.8604917526245117 47.0346527099609375
 14.3740482330322266  0.8290914893150328 47.0346527099609375
 14.3715896606445312  9.8604917526245117 47.0346527099609375
 13.8242940902709961 10.0974197387695312 34.7043647766113352
  8.9864873886108398  0.2124756127595901 34.5010795593261719
  8.7662334442138672  9.3043508529663086 34.6983222961425781
 18.0105387046933174  0.0477203764021397 34.4949951171875000
  0.3638939559459686  9.2482557296752930 34.7745285034179688
  4.5501775741577148  4.4373836517333984 34.4281234741210938
  4.5231461524963379 13.6168327331542969 34.5058822631835938
 13.2203588485717773  4.1380648612976074 34.8469276428222656
 13.1785926818847638 13.9209423065185529 34.1684455871582031
  0.1001250892877579  0.0371275320649147 40.8784294128417969
  0.2209458649158478  9.0802574157714844 41.0187454223632812
  9.0362081527709943  0.0482429452240467 40.9124908447265625
  9.0643081665039062  8.9924449920654297 40.9684181213378977
  4.5082268714904785  4.4157247543334961 40.9221878051757884
  4.4534044265747070 13.5768537521362305 40.8982887268066477
 13.4320459365844727  4.5637588500976562 41.0058059692382812
 13.5682058334350586 13.6419906616210938 40.8703384399414062
  2.5865011215209961  1.9212568998336792 37.9497337341308594
  2.6842737197875977 10.9829101562500000 38.0651130676269602
 11.6203613281249982  1.8684267997741699 38.0934333801269531
 11.2713899612426758 11.3283090591430664 38.3133316040039134
  6.4127259254455566  7.0993356704711914 38.0178833007812571
  6.4689626693725586 16.1586532592773438 38.0807991027832031
 15.7823705673217773  6.8073248863220215 38.2587471008300781
 15.4216508865356445 16.1875171661376953 38.0812339782714844
  1.9954497814178467  6.4170022010803223 38.0275421142578125
  2.0628058910369873 15.6241226196289062 38.1403999328613281
 10.7141571044921875  6.2284359931945801 37.9561843872070312
 10.8926610946655273 15.5567550659179688 38.1316528320312500
  7.1287007331848145  2.5393459796905518 38.0357513427734446
  7.0673251152038565 11.5740671157836914 38.1688919067382884
 16.0693492889404297  2.5208218097686768 38.0273818969726562
 16.4483146667480469 11.6845369338989258 38.3281898498535156
  0.0000000000000000  0.0000000000000000 47.1735610961914062
 -0.0024593239650130  9.0313997268676740 47.1735610961914062
  9.0304002761840803  0.0000000000000000 47.1735610961914062
  9.0279407501220685  9.0313997268676740 47.1735610961914062
  4.5139794349670410  4.5156998634338379 47.1742515563964844
  4.5115203857421875 13.5470991134643537 47.1742515563964844
 13.5443792343139648  4.5156998634338379 47.1742515563964844
 13.5419197082519531 13.5470991134643537 47.1742515563964844
  2.4519233703613277  2.0629522800445557 44.0401268005371165
  2.4494640827178955 11.0943517684936523 44.0401268005371165
 11.4823226928710920  2.0629522800445557 44.0401268005371165
 11.4798641204833984 11.0943517684936523 44.0401268005371165
  6.5760178565979004  6.9684472084045410 44.0401268005371165
  6.5735583305358887 15.9998464584350586 44.0401268005371165
 15.6064186096191406  6.9684472084045410 44.0401268005371165
 15.6039590835571289 15.9998464584350586 44.0401268005371165
  2.0610768795013428  6.5788145065307617 44.0400009155273509
  2.0586175918579102 15.6102142333984375 44.0400009155273509
 11.0914773941040039  6.5788145065307617 44.0400009155273509
 11.0890178680419922 15.6102142333984375 44.0400009155273509
  6.9668641090393066  2.4525938034057613 44.0400657653808665
  6.9644045829772949 11.4839935302734375 44.0400657653808665
 15.9972639083862305  2.4525938034057613 44.0400657653808665
 15.9948053359985352 11.4839935302734375 44.0400657653808665
  2.4316265583038330  2.0832188129425049 50.0684852600097656
  2.4291670322418213 11.1146183013915998 50.0684852600097656
 11.4620265960693359  2.0832188129425049 50.0684852600097656
 11.4595670700073224 11.1146183013915998 50.0684852600097656
  6.5963144302368164  6.9481806755065918 50.0684852600097656
  6.5938549041748047 15.9795799255371076 50.0684852600097656
 15.6267137527465803  6.9481806755065918 50.0684852600097656
 15.6242542266845703 15.9795799255371076 50.0684852600097656
  2.0811281204223633  6.5990090370178223 50.0690460205078125
  2.0786688327789307 15.6304082870483398 50.0690460205078125
 11.1115283966064453  6.5990090370178223 50.0690460205078125
 11.1090688705444336 15.6304082870483398 50.0690460205078125
  6.9468131065368652  2.4323906898498531 50.0690460205078125
  6.9443535804748535 11.4637899398803711 50.0690460205078125
 15.9772129058837891  2.4323906898498531 50.0690460205078125
 15.9747543334960938 11.4637899398803711 50.0690460205078125
 18.0357055366039276  0.0170448720455170 37.7000007629394531
  0.0487902350723743  9.0992660522460938 37.8802680969238281
  8.9665327072143555  0.0919869393110275 37.6147422790527344
  8.9986314773559570  8.9915962219238281 37.8092346191406250
  4.5506582260131836  4.5247445106506348 37.6926460266113352
  4.4778738021850586 13.5274753570556641 37.6598930358886719
 13.4259901046752930  4.5315589904785156 37.8791656494140625
 13.4405136108398438 13.7723665237426758 37.8282775878906250
  0.0000090280000222  0.0000090310004452 44.0429992675781250
 -0.0024502959568053  9.0314083099365234 44.0429992675781250
  9.0304088592529297  0.0000090310004452 44.0429992675781250
  9.0279493331909180  9.0314083099365234 44.0429992675781250
  4.5139703750610352  4.5156903266906738 44.0427513122558594
  4.5115113258361816 13.5470905303955078 44.0427513122558594
 13.5443706512451172  4.5156903266906738 44.0427513122558594
 13.5419111251831037 13.5470905303955078 44.0427513122558594
  0.0000000000000000  0.0000000000000000 50.4472808837890696
 -0.0024593239650130  9.0313997268676740 50.4472808837890696
  9.0304002761840803  0.0000000000000000 50.4472808837890696
  9.0279407501220685  9.0313997268676740 50.4472808837890696
  4.5139703750610352  4.5156998634338379 50.4472808837890696
  4.5115113258361816 13.5470991134643537 50.4472808837890696
 13.5443706512451172  4.5156998634338379 50.4472808837890696
 13.5419111251831055 13.5470991134643537 50.4472808837890696
