 H  C  N  I Pb 
 1.0000000000000000
    18.0608005523681641    0.0000000000000000    0.0000000000000000
    -0.0049186488613486   18.0627994537353516    0.0000000000000000
     0.0000000000000000    0.0000000000000000   62.4874992370605469
 H   C   N   I   Pb 
 143  39  47  72  24
Cartesian
  7.3712162971496582  5.0803055763244629 35.2520294189453125
  7.4769830703735352 12.6069059371948242 35.7656822204589915
 16.7455520629882812  5.2649264335632324 36.2731781005859375
 16.8006324768066406 14.7349424362182617 35.8214683532714844
  5.8509225845336914  1.6737121343612671 35.2652931213378906
  5.7970833778381348 10.3923501968383789 35.5731430053711009
 14.4931697845458984  1.8303699493408203 35.4407997131347656
  1.9958343505859379  4.3579483032226562 35.1248435974121094
  1.4097404479980498 12.2891092300415039 35.5920104980468750
 10.6180934906005859  3.3952126502990723 35.2974739074707031
 10.8366069793701172 13.6379518508911133 34.9195823669433665
  6.8239908218383789  0.3453881740570068 34.6526947021484375
  4.5779147148132324 11.2491111755371076 34.6575393676757812
 15.8121500015258789  0.8209340572357178 34.8282928466796946
  1.1487255096435545  5.1992878913879386 36.3962593078613352
 17.9299297332763672 12.5522966384887678 36.3614654541015625
  8.9183559417724609  3.1185300350189209 35.6816940307617188
  9.9438619613647461 12.4881019592285156 35.8802642822265625
  5.5621571540832520  7.9217629432678214 35.7738761901855469
  3.4091265201568604  1.2322818040847778 35.5836601257324219
 12.2995414733886719  0.6109450459480286 35.8202285766601562
  8.1759433746337891  6.5705027580261230 34.7829513549804688
  6.7707123756408691 13.8165521621704084 34.7138252258300781
 15.9857559204101562  4.3738179206848145 34.9845962524414062
 17.6493282318115234 15.7689657211303711 34.7208480834960938
  4.2420988082885742  7.1943774223327637 34.9093132019043040
  2.7911512115970254 17.8064163923263550 34.9543571472168040
 12.2573494175449014 17.0103505849838292 35.2693328857421875
 10.2869720458984357  5.5735468864440909 34.6721420288085938
  8.9003562927246094 14.6283826828002930 34.0617942810058594
  0.0017204284667945  3.6658825874328613 34.0799255371093821
  1.3139801025390645 14.2574586868286133 34.3738021850585938
  3.4297611713409424  9.2565650939941406 34.1336669921875000
  4.9220833042636514 17.0315792560577393 34.3354873657226562
 14.4525694111362082 17.0105187892913818 34.5995903015136719
  8.1876945495605469  5.3231658935546875 42.0486679077148509
  7.9669589996337882 14.6781244277954102 41.9296913146972727
 17.3274874687194860  5.1113247871398926 42.3367424011230540
 16.5069317817687988 13.3498792648315430 41.6674957275390696
  5.3857111930847168  0.7675786018371582 42.1679000854492188
  5.4570379257202148 10.1086053848266602 42.0930938720703196
 14.4039602279663068  0.9733262658119202 42.1799697875976634
 15.0092201232910156  8.8570146560668945 41.7542495727539062
  1.6425796747207642  3.0924429893493648 40.4149894714355469
  1.9198329448699949 12.6319351196289062 40.8169937133789062
 10.4345493316650391  2.9530906677246094 40.4204940795898438
 10.3934583663940430 12.2016630172729492 40.7043533325195384
  3.3679354190826416  7.4372410774230948 40.6892700195312571
  2.9339987495914097 16.8022437095642090 40.3533554077148438
 11.5196971893310547  8.4806041717529297 40.7591209411621094
 12.1717371204867959 16.5759449005126953 40.6220855712890696
  1.1580951213836670  3.4063174724578853 42.0565452575683594
  0.4926796853542328 11.8685503005981445 41.4501800537109375
  9.8297700881958008  3.3780395984649658 41.9975662231445312
  9.8148479461669904 12.8844594955444318 42.2020263671875000
  3.9050211906433105  8.0581350326538086 42.2328491210937571
  3.3566948631778359 17.2446939945220947 41.9935264587402415
 12.6564416885375977  7.8648176193237305 41.9174232482910156
 12.6142324665561301 17.1763238310813904 42.2049789428711009
  7.9098091125488281  6.1106057167053223 40.5202941894531250
  7.5048551559448242 14.9812088012695312 40.2769889831542969
 16.7248175144195557  5.7817859649658203 40.8381118774414134
 16.7174139022827148 14.9991540908813477 41.1319160461425852
  6.1636142730712891  1.1260973215103149 40.6671333312988281
  5.7725758552551270 10.6623287200927734 40.4739074707031321
 14.9574213027954102  1.4289879798889160 40.5906944274902344
 15.2215023040771484 10.0699720382690430 40.5299797058105469
  0.1016444042325020  4.5621342658996582 39.5196647644042969
  0.8603582382202148 14.6767902374267560 40.4677085876464844
  9.2787170410156232  4.6596102714538574 39.3479423522949219
  8.9949989318847656 13.4655618667602539 39.3874168395996094
  4.6561364391818643 17.9625004231929779 39.4040222167968750
  4.4908509254455566  9.0230836868286133 39.4712142944336009
 13.6090845325961709 17.9636540710926056 39.5042343139648438
 13.0370111465454102  9.9130544662475586 39.7681579589843750
  8.1032123565673828  5.4420318603515616 48.0459518432617259
  8.1007528305053711 14.4734306335449219 48.0459518432617259
 17.1336116790771484  5.4420318603515616 48.0459518432617259
 17.1311531066894531 14.4734306335449219 48.0459518432617259
  5.4410333633422852  0.9265221953392029 48.0449485778808594
  5.4385743141174316  9.9579219818115234 48.0449485778808594
 14.4714326858520490  0.9265221953392029 48.0449485778808594
 14.4689741134643555  9.9579219818115234 48.0449485778808594
  1.4218254089355467  3.0919990539550781 46.4558296203613281
  1.4193661212921143 12.1233978271484375 46.4558296203613281
 10.4522256851196289  3.0919990539550781 46.4558296203613281
 10.4497661590576172 12.1233978271484375 46.4558296203613281
  3.0899283885955806  7.6075901985168457 46.4545211791992188
  3.0874691009521484 16.6389904022216797 46.4545211791992188
 12.1203289031982422  7.6075901985168457 46.4545211791992188
 12.1178693771362305 16.6389904022216797 46.4545211791992188
  0.9247469902038573  3.5893490314483643 48.0459518432617259
  0.9222877025604248 12.6207475662231445 48.0459518432617259
  9.9551477432250977  3.5893490314483643 48.0459518432617259
  9.9526882171630859 12.6207475662231445 48.0459518432617259
  3.5868983268737793  8.1048498153686523 48.0448913574218821
  3.5844390392303462 17.1362495422363281 48.0448913574218821
 12.6172990798950195  8.1048498153686523 48.0448913574218821
 12.6148395538330078 17.1362495422363281 48.0448913574218821
  7.6061611175537109  5.9393639564514160 46.4558296203613281
  7.6037015914916992 14.9707632064819336 46.4558296203613281
 16.6365604400634766  5.9393639564514160 46.4558296203613281
 16.6341018676757812 14.9707632064819336 46.4558296203613281
  5.9380125999450684  1.4238001108169553 46.4545211791992188
  5.9355530738830566 10.4551992416381836 46.4545211791992188
 14.9684123992919904  1.4238001108169553 46.4545211791992188
 14.9659538269042951 10.4551992416381836 46.4545211791992188
 -0.0011664569610730  4.5157265663146973 45.3548011779785156
 -0.0036257810425013 13.5471258163452148 45.3548011779785156
  9.0292339324951172  4.5157265663146973 45.3548011779785156
  9.0267744064331037 13.5471258163452148 45.3548011779785156
  4.5152091979980469  0.0000000000000000 45.3536758422851562
  4.5127501487731934  9.0313997268676740 45.3536758422851562
 13.5456094741821289  0.0000000000000000 45.3536758422851562
 13.5431499481201172  9.0313997268676740 45.3536758422851562
 14.4440593719482422  9.1829242706298828 32.1410522460937500
 15.8657646179199219  9.0451345443725586 33.1868972778320312
 13.7363519668579102 11.2109851837158203 33.2411460876464844
 13.7060394287109375 11.2672348022460938 34.9998245239257812
 12.4007949829101562  8.0548353195190430 34.3885803222656250
 12.0867738723754865  9.7273349761962891 34.8553962707519531
 14.3827171325683594  7.6794395446777344 35.4044303894042969
 15.6301269531250000  8.9513883590698242 35.5635604858398438
 15.4812927246093750  6.7702770233154297 33.6952476501464844
 13.7766199111938477  6.8049983978271484 33.2815170288086009
 14.1483659744262695  6.9092855453491211 30.9520320892334020
 15.8233356475830078  7.3784589767456055 31.1088809967041051
 16.2116985321044922 11.1744890213012678 33.1869125366210938
 16.2939052581787109 10.9377145767211914 34.9492988586425781
 15.6459074020385724 12.4459209442138654 34.2850379943847656
 10.8369293212890607  9.2524242401123029 32.8535995483398438
 12.2849092483520508  8.7570867538452148 31.9262428283691406
 12.0387687683105469 10.4617481231689453 32.4274597167968750
 12.7699794769287109  9.1243295669555664 36.7086105346679759
 14.0397462844848633 10.3535871505737305 36.9209022521972656
 14.2299308776855469  8.7269868850708008 37.5895919799804688
 14.8319606781005859  4.6391930580139160 32.0372886657714844
 15.2769699096679688  4.9521365165710449 30.3777389526367223
 16.6993904113769531  2.8859965801239014 31.1553554534912109
 17.5745429992675781  6.9412775039672843 32.3531608581543040
  1.0088310241699205  2.2848174571990967 31.4830455780029297
  1.8462085723876935  6.3475937843322754 32.6650810241699219
  2.6519699096679710  4.0196137428283691 32.2246093750000000
 18.0271739959716797  4.2945623397827148 34.9747390747070312
  0.4798488616943393 13.9911251068115234 35.0310592651367188
  9.4190368652343732  4.9716815948486328 34.9479560852050781
  8.8264579772949219 13.7678089141845703 34.7334098815917969
  4.3504939079284668  9.2214546203613281 34.7207832336425781
  4.8144139507785431 18.0349974036216736 34.7475891113281321
 14.0321869114413857 17.9313738048076630 34.9967842102050781
  0.1495099514722824  4.4363942146301270 40.6017608642578196
  0.3080438077449798 13.8390150070190430 40.9185752868652344
  9.1740503311157209  4.5299215316772461 40.4346656799316406
  8.9530725479125977 13.5912780761718750 40.4762077331542969
  4.5700736045837402  9.0402946472167969 40.5627822875976562
  4.5378240803256631 17.9969004839658737 40.4862556457519602
 13.3653335571289062  9.2882394790649414 40.6024665832519531
 13.5633396366611123 18.0201267451047933 40.5951957702636719
  9.0289716720581055  4.5156092643737793 46.4455223083496165
  9.0265130996704102 13.5470085144042969 46.4455223083496165
 18.0593719482421875  4.5156092643737793 46.4455223083496165
 18.0569133758544922 13.5470085144042969 46.4455223083496165
  4.5152091979980469  0.0000180629995157 46.4442062377929759
  4.5127501487731934  9.0314178466796857 46.4442062377929759
 13.5456094741821289  0.0000180629995157 46.4442062377929759
 13.5431499481201172  9.0314178466796857 46.4442062377929759
 16.9438724517822266  4.9547996520996094 31.7012901306152344
 17.3997077941894531  3.6542828083038326 31.4828147888183629
 17.8787117004394531  5.9165143966674805 32.1277923583984375
  0.6894664764404295  3.3131177425384521 31.6477165222168004
  1.1579380035400388  5.5774693489074707 32.3096199035644602
  1.6079120635986344  4.2790575027465820 32.0545387268066406
 14.8248100280761719  8.7258672714233398 33.0603828430175781
 14.2582702636718750 10.8728475570678711 34.1442527770996094
 12.5505599975585938  9.1035499572753906 34.0806465148925781
 14.5468130111694336  8.7645883560180664 35.5144119262695312
 14.7579498291015607  7.2034173011779785 32.9882087707519531
 15.0538740158081037  6.7465944290161133 31.5553226470947230
 15.6953153610229492 11.3600406646728516 34.1363372802734375
 11.9220266342163086  9.4067049026489258 32.7335433959960938
 13.8394842147827148  9.2925939559936506 36.7339286804199219
 15.4823722839355451  5.2765302658081055 31.4139919281005859
  1.1038131713867165  4.6215467453002930 35.5396842956543040
  0.5584239959716825 12.8387413024902344 35.6498260498046946
  9.6447010040283203  3.7071626186370850 35.2561111450195312
  9.9296483993530273 13.2195596694946289 35.1615028381347727
  8.2285232543945312  5.5517354011535645 34.9337654113769602
  7.6164608001708975 13.3500471115112305 35.0586509704589844
 16.8552570343017578  4.6803388595581055 35.4265403747558594
 17.5260734558105469 14.8281326293945312 35.1072998046875000
  4.7544856071472168  8.0443611145019531 35.1447601318359446
  3.6103074550628658  0.3492649197578430 35.0847740173339915
 12.7677110889926553 17.8977047502994537 35.3368110656738281
  5.8861665725708008  0.7228978872299194 34.8668174743652344
  4.9706635475158691 10.3519315719604474 34.9639625549316477
 14.8240642547607422  0.9104834794998168 35.1044311523437571
  1.0291171073913574  3.5899930000305176 41.0646743774414062
  0.9303170442581177 12.7060518264770508 41.0724754333496094
  9.8447885513305664  3.5604083538055420 40.9938812255859375
  9.7623949050903320 12.8434944152832013 41.1931571960449219
  3.9122843742370605  8.1259508132934570 41.2194366455078125
  3.5439340332522988 17.3156404495239258 40.9936752319335938
 12.4698762893676758  8.4813470840454102 41.1240768432617188
 12.7421097019687277 17.2060044407844579 41.1955947875976562
  8.3738937377929688  5.3736796379089347 41.0554580688476562
  8.0875711441040039 14.4650917053222656 40.9394454956054688
 17.3745191097259557  5.1459941864013663 41.3187751770019531
 17.1129112243652344 14.0673370361328125 41.2539253234863281
  5.4064383506774902  0.6573337316513062 41.1559677124023438
  5.3121800422668457  9.9944496154785156 41.0963478088378906
 14.3507966995239240  0.8467960953712463 41.1764907836914062
 14.6049957275390625  9.4025754928588867 40.9942626953125071
  0.8273094892501831  3.6869695186614990 47.0359649658203125
  0.8248501420021057 12.7183685302734375 47.0359649658203125
  9.8577098846435547  3.6869695186614990 47.0359649658203125
  9.8552503585815412 12.7183685302734375 47.0359649658203125
  3.6843190193176270  8.2023353576660156 47.0346527099609375
  3.6818594932556152 17.2337341308593750 47.0346527099609375
 12.7147188186645508  8.2023353576660156 47.0346527099609375
 12.7122592926025391 17.2337341308593750 47.0346527099609375
  8.2006769180297852  5.3445744514465332 47.0360260009765696
  8.1982173919677734 14.3759746551513672 47.0360260009765696
 17.2310771942138672  5.3445744514465332 47.0360260009765696
 17.2286186218261719 14.3759746551513672 47.0360260009765696
  5.3436489105224600  0.8290914893150328 47.0346527099609375
  5.3411893844604483  9.8604917526245117 47.0346527099609375
 14.3740482330322266  0.8290914893150328 47.0346527099609375
 14.3715896606445312  9.8604917526245117 47.0346527099609375
 14.0595941543579084  9.3659038543701172 34.1926727294921875
  9.2058719852939248 17.6742214262485504 34.5402679443359375
  8.5108757019042969  9.1668701171875000 34.5729141235351562
  0.1524627655744552  0.2275536656379700 34.4381675720214844
  0.5845617055892944  8.8683071136474609 34.6486587524414062
  4.6274199485778809  4.3672451972961426 34.6664505004882812
  4.1622581481933594 13.8459672927856445 34.4339523315429759
 13.2810220718383789  4.1069126129150391 34.6723861694335938
 13.1502361297607422 14.3766727447509766 34.6355972290039062
 17.9820955256000197 17.7655764222145081 40.8806037902832031
  0.1292625665664673  9.0936651229858398 40.9502792358398509
  8.9812479019165039  0.0240464136004448 40.8987464904785227
  8.9521331787109375  9.0463838577270508 40.8765830993652344
  4.7597932815551758  4.3379869461059570 40.9557151794433594
  4.4340486526489258 13.6137781143188477 40.8527374267578196
 13.4303464889526367  4.7189617156982422 40.9458312988281321
 13.5402746200561523 13.3003005981445312 40.9251022338867188
  2.4611320495605469  2.1176333427429199 38.0601577758789134
  2.6510665416717525 10.9909048080444336 37.8751564025878906
 11.5597448348999023  2.0039741992950439 38.0477409362792969
 11.1560287475585920 11.3885202407836914 37.9941940307617188
  6.6422433853149414  6.9505138397216797 38.0238380432128906
  6.5822453498840332 16.0077381134033203 37.8397064208984375
 16.0272865295410156  6.5865492820739746 38.2467155456543040
 15.5820083618164062 16.0960960388183594 37.8426780700683594
  2.2791130542755127  6.6760368347167969 38.1825218200683594
  2.0916028022766113 15.7586812973022461 37.8536033630371094
 11.1361103057861328  6.6675753593444824 37.6001472473144531
 11.1117820739746094 15.6027326583862305 38.2407951354980540
  7.1678733825683594  2.5354979038238525 37.7370300292968750
  6.8416194915771475 11.4277963638305664 37.9687271118164062
 15.9287376403808594  2.4021987915039062 38.2827682495117259
 16.2954730987548828 11.7087507247924805 38.1479301452636719
  0.0000000000000000  0.0000000000000000 47.1735610961914062
 -0.0024593239650130  9.0313997268676740 47.1735610961914062
  9.0304002761840803  0.0000000000000000 47.1735610961914062
  9.0279407501220685  9.0313997268676740 47.1735610961914062
  4.5139794349670410  4.5156998634338379 47.1742515563964844
  4.5115203857421875 13.5470991134643537 47.1742515563964844
 13.5443792343139648  4.5156998634338379 47.1742515563964844
 13.5419197082519531 13.5470991134643537 47.1742515563964844
  2.4519233703613277  2.0629522800445557 44.0401268005371165
  2.4494640827178955 11.0943517684936523 44.0401268005371165
 11.4823226928710920  2.0629522800445557 44.0401268005371165
 11.4798641204833984 11.0943517684936523 44.0401268005371165
  6.5760178565979004  6.9684472084045410 44.0401268005371165
  6.5735583305358887 15.9998464584350586 44.0401268005371165
 15.6064186096191406  6.9684472084045410 44.0401268005371165
 15.6039590835571289 15.9998464584350586 44.0401268005371165
  2.0610768795013428  6.5788145065307617 44.0400009155273509
  2.0586175918579102 15.6102142333984375 44.0400009155273509
 11.0914773941040039  6.5788145065307617 44.0400009155273509
 11.0890178680419922 15.6102142333984375 44.0400009155273509
  6.9668641090393066  2.4525938034057613 44.0400657653808665
  6.9644045829772949 11.4839935302734375 44.0400657653808665
 15.9972639083862305  2.4525938034057613 44.0400657653808665
 15.9948053359985352 11.4839935302734375 44.0400657653808665
  2.4316265583038330  2.0832188129425049 50.0684852600097656
  2.4291670322418213 11.1146183013915998 50.0684852600097656
 11.4620265960693359  2.0832188129425049 50.0684852600097656
 11.4595670700073224 11.1146183013915998 50.0684852600097656
  6.5963144302368164  6.9481806755065918 50.0684852600097656
  6.5938549041748047 15.9795799255371076 50.0684852600097656
 15.6267137527465803  6.9481806755065918 50.0684852600097656
 15.6242542266845703 15.9795799255371076 50.0684852600097656
  2.0811281204223633  6.5990090370178223 50.0690460205078125
  2.0786688327789307 15.6304082870483398 50.0690460205078125
 11.1115283966064453  6.5990090370178223 50.0690460205078125
 11.1090688705444336 15.6304082870483398 50.0690460205078125
  6.9468131065368652  2.4323906898498531 50.0690460205078125
  6.9443535804748535 11.4637899398803711 50.0690460205078125
 15.9772129058837891  2.4323906898498531 50.0690460205078125
 15.9747543334960938 11.4637899398803711 50.0690460205078125
 18.0294514074921608  0.1165914684534073 37.7528305053710938
  0.1643465459346771  9.0713939666748047 37.7413940429687571
  9.0556015232577920 17.9532536566257477 37.6794090270996094
  9.0119953155517578  9.0396947860717773 37.6663360595703125
  4.6134381294250488  4.4965977668762207 37.8687171936035156
  4.4169449806213379 13.6695251464843750 37.6929588317871094
 13.5134496688842756  4.5366230010986328 37.8544235229492188
 13.5495977401733398 13.6909875869750977 37.7978019714355540
  0.0000090280000222  0.0000090310004452 44.0429992675781250
 -0.0024502959568053  9.0314083099365234 44.0429992675781250
  9.0304088592529297  0.0000090310004452 44.0429992675781250
  9.0279493331909180  9.0314083099365234 44.0429992675781250
  4.5139703750610352  4.5156903266906738 44.0427513122558594
  4.5115113258361816 13.5470905303955078 44.0427513122558594
 13.5443706512451172  4.5156903266906738 44.0427513122558594
 13.5419111251831037 13.5470905303955078 44.0427513122558594
  0.0000000000000000  0.0000000000000000 50.4472808837890696
 -0.0024593239650130  9.0313997268676740 50.4472808837890696
  9.0304002761840803  0.0000000000000000 50.4472808837890696
  9.0279407501220685  9.0313997268676740 50.4472808837890696
  4.5139703750610352  4.5156998634338379 50.4472808837890696
  4.5115113258361816 13.5470991134643537 50.4472808837890696
 13.5443706512451172  4.5156998634338379 50.4472808837890696
 13.5419111251831055 13.5470991134643537 50.4472808837890696
