 H  C  N  I Pb 
 1.0000000000000000
    18.0608005523681641    0.0000000000000000    0.0000000000000000
    -0.0049186488613486   18.0627994537353516    0.0000000000000000
     0.0000000000000000    0.0000000000000000   62.4874992370605469
 H   C   N   I   Pb 
 143  39  47  72  24
Cartesian
  7.9560074806213379  5.4382667541503906 36.1231765747070312
  7.9496660232543945 14.8725252151489240 36.2372436523437571
 17.6587276458740234  5.5440826416015616 36.2432975769042969
 17.5243225097656250 14.4680814743041992 36.4264068603515625
  5.6846551895141602  0.2020508050918579 36.3436660766601634
  5.5387263298034668  9.9834289550781250 36.3068428039550781
 14.0231666564941406  1.1422265768051147 36.4477920532226634
  1.1415004730224638  2.4927983283996582 35.0895881652832031
  1.0795612335205060 11.6917362213134766 34.7762870788574219
 10.6954708099365217  3.5124628543853755 34.7070159912109375
 10.0323390960693359 12.1060838699340820 35.0677566528320312
  6.1574306488037109  1.0364336967468262 34.8731765747070384
  5.4470834732055664 10.8920497894287092 34.8217811584472656
 15.0979909896850568  1.3278030157089233 35.0868072509765625
  0.6252727508544937  3.2901329994201660 36.5424575805664134
  0.6388645172119156 12.2682065963745117 36.3731651306152344
 10.2587156295776367  4.5508484840393058 36.0549430847168040
  9.1191587448120117 12.5594720840454084 36.3990859985351562
  4.1502752304077148  7.8924350738525391 36.4133338928222656
  3.4349121311679482 17.1443140506744420 36.3420677185058665
 12.3968872288241982 17.3416796326637268 36.3489723205566406
  6.8884387016296378  4.9862823486328125 34.8196449279785156
  8.2891454696655273 15.7645072937011719 34.7982902526855469
 17.6148433685302734  6.2056717872619620 34.6479225158691477
 17.2192325592041016 15.2739982604980469 34.8870086669921875
  3.2156033515930176  7.5164966583251953 34.9861450195312500
  2.4775256374850869 17.3701635599136353 34.8974113464355469
 12.4445938328281027 16.3196455240249634 34.8975715637207031
  8.5292634963989258  3.7203011512756343 33.7422447204589844
  9.6408910751342773 14.0703201293945312 33.8821830749511719
  0.5038795471191412  4.2051672935485840 33.7371025085449219
  0.1452980041503905 13.5181207656860334 33.6812782287597656
  3.9645922183990479  9.3802680969238263 33.8344917297363352
  4.1382813453674316  0.5565415620803833 33.8238220214843750
 14.1579136112704873 17.5523596405982971 33.9628486633300781
  8.2437324523925781  5.5791902542114258 42.2045936584472656
  7.8620953559875488 14.6530113220214844 42.1039695739746165
 17.3396787047386169  5.1894083023071289 42.4657020568847727
 16.9230813980102539 14.4632167816162109 42.2352180480957031
  5.3794989585876465  0.9238313436508179 42.2094993591308594
  5.4094219207763672  9.9969062805175763 42.2632560729980540
 14.4663057327270508  0.9288443922996520 42.1540870666503906
 14.5192947387695312 10.4145793914794922 42.0041961669921875
  1.4952456951141357  3.0239439010620117 40.4405593872070384
  1.6592218875885010 12.4407262802124023 40.9252777099609375
 10.3192720413208008  2.9319059848785400 40.6941566467285156
 10.3320350646972656 12.2179965972900391 40.9184341430664134
  3.2971560955047607  7.4930672645568839 40.5706024169921875
  3.1270896652713418 16.5417149066925049 40.6365356445312571
 12.3630867004394513  7.5499386787414551 41.1111564636230469
 12.0418171146884561 16.7121453285217285 40.5968132019042969
  1.1285347938537598  3.3518111705780029 42.0938644409179688
  0.7810570001602172 12.6586551666259766 42.3906898498535156
 10.2017488479614258  3.7700645923614502 42.1924858093261719
  9.7017698287963867 12.8330450057983398 42.4094085693359375
  3.7845020294189453  7.9604692459106445 42.1738128662109446
  3.5637952545657754 17.1135021448135412 42.2265548706054688
 12.7233524322509748  8.5537281036376953 42.5009574890136719
 12.5042947987094522 17.2782921195030212 42.1780815124511719
  7.3582758903503409  5.6682152748107910 40.7264709472656250
  7.4874925613403320 15.0209236145019513 40.4566459655761719
 16.7185626029968262  5.8375186920166016 40.9745788574218750
 16.7954159975051880 15.1736660003662092 40.6784973144531250
  5.9289927482604980  1.3777558803558350 40.6348037719726562
  5.8164916038513184 10.6372995376586914 40.6936225891113352
 15.0938243865966779  1.2891163825988770 40.5755538940429688
 15.0755243301391602 10.4651365280151367 40.3387031555175781
 17.9850693494081533  4.6097068786621094 39.6237907409668040
  0.4853427410125732 14.0699338912963867 39.7580032348632812
  8.5573034286499023  4.0277857780456543 39.6462707519531250
  9.0180368423461914 13.5211248397827148 39.5868911743164062
  4.5795792797580361 17.9581061452627218 39.5130233764648438
  4.5217337608337402  9.1375455856323224 39.5145492553711009
 13.6448787907138449 17.9449968189001083 39.4692878723144531
 13.7618856430053711  8.6565513610839844 39.7024116516113281
  8.1032123565673828  5.4420318603515616 48.0459518432617259
  8.1007528305053711 14.4734306335449219 48.0459518432617259
 17.1336116790771484  5.4420318603515616 48.0459518432617259
 17.1311531066894531 14.4734306335449219 48.0459518432617259
  5.4410333633422852  0.9265221953392029 48.0449485778808594
  5.4385743141174316  9.9579219818115234 48.0449485778808594
 14.4714326858520490  0.9265221953392029 48.0449485778808594
 14.4689741134643555  9.9579219818115234 48.0449485778808594
  1.4218254089355467  3.0919990539550781 46.4558296203613281
  1.4193661212921143 12.1233978271484375 46.4558296203613281
 10.4522256851196289  3.0919990539550781 46.4558296203613281
 10.4497661590576172 12.1233978271484375 46.4558296203613281
  3.0899283885955806  7.6075901985168457 46.4545211791992188
  3.0874691009521484 16.6389904022216797 46.4545211791992188
 12.1203289031982422  7.6075901985168457 46.4545211791992188
 12.1178693771362305 16.6389904022216797 46.4545211791992188
  0.9247469902038573  3.5893490314483643 48.0459518432617259
  0.9222877025604248 12.6207475662231445 48.0459518432617259
  9.9551477432250977  3.5893490314483643 48.0459518432617259
  9.9526882171630859 12.6207475662231445 48.0459518432617259
  3.5868983268737793  8.1048498153686523 48.0448913574218821
  3.5844390392303462 17.1362495422363281 48.0448913574218821
 12.6172990798950195  8.1048498153686523 48.0448913574218821
 12.6148395538330078 17.1362495422363281 48.0448913574218821
  7.6061611175537109  5.9393639564514160 46.4558296203613281
  7.6037015914916992 14.9707632064819336 46.4558296203613281
 16.6365604400634766  5.9393639564514160 46.4558296203613281
 16.6341018676757812 14.9707632064819336 46.4558296203613281
  5.9380125999450684  1.4238001108169553 46.4545211791992188
  5.9355530738830566 10.4551992416381836 46.4545211791992188
 14.9684123992919904  1.4238001108169553 46.4545211791992188
 14.9659538269042951 10.4551992416381836 46.4545211791992188
 -0.0011664569610730  4.5157265663146973 45.3548011779785156
 -0.0036257810425013 13.5471258163452148 45.3548011779785156
  9.0292339324951172  4.5157265663146973 45.3548011779785156
  9.0267744064331037 13.5471258163452148 45.3548011779785156
  4.5152091979980469  0.0000000000000000 45.3536758422851562
  4.5127501487731934  9.0313997268676740 45.3536758422851562
 13.5456094741821289  0.0000000000000000 45.3536758422851562
 13.5431499481201172  9.0313997268676740 45.3536758422851562
 14.0717935562133789 10.0993547439575178 32.8124885559082102
 13.1058597564697266  8.6404991149902344 33.0037879943847656
 15.6659040451049805  9.1605577468872070 34.2061233520507812
 15.3559541702270508  8.7344589233398438 35.8766822814941406
 13.3379011154174787 11.5954370498657227 35.3490257263183665
 14.3693418502807599 10.6679039001464844 36.4525718688964915
 11.8054618835449219  9.6830081939697266 35.7155685424804688
 12.1234989166259766  8.1102628707885742 35.0916519165039062
 11.0968046188354492  9.8788070678710938 33.6765632629394531
 12.0983076095581037 11.3404512405395508 33.9040794372558594
 11.1183109283447266 11.8186712265014648 31.8366146087646484
 12.5717086791992188 10.9695911407470703 31.2637405395507812
 14.9788980484008771  7.0436258316040039 33.3492546081542969
 13.6890048980712873  6.8822646141052237 34.5068817138671875
 15.3080902099609375  6.4745416641235352 35.0321083068847656
 15.4218101501464844 12.4853124618530273 34.9454536437988281
 15.3536529541015625 11.4057512283325178 33.5715713500976562
 16.3125839233398438 10.9133052825927734 35.0082130432128906
 13.7136020660400373  9.1700057983398420 37.4684333801269531
 13.4569978713989258  7.5189599990844727 36.9912452697753906
 12.1404590606689453  8.4810295104980469 37.6386985778808594
  9.7721986770629883  9.6779499053955078 31.7510852813720739
 10.4603776931762695 10.1023550033569318 30.1774578094482457
 12.9291944503784180  8.9829330444335938 29.7577953338623082
  9.9170494079589844  7.5212965011596680 32.5102386474609375
 14.0994796752929688  6.8007249832153320 29.8959903717041016
 11.1689176559448224  5.3253431320190430 32.6565742492675781
 13.2585468292236328  4.9638309478759766 31.3821582794189453
  0.3368072509765640  4.3127570152282715 34.8106498718261719
  0.1024875640869143 13.4779539108276367 34.7752952575683594
  8.7781133651733398  4.2424511909484863 34.6683845520019531
  9.1716928482055664 13.9334964752197266 34.8544692993164134
  4.3314805030822754  9.2130918502807617 34.8511352539062500
  4.3253822326660156  0.1896684169769287 34.8376388549804688
 13.7720493534579855 17.8433027863502502 34.9431304931640625
  0.0543043166399002  4.4509415626525879 40.6823768615722656
  0.2030494958162308 13.8223114013671857 40.7690773010253906
  8.8189153671264648  4.2940244674682617 40.6705741882324219
  8.9191331863403320 13.6171483993530273 40.6596794128417969
  4.5644021034240723  9.0594415664672852 40.5963249206542969
  4.5321683147922158 17.9941879808902740 40.5983657836914062
 13.7236528396606445  9.0131092071533203 40.7226104736328125
 13.5656398991122842 18.0310501456260681 40.5507278442382812
  9.0289716720581055  4.5156092643737793 46.4455223083496165
  9.0265130996704102 13.5470085144042969 46.4455223083496165
 18.0593719482421875  4.5156092643737793 46.4455223083496165
 18.0569133758544922 13.5470085144042969 46.4455223083496165
  4.5152091979980469  0.0000180629995157 46.4442062377929759
  4.5127501487731934  9.0314178466796857 46.4442062377929759
 13.5456094741821289  0.0000180629995157 46.4442062377929759
 13.5431499481201172  9.0314178466796857 46.4442062377929759
 11.3421268463134748  8.3775110244750977 31.1389923095703125
 12.4989395141601562  8.1664018630981445 30.3766613006591832
 10.8312358856201172  7.3489151000976562 31.9398899078369176
 13.1785936355590820  6.9546995162963867 30.4555683135986364
 11.5104970932006836  6.1312384605407706 32.0082969665527344
 12.6958312988281250  5.9119110107421866 31.2888526916503942
 13.2715873718261719  9.6599674224853516 33.3860168457031250
 14.9559383392333984  8.6511526107788086 34.8521766662597656
 14.1681585311889648 10.8689517974853516 35.3865699768066477
 12.5753984451293945  8.9376211166381836 35.6562843322753977
 11.9475479125976545 10.4530534744262695 33.2770004272460938
 11.6288652420043945 10.8040266036987305 31.8169689178466797
 14.7259159088134748  7.1864099502563477 34.4095878601074219
 15.4059925079345685 11.4264335632324219 34.6765747070312500
 13.0166492462158203  8.4982175827026367 37.0126495361328125
 10.7106418609619141  9.7372007369995117 31.1782455444335973
  0.7363605499267587  3.2966487407684326 35.5357208251953125
  0.6456165313720731 12.4293756484985352 35.3518981933593750
  9.9793910980224609  4.0580353736877441 35.1815071105957031
  9.4778165817260742 12.8379678726196289 35.4960632324218821
  7.8304886817932129  4.9525141716003418 35.2211952209472656
  8.4173116683959961 14.8779706954956037 35.3014793395996094
 17.7969532012939453  5.3950200080871582 35.2446746826171875
 17.5786342620849609 14.4674711227416992 35.4139900207519531
  3.8896496295928955  8.1261377334594727 35.4525222778320384
  3.3662595013156533 17.5385594367980957 35.3966102600097656
 12.7839473942294717 17.1414897441864014 35.4207496643066406
  5.4650568962097168  0.5066484212875366 35.3867111206054759
  5.1512546539306641 10.0895175933837891 35.3606910705566477
 14.3775472640991211  0.7805038690567017 35.5564422607421875
  0.9382321834564208  3.5620205402374268 41.1233329772949219
  0.9214544892311096 12.9167585372924805 41.4130592346191406
  9.8412275314331055  3.6413273811340332 41.2453117370605469
  9.7001934051513672 12.8422946929931641 41.3923149108886719
  3.8374013900756831  8.1165428161621094 41.1482238769531250
  3.6747040012851357 17.1520923376083410 41.1847839355468750
 12.8998298645019513  8.3624801635742188 41.5135154724121094
 12.6341709354892373 17.2839143276214600 41.1436729431152415
  8.1120414733886719  5.2340626716613770 41.2461090087890696
  8.0454292297363281 14.4788055419921857 41.1166877746582102
 17.3472029566764832  5.1983585357666016 41.4456596374511790
 17.2641419768333471 14.5026035308837891 41.2785186767578125
  5.3200378417968750  0.7830934524536133 41.1875686645507812
  5.3144068717956543  9.9691476821899414 41.2246551513671875
 14.4188499450683594  0.7689447999000549 41.1321220397949290
 14.4632797241210938 10.0227003097534180 41.0651855468750071
  0.8273094892501831  3.6869695186614990 47.0359649658203125
  0.8248501420021057 12.7183685302734375 47.0359649658203125
  9.8577098846435547  3.6869695186614990 47.0359649658203125
  9.8552503585815412 12.7183685302734375 47.0359649658203125
  3.6843190193176270  8.2023353576660156 47.0346527099609375
  3.6818594932556152 17.2337341308593750 47.0346527099609375
 12.7147188186645508  8.2023353576660156 47.0346527099609375
 12.7122592926025391 17.2337341308593750 47.0346527099609375
  8.2006769180297852  5.3445744514465332 47.0360260009765696
  8.1982173919677734 14.3759746551513672 47.0360260009765696
 17.2310771942138672  5.3445744514465332 47.0360260009765696
 17.2286186218261719 14.3759746551513672 47.0360260009765696
  5.3436489105224600  0.8290914893150328 47.0346527099609375
  5.3411893844604483  9.8604917526245117 47.0346527099609375
 14.3740482330322266  0.8290914893150328 47.0346527099609375
 14.3715896606445312  9.8604917526245117 47.0346527099609375
 13.7340202331542969  9.5322999954223633 34.8208465576171875
  8.8420648574829102  0.2757499814033508 34.4649429321289134
  8.5245399475097656  9.3467760086059570 34.8858222961425852
  0.0242177015170455 17.9499546885490417 34.4743652343750000
  0.5763531923294067  8.7933454513549805 34.4423446655273438
  4.3863673210144043  4.4481854438781738 34.4889717102050781
  4.5416440963745117 13.5083179473876953 34.5483398437500000
 13.5818071365356445  3.9273512363433833 34.7330551147460938
 13.0989313125610352 14.0980224609375000 34.1949462890625000
  0.0488724866881967 18.0169262290000916 40.9082374572753906
  0.1768088936805725  9.1051378250122070 40.9110755920410227
  8.9877666691318154 18.0600323323160410 40.8294486999511719
  9.1545639038085938  8.7968559265136719 41.0106582641601562
  4.5243091583251953  4.4631271362304688 40.8425178527832031
  4.4974246025085449 13.6040325164794922 40.9396171569824219
 13.3713731765747070  4.5724415779113770 40.9407997131347727
 13.6573982238769531 13.7009286880493146 40.8421478271484446
  2.5901341438293457  1.8979794979095459 38.0817794799804759
  2.6164941787719727 10.9835290908813477 37.8987197875976634
 11.6607351303100586  1.8302670717239380 37.9720840454101562
 11.1887969970703125 11.4217042922973633 38.3733863830566406
  6.3518190383911133  7.1003632545471191 37.9372177124023438
  6.4219498634338379 16.0985813140869141 37.9328575134277415
 16.0373840332031250  6.6019344329833984 38.3817558288574219
 15.5222158432006836 16.1746788024902344 37.8750801086425781
  1.9901597499847412  6.4578657150268555 38.0486869812011719
  1.9631843566894531 15.5033750534057617 37.9114379882812500
 10.4531898498535156  5.9736213684082031 38.0755157470703125
 11.0166368484497070 15.5772743225097656 38.0491027832031250
  6.9440212249755850  2.4287021160125732 37.9980735778808594
  6.9356470108032227 11.4767494201660156 38.1898422241210938
 16.1121540069580078  2.5242681503295898 38.2132415771484446
 16.5283584594726562 11.8624019622802734 38.4138221740722656
  0.0000000000000000  0.0000000000000000 47.1735610961914062
 -0.0024593239650130  9.0313997268676740 47.1735610961914062
  9.0304002761840803  0.0000000000000000 47.1735610961914062
  9.0279407501220685  9.0313997268676740 47.1735610961914062
  4.5139794349670410  4.5156998634338379 47.1742515563964844
  4.5115203857421875 13.5470991134643537 47.1742515563964844
 13.5443792343139648  4.5156998634338379 47.1742515563964844
 13.5419197082519531 13.5470991134643537 47.1742515563964844
  2.4519233703613277  2.0629522800445557 44.0401268005371165
  2.4494640827178955 11.0943517684936523 44.0401268005371165
 11.4823226928710920  2.0629522800445557 44.0401268005371165
 11.4798641204833984 11.0943517684936523 44.0401268005371165
  6.5760178565979004  6.9684472084045410 44.0401268005371165
  6.5735583305358887 15.9998464584350586 44.0401268005371165
 15.6064186096191406  6.9684472084045410 44.0401268005371165
 15.6039590835571289 15.9998464584350586 44.0401268005371165
  2.0610768795013428  6.5788145065307617 44.0400009155273509
  2.0586175918579102 15.6102142333984375 44.0400009155273509
 11.0914773941040039  6.5788145065307617 44.0400009155273509
 11.0890178680419922 15.6102142333984375 44.0400009155273509
  6.9668641090393066  2.4525938034057613 44.0400657653808665
  6.9644045829772949 11.4839935302734375 44.0400657653808665
 15.9972639083862305  2.4525938034057613 44.0400657653808665
 15.9948053359985352 11.4839935302734375 44.0400657653808665
  2.4316265583038330  2.0832188129425049 50.0684852600097656
  2.4291670322418213 11.1146183013915998 50.0684852600097656
 11.4620265960693359  2.0832188129425049 50.0684852600097656
 11.4595670700073224 11.1146183013915998 50.0684852600097656
  6.5963144302368164  6.9481806755065918 50.0684852600097656
  6.5938549041748047 15.9795799255371076 50.0684852600097656
 15.6267137527465803  6.9481806755065918 50.0684852600097656
 15.6242542266845703 15.9795799255371076 50.0684852600097656
  2.0811281204223633  6.5990090370178223 50.0690460205078125
  2.0786688327789307 15.6304082870483398 50.0690460205078125
 11.1115283966064453  6.5990090370178223 50.0690460205078125
 11.1090688705444336 15.6304082870483398 50.0690460205078125
  6.9468131065368652  2.4323906898498531 50.0690460205078125
  6.9443535804748535 11.4637899398803711 50.0690460205078125
 15.9772129058837891  2.4323906898498531 50.0690460205078125
 15.9747543334960938 11.4637899398803711 50.0690460205078125
 18.0439336188137531  0.0388491936028004 37.7619857788086009
  0.1197554394602776  9.0537395477294904 37.7610244750976562
  9.0676670074462891  0.1027432382106781 37.6521835327148438
  8.9408369064331055  8.9531755447387695 37.8947525024414062
  4.4494519233703613  4.4638724327087402 37.6468544006347656
  4.4943761825561523 13.5348777770996094 37.5925445556640625
 13.4757852554321289  4.4687361717224121 37.7847518920898438
 13.5040683746337891 13.6779756546020508 37.7308006286621094
  0.0000090280000222  0.0000090310004452 44.0429992675781250
 -0.0024502959568053  9.0314083099365234 44.0429992675781250
  9.0304088592529297  0.0000090310004452 44.0429992675781250
  9.0279493331909180  9.0314083099365234 44.0429992675781250
  4.5139703750610352  4.5156903266906738 44.0427513122558594
  4.5115113258361816 13.5470905303955078 44.0427513122558594
 13.5443706512451172  4.5156903266906738 44.0427513122558594
 13.5419111251831037 13.5470905303955078 44.0427513122558594
  0.0000000000000000  0.0000000000000000 50.4472808837890696
 -0.0024593239650130  9.0313997268676740 50.4472808837890696
  9.0304002761840803  0.0000000000000000 50.4472808837890696
  9.0279407501220685  9.0313997268676740 50.4472808837890696
  4.5139703750610352  4.5156998634338379 50.4472808837890696
  4.5115113258361816 13.5470991134643537 50.4472808837890696
 13.5443706512451172  4.5156998634338379 50.4472808837890696
 13.5419111251831055 13.5470991134643537 50.4472808837890696
