 H  C  N  I Pb 
 1.0000000000000000
    18.0608005523681641    0.0000000000000000    0.0000000000000000
    -0.0049186488613486   18.0627994537353516    0.0000000000000000
     0.0000000000000000    0.0000000000000000   62.4874992370605469
 H   C   N   I   Pb 
 143  39  47  72  24
Cartesian
  7.3586282730102539  5.1453194618225098 34.9844970703125000
  7.5213232040405273 12.5665302276611310 35.6626663208007812
 16.6933250427246094  5.2905182838439941 36.1812820434570312
 16.7043094635009766 14.6975727081298828 35.7917060852050781
  5.8231911659240723  1.6372212171554565 35.1584930419921875
  5.8783397674560547 10.3064775466918928 35.4826316833496094
 14.3660287857055664  1.8963493108749390 35.2527885437011719
  1.9602985382080107  4.3590703010559082 35.1075477600097727
  1.4235782623291022 12.3601751327514648 35.5429496765136719
 10.5071907043457031  3.3414556980133057 35.3059997558593750
 10.8129415512084943 13.8610486984252930 34.9494247436523438
  6.8432526588439933  0.3041910529136658 34.6337089538574290
  4.6215038299560547 11.2232713699340803 34.6761245727539062
 15.7709960937500000  0.9460740685462952 34.7358016967773438
  1.1279430389404297  5.2376003265380859 36.3389625549316406
 17.9236354827880859 12.5293512344360352 36.2986373901367259
  8.7999792098999023  3.1371591091156006 35.5956802368164134
  9.9832792282104492 12.6055564880371094 35.8311080932617188
  5.5272288322448730  7.8659877777099609 35.7188682556152344
  3.4452219009399414  1.1944818496704102 35.5234794616699219
 12.3193378448486328  0.5597136616706848 35.8346824645996094
  8.2668018341064453  6.6050949096679688 34.6035537719726562
  6.7543516159057617 13.7200050354003906 34.6036300659179688
 15.9595260620117188  4.4132471084594727 34.8542976379394531
 17.5216178894042969 15.7784576416015607 34.7031669616699219
  4.1531071662902832  7.1848182678222656 34.9140472412109375
  2.8390287617221475 17.6973323822021484 35.0729675292968821
 12.3762439945712686 16.9270718097686768 35.3768959045410156
 10.3090476989746094  5.5221643447875977 34.6655311584472656
  8.8296098709106445 14.7138013839721680 34.0415840148925781
 18.0452919006347656  3.6865389347076416 34.0289001464843821
  1.2530498504638692 14.3387556076049805 34.3494453430175781
  3.3765993118286133  9.2799339294433594 34.1889343261718750
  4.9785026768222442 16.9156028032302856 34.4776344299316477
 14.5469392994418740 17.0197963714599609 34.6762046813964915
  8.2192573547363281  5.3987951278686523 42.0555953979492188
  7.9687180519104004 14.7275676727294922 41.9105110168457102
 17.2638159394264221  5.1374826431274405 42.2615051269531250
 16.4787464141845703 13.3651142120361328 41.3866767883300781
  5.3409461975097656  0.7343025803565978 42.1921844482421875
  5.4301867485046387 10.1405391693115234 42.0517425537109375
 14.3989152908325178  0.9249097108840942 42.2018089294433594
 15.0384540557861328  8.4363565444946289 41.5487289428711009
  1.6373885869979858  3.0742182731628418 40.4442024230957102
  1.9600713253021238 12.6515455245971680 40.9406471252441406
 10.4131231307983398  2.9834172725677490 40.3807449340820312
 10.3445644378662109 12.1836385726928711 40.7330627441406250
  3.3388366699218750  7.4385042190551758 40.6971206665039134
  2.9678718307986856 16.8142166137695312 40.2059936523437500
 11.4518623352050781  8.7998619079589844 40.9225311279296875
 12.1415037373080850 16.5796102285385132 40.5654754638671875
  1.1361843347549438  3.3979496955871582 42.0866355895996165
  0.4347107410430908 11.8260402679443359 41.2062263488769602
  9.9096918106079102  3.4286282062530513 41.9837112426757884
  9.8226747512817365 12.8985853195190430 42.2223663330078125
  3.8160994052886963  8.0916128158569336 42.2312774658203125
  3.2983247498050332 17.2032346129417419 41.8696022033691406
 12.5857019424438477  7.8206090927124023 41.8267631530761719
 12.5933851459994894 17.0729203224182129 42.1666259765625071
  7.8538236618041992  6.0935783386230469 40.5077819824218750
  7.5152564048767090 14.9848604202270508 40.2439765930175781
 16.7156231403350830  5.7468156814575195 40.7288780212402344
 16.7928744554519653 15.0547180175781250 41.0860366821289062
  6.1858663558959961  1.1267591714859009 40.7394599914550852
  5.7952623367309570 10.6041803359985334 40.4121437072753906
 14.8819141387939453  1.4578816890716553 40.6096115112304759
 15.3667764663696289  9.7758808135986328 40.4825363159179759
  0.1158761307597160  4.5267081260681152 39.4780960083007812
  0.9860344529151917 14.7460460662841797 40.7342796325683594
  9.1914997100830060  4.6270866394042969 39.3212165832519602
  8.9448156356811523 13.3989324569702148 39.3980522155761719
  4.7429250935092560 18.0012147650122643 39.3641853332519531
  4.5285739898681641  8.9491147994995117 39.4426841735839844
 13.5301288822665811 18.0562172941863537 39.4818191528320384
 13.1213426589965820 10.1060323715209961 39.9636955261230469
  8.1032123565673828  5.4420318603515616 48.0459518432617259
  8.1007528305053711 14.4734306335449219 48.0459518432617259
 17.1336116790771484  5.4420318603515616 48.0459518432617259
 17.1311531066894531 14.4734306335449219 48.0459518432617259
  5.4410333633422852  0.9265221953392029 48.0449485778808594
  5.4385743141174316  9.9579219818115234 48.0449485778808594
 14.4714326858520490  0.9265221953392029 48.0449485778808594
 14.4689741134643555  9.9579219818115234 48.0449485778808594
  1.4218254089355467  3.0919990539550781 46.4558296203613281
  1.4193661212921143 12.1233978271484375 46.4558296203613281
 10.4522256851196289  3.0919990539550781 46.4558296203613281
 10.4497661590576172 12.1233978271484375 46.4558296203613281
  3.0899283885955806  7.6075901985168457 46.4545211791992188
  3.0874691009521484 16.6389904022216797 46.4545211791992188
 12.1203289031982422  7.6075901985168457 46.4545211791992188
 12.1178693771362305 16.6389904022216797 46.4545211791992188
  0.9247469902038573  3.5893490314483643 48.0459518432617259
  0.9222877025604248 12.6207475662231445 48.0459518432617259
  9.9551477432250977  3.5893490314483643 48.0459518432617259
  9.9526882171630859 12.6207475662231445 48.0459518432617259
  3.5868983268737793  8.1048498153686523 48.0448913574218821
  3.5844390392303462 17.1362495422363281 48.0448913574218821
 12.6172990798950195  8.1048498153686523 48.0448913574218821
 12.6148395538330078 17.1362495422363281 48.0448913574218821
  7.6061611175537109  5.9393639564514160 46.4558296203613281
  7.6037015914916992 14.9707632064819336 46.4558296203613281
 16.6365604400634766  5.9393639564514160 46.4558296203613281
 16.6341018676757812 14.9707632064819336 46.4558296203613281
  5.9380125999450684  1.4238001108169553 46.4545211791992188
  5.9355530738830566 10.4551992416381836 46.4545211791992188
 14.9684123992919904  1.4238001108169553 46.4545211791992188
 14.9659538269042951 10.4551992416381836 46.4545211791992188
 -0.0011664569610730  4.5157265663146973 45.3548011779785156
 -0.0036257810425013 13.5471258163452148 45.3548011779785156
  9.0292339324951172  4.5157265663146973 45.3548011779785156
  9.0267744064331037 13.5471258163452148 45.3548011779785156
  4.5152091979980469  0.0000000000000000 45.3536758422851562
  4.5127501487731934  9.0313997268676740 45.3536758422851562
 13.5456094741821289  0.0000000000000000 45.3536758422851562
 13.5431499481201172  9.0313997268676740 45.3536758422851562
 14.4362306594848615  9.1619634628295898 32.1060333251953196
 15.8571853637695312  9.0260581970214844 33.1660041809082031
 13.6687498092651367 11.1635303497314453 33.2499771118164062
 13.6152753829956055 11.1735372543334961 35.0119552612304688
 12.4023981094360352  7.9440622329711905 34.2894821166992259
 12.0418806076049805  9.6003465652465820 34.7825927734375000
 14.3625421524047852  7.6002511978149414 35.3618774414062571
 15.5819416046142578  8.8601160049438477 35.4988517761230469
 15.5050058364868164  6.7367138862609863 33.6230545043945384
 13.7992687225341797  6.7747383117675781 33.1973190307617188
 14.2144813537597656  6.9261326789855957 30.8604431152343750
 15.8998279571533203  7.4061317443847656 31.0608921051025391
 16.1699199676513672 11.1103219985961914 33.2796669006347656
 16.1632823944091797 10.9324293136596680 35.0524864196777415
 15.5341587066650391 12.4147243499755859 34.3034629821777344
 10.8587245941162109  9.0885391235351562 32.7475967407226634
 12.3181858062744141  8.6357402801513672 31.8578643798828125
 12.0461673736572248 10.3342924118041992 32.3578529357910156
 12.7010231018066388  8.9724044799804688 36.6681327819824219
 13.9591646194458008 10.2385492324829102 36.8825950622558594
 14.1776990890502930  8.6317548751831055 37.5533599853515625
 14.8633785247802734  4.6640844345092773 31.9666366577148473
 15.3329458236694336  4.9693918228149414 30.3005599975585938
 16.7090663909912109  2.8605632781982422 31.1773452758789098
 17.6007671356201172  6.9479575157165527 32.2274017333984375
  1.0245170593261701  2.2609291076660156 31.5060024261474645
  1.8922481536865234  6.3480081558227530 32.5603828430175781
  2.6812667846679674  4.0163307189941406 32.1766433715820312
 17.9972286224365234  4.3170280456542969 34.9206237792968750
  0.4185981750488272 14.0243740081787109 34.9876441955566406
  9.3998928070068359  4.9606676101684561 34.8879241943359375
  8.7860345840454102 13.8297834396362305 34.6833839416503906
  4.3305768966674805  9.2056207656860352 34.7205314636230469
  4.8410572269931436 17.9553014039993286 34.7988929748535156
 14.0728363255038840 17.9450228661298752 35.0241508483886719
  0.1401702165603638  4.4139475822448730 40.5640487670898438
  0.3619370162487030 13.8854475021362305 40.9703292846679688
  9.1333751678466797  4.5412583351135254 40.4046707153320312
  8.9199066162109375 13.5718984603881836 40.4728965759277415
  4.5718345642089844  9.0218868255615234 40.5311622619628906
  4.5634650448337197 18.0142289325594902 40.4391136169433594
 13.4002485275268555  9.3091850280761701 40.6553993225097727
 13.5188545444980264 18.0498008318245411 40.5742950439453125
  9.0289716720581055  4.5156092643737793 46.4455223083496165
  9.0265130996704102 13.5470085144042969 46.4455223083496165
 18.0593719482421875  4.5156092643737793 46.4455223083496165
 18.0569133758544922 13.5470085144042969 46.4455223083496165
  4.5152091979980469  0.0000180629995157 46.4442062377929759
  4.5127501487731934  9.0314178466796857 46.4442062377929759
 13.5456094741821289  0.0000180629995157 46.4442062377929759
 13.5431499481201172  9.0314178466796857 46.4442062377929759
 16.9667949676513672  4.9601340293884277 31.6473159790039062
 17.4251918792724609  3.6323447227478027 31.4634933471679688
 17.9019794464111328  5.9189391136169434 32.0425796508789062
  0.7020969390869176  3.2950048446655273 31.6498298645019531
  1.1906127929687484  5.5832023620605469 32.2245407104492188
  1.6319332122802721  4.2794513702392578 32.0215110778808594
 14.8224010467529297  8.6964340209960938 33.0222244262695312
 14.1814756393432617 10.8053178787231445 34.1522293090820312
 12.5326805114746094  8.9947185516357422 34.0132560729980469
 14.4996385574340820  8.6804714202880859 35.4629135131835938
 14.7856473922729492  7.1764464378356934 32.9146995544433665
 15.1126279830932617  6.7474784851074219 31.4786949157714879
 15.6030969619750977 11.3222150802612305 34.1934432983398438
 11.9359951019287109  9.2836284637451172 32.6521377563476562
 13.7794570922851562  9.1771726608276367 36.6890678405761719
 15.5255470275878888  5.2889108657836905 31.3380889892578161
  1.0662746429443390  4.6403293609619132 35.5085525512695384
  0.5471611022949214 12.8720283508300763 35.6055526733398438
  9.5554256439208984  3.6981382369995113 35.2069168090820312
  9.9248075485229492 13.3759260177612287 35.1541786193847656
  8.2559423446655273  5.5935230255126953 34.7838668823242188
  7.6198711395263672 13.3055953979492170 34.9592475891113352
 16.8117599487304688  4.6973991394042969 35.3442459106445384
 17.4399719238281250 14.8295793533325195 35.0893287658691406
  4.7117638587951660  8.0116062164306641 35.1149787902832031
  3.6297650337219238  0.2746506035327911 35.1332397460937500
 12.8146471241489035 17.8475785404443741 35.3929023742675781
  5.8976917266845703  0.6766664981842041 34.8236846923828196
  5.0079336166381836 10.3122835159301758 34.9389762878417969
 14.7811689376831037  0.9926527738571167 35.0124473571777344
  1.0117958784103394  3.5789906978607178 41.0806503295898509
  0.9434621334075928 12.7071628570556641 41.0535163879394531
  9.8572540283203125  3.6026911735534668 40.9730834960937500
  9.7309732437133771 12.8421506881713867 41.1992301940918040
  3.8755967617034912  8.1307744979858398 41.2096061706542969
  3.5476693371310830 17.3087690472602844 40.8834304809570312
 12.4336433410644513  8.5821828842163086 41.1577033996582031
 12.7184671619907022 17.1781741380691528 41.1550827026367188
  8.3606567382812500  5.3898673057556152 41.0398025512695312
  8.0792589187622070 14.4710988998413086 40.9228630065917969
 17.3452660441398621  5.1423902511596680 41.2456474304199219
 17.1380212306976318 14.0986185073852539 41.1352005004882812
  5.3995695114135742  0.6530929207801819 41.1768836975097656
  5.3031234741210938  9.9756984710693359 41.0429458618164062
 14.3025865554809570  0.8447694778442383 41.1816024780273438
 14.6815881729125959  9.1623659133911133 40.9225006103515625
  0.8273094892501831  3.6869695186614990 47.0359649658203125
  0.8248501420021057 12.7183685302734375 47.0359649658203125
  9.8577098846435547  3.6869695186614990 47.0359649658203125
  9.8552503585815412 12.7183685302734375 47.0359649658203125
  3.6843190193176270  8.2023353576660156 47.0346527099609375
  3.6818594932556152 17.2337341308593750 47.0346527099609375
 12.7147188186645508  8.2023353576660156 47.0346527099609375
 12.7122592926025391 17.2337341308593750 47.0346527099609375
  8.2006769180297852  5.3445744514465332 47.0360260009765696
  8.1982173919677734 14.3759746551513672 47.0360260009765696
 17.2310771942138672  5.3445744514465332 47.0360260009765696
 17.2286186218261719 14.3759746551513672 47.0360260009765696
  5.3436489105224600  0.8290914893150328 47.0346527099609375
  5.3411893844604483  9.8604917526245117 47.0346527099609375
 14.3740482330322266  0.8290914893150328 47.0346527099609375
 14.3715896606445312  9.8604917526245117 47.0346527099609375
 14.0182733535766602  9.2896804809570312 34.1574058532714844
  9.2830805042758584 17.7720312476158142 34.5719833374023509
  8.5789003372192383  9.2338972091674805 34.5610427856445312
  0.1073867231607437  0.2277065962553024 34.4616813659668040
  0.5444372892379761  8.7804594039916992 34.6276969909668040
  4.6833233833312988  4.3134713172912598 34.5943222045898438
  4.1487116813659668 13.8138818740844727 34.4058227539062500
 13.2555093765258789  4.1852445602416992 34.6441917419433594
 13.2655801773071289 14.3544940948486328 34.6197319030761719
 17.9754306161776185 17.8104479610919952 40.8844032287597656
  0.1910724043846130  9.1159954071044922 40.9258041381835938
  8.9755296707153320  0.0506160557270050 40.9159088134765625
  8.9367055892944336  9.1150732040405273 40.8583564758300852
  4.7406382560729980  4.3868637084960938 40.9333419799804688
  4.4365425109863281 13.6473255157470703 40.8438796997070312
 13.4679861068725586  4.8800272941589355 40.9434089660644602
 13.5397310256958008 13.2429943084716797 40.8904724121093750
  2.4341435432434082  2.1066689491271973 38.0103759765625000
  2.6482517719268794 10.9932012557983398 37.8908729553222656
 11.4951982498168945  2.0561904907226562 38.0000457763671946
 11.1834363937377930 11.3982686996459943 37.9092254638671875
  6.6383314132690421  6.9369134902954102 37.9824180603027344
  6.5774693489074707 15.9836521148681641 37.8090934753417969
 16.0280494689941406  6.6347541809082031 38.1818656921386719
 15.5591077804565430 16.0856018066406250 37.9272460937500000
  2.2908813953399654  6.6492643356323242 38.2362327575683594
  2.0824635028839111 15.7740097045898438 37.8623046875000000
 11.0496034622192383  6.5905771255493155 37.6469802856445312
 11.1326484680175763 15.6121835708618164 38.2849540710449290
  7.1353211402893066  2.4819021224975586 37.7380256652832031
  6.8508329391479492 11.4588842391967756 37.9286308288574290
 15.9281244277954084  2.4584293365478516 38.2467384338378906
 16.2841758728027344 11.6768131256103516 38.0939712524414062
  0.0000000000000000  0.0000000000000000 47.1735610961914062
 -0.0024593239650130  9.0313997268676740 47.1735610961914062
  9.0304002761840803  0.0000000000000000 47.1735610961914062
  9.0279407501220685  9.0313997268676740 47.1735610961914062
  4.5139794349670410  4.5156998634338379 47.1742515563964844
  4.5115203857421875 13.5470991134643537 47.1742515563964844
 13.5443792343139648  4.5156998634338379 47.1742515563964844
 13.5419197082519531 13.5470991134643537 47.1742515563964844
  2.4519233703613277  2.0629522800445557 44.0401268005371165
  2.4494640827178955 11.0943517684936523 44.0401268005371165
 11.4823226928710920  2.0629522800445557 44.0401268005371165
 11.4798641204833984 11.0943517684936523 44.0401268005371165
  6.5760178565979004  6.9684472084045410 44.0401268005371165
  6.5735583305358887 15.9998464584350586 44.0401268005371165
 15.6064186096191406  6.9684472084045410 44.0401268005371165
 15.6039590835571289 15.9998464584350586 44.0401268005371165
  2.0610768795013428  6.5788145065307617 44.0400009155273509
  2.0586175918579102 15.6102142333984375 44.0400009155273509
 11.0914773941040039  6.5788145065307617 44.0400009155273509
 11.0890178680419922 15.6102142333984375 44.0400009155273509
  6.9668641090393066  2.4525938034057613 44.0400657653808665
  6.9644045829772949 11.4839935302734375 44.0400657653808665
 15.9972639083862305  2.4525938034057613 44.0400657653808665
 15.9948053359985352 11.4839935302734375 44.0400657653808665
  2.4316265583038330  2.0832188129425049 50.0684852600097656
  2.4291670322418213 11.1146183013915998 50.0684852600097656
 11.4620265960693359  2.0832188129425049 50.0684852600097656
 11.4595670700073224 11.1146183013915998 50.0684852600097656
  6.5963144302368164  6.9481806755065918 50.0684852600097656
  6.5938549041748047 15.9795799255371076 50.0684852600097656
 15.6267137527465803  6.9481806755065918 50.0684852600097656
 15.6242542266845703 15.9795799255371076 50.0684852600097656
  2.0811281204223633  6.5990090370178223 50.0690460205078125
  2.0786688327789307 15.6304082870483398 50.0690460205078125
 11.1115283966064453  6.5990090370178223 50.0690460205078125
 11.1090688705444336 15.6304082870483398 50.0690460205078125
  6.9468131065368652  2.4323906898498531 50.0690460205078125
  6.9443535804748535 11.4637899398803711 50.0690460205078125
 15.9772129058837891  2.4323906898498531 50.0690460205078125
 15.9747543334960938 11.4637899398803711 50.0690460205078125
 17.9973059445619583  0.1197101399302483 37.7370567321777415
  0.1909042745828629  9.0537862777709961 37.7186813354492259
  9.0616878727450949 17.9470157399773598 37.7179412841796875
  9.0330991744995117  9.0344314575195312 37.6687927246093821
  4.6213660240173331  4.4661622047424316 37.8361701965332102
  4.3821434974670410 13.6409578323364258 37.6719360351562500
 13.4940414428710938  4.5483860969543457 37.8523292541503977
 13.5792026519775391 13.6782617568969727 37.7466201782226562
  0.0000090280000222  0.0000090310004452 44.0429992675781250
 -0.0024502959568053  9.0314083099365234 44.0429992675781250
  9.0304088592529297  0.0000090310004452 44.0429992675781250
  9.0279493331909180  9.0314083099365234 44.0429992675781250
  4.5139703750610352  4.5156903266906738 44.0427513122558594
  4.5115113258361816 13.5470905303955078 44.0427513122558594
 13.5443706512451172  4.5156903266906738 44.0427513122558594
 13.5419111251831037 13.5470905303955078 44.0427513122558594
  0.0000000000000000  0.0000000000000000 50.4472808837890696
 -0.0024593239650130  9.0313997268676740 50.4472808837890696
  9.0304002761840803  0.0000000000000000 50.4472808837890696
  9.0279407501220685  9.0313997268676740 50.4472808837890696
  4.5139703750610352  4.5156998634338379 50.4472808837890696
  4.5115113258361816 13.5470991134643537 50.4472808837890696
 13.5443706512451172  4.5156998634338379 50.4472808837890696
 13.5419111251831055 13.5470991134643537 50.4472808837890696
