 H  C  N  I Pb 
 1.0000000000000000
    18.0608005523681641    0.0000000000000000    0.0000000000000000
    -0.0049186488613486   18.0627994537353516    0.0000000000000000
     0.0000000000000000    0.0000000000000000   62.4874992370605469
 H   C   N   I   Pb 
 143  39  47  72  24
Cartesian
  8.4370269775390625  5.9332623481750488 35.8028526306152344
  8.1405782699584961 15.1639413833618164 35.8727378845214915
 16.6030254364013672  4.3425960540771484 36.3178558349609375
 16.9984455108642578 14.6385984420776349 36.0973701477050781
  5.6600546836853027  1.2190530300140379 35.7647018432617259
  5.9404211044311523 10.3053321838378906 35.8567657470703125
 14.3269472122192383  1.4955174922943113 36.0013694763183594
  1.8856925964355460  4.4583692550659180 34.8907585144042969
  1.6563091278076170 12.2374191284179688 35.6255950927734446
 10.1218528747558594  2.9102916717529292 34.8523445129394531
  8.9005107879638672 11.6957855224609375 35.2437973022460938
  6.6001152992248535  0.0782895535230637 34.8442459106445384
  4.9884667396545401 11.3871994018554688 34.8574905395507812
 15.6458311080932617  0.4912914931774139 35.3764495849609375
  1.0225105285644522  4.3161110877990723 36.3836326599121094
  0.2633819580078123 12.5302152633666974 36.6225700378417969
 10.3396921157836914  4.4109182357788086 35.7213401794433594
  8.2464284896850586 12.7475252151489258 36.4790229797363281
  5.1424875259399414  7.9300236701965332 36.0156631469726562
  3.1776762008666992  0.9458490610122680 35.6874160766601634
 12.0501661300659180  0.5002162456512451 35.8668937683105469
  6.9564156532287598  5.3803644180297852 35.0258636474609446
  8.9806947708129883 15.6969995498657227 34.4273986816406321
 15.8589210510253906  4.2569470405578613 34.7622947692871094
 17.7321662902832031 15.6764106750488263 34.8990898132324219
  3.6547732353210449  7.5566778182983398 35.1703491210937500
  2.5336777428165078 17.7460278868675267 34.6789665222167969
 11.9670299747958779 16.9445421695709229 35.1584815979003977
  7.9350976943969727  3.3854379653930664 34.3343505859375071
  9.5407171249389648 13.4673480987548828 33.8657646179199290
 17.9517097473144531  4.4364032745361328 33.6380844116210938
  1.3894443511962913 14.1873044967651367 34.4097671508789134
  3.4209153652191162  9.7207984924316406 34.3209762573242259
  4.6992434719577432 16.9839982986450195 34.0696029663085938
 14.2210029819980246 16.8372981548309326 34.7305030822753906
  8.4220829010009766  5.6081085205078125 42.0852432250976634
  7.9568271636962891 14.6136837005615234 42.0763168334961009
 17.1932789087295532  5.0139575004577628 42.3238677978515625
 16.6564271450042760 13.7525367736816406 42.1246185302734375
  5.5523676872253418  0.9639484882354736 42.0173835754394531
  5.2858781814575186  9.8298492431640625 42.3159179687500000
 14.2745628356933594  0.9892765283584595 42.1355018615722656
 15.2994270324707031  8.7156162261962891 41.5996856689453125
  1.6356282234191895  3.1318926811218262 40.3920822143554759
  1.8019354343414307 12.5930814743041992 40.7758674621582031
 10.4546556472778320  3.0213811397552490 40.4937820434570312
 10.3739652633666992 12.1393032073974609 40.8667297363281250
  3.2890231609344478  7.3969497680664062 40.4363136291503906
  3.1226288536563516 16.6749432086944580 40.5596313476562571
 11.6893224716186523  8.6997804641723633 41.2342071533203196
 12.2170204380527139 16.4489363431930578 40.5646858215332031
  1.0647915601730347  3.3195819854736328 42.0371398925781250
  0.6852226853370665 12.2617406845092773 42.0906982421875000
 10.2960433959960938  3.8463511466979980 42.0118408203125000
  9.6794261932373047 12.7124319076538068 42.3528976440429688
  3.6581258773803711  7.8471341133117676 42.0909805297851562
  3.6591169098392129 17.2583497166633606 42.1236572265625071
 13.0025367736816388  7.7981834411621094 41.9784278869628906
 12.6180862644687295 17.0651329159736633 42.1487808227539062
  7.5126180648803711  5.7827181816101074 40.6146087646484375
  7.6644124984741211 15.0819873809814453 40.4141502380371094
 16.7067168951034546  5.7901988029479980 40.8348579406738281
 16.5747714042663574 14.9212121963500977 40.8435440063476562
  6.0746760368347168  1.3645815849304199 40.3914604187011719
  5.7722287178039551 10.5320177078247053 40.7972526550292969
 14.8487892150878906  1.4592343568801880 40.5484771728515625
 15.4439620971679688 10.0284099578857422 40.4738769531250071
  0.1746044456958771  4.6834559440612793 39.5207481384277344
  0.5046567916870117 14.3075447082519513 39.8905639648437500
  8.7408924102783203  4.1546640396118164 39.4797172546386719
  9.1545267105102539 13.5817070007324219 39.5312576293945312
  4.6064018467441201 17.9911415725946426 39.3638305664062500
  4.5630249977111816  9.0669593811035138 39.5032424926757812
 13.6050199726596475 17.9290786683559418 39.4396629333496094
 13.1166915893554688 10.1452789306640625 40.1034584045410156
  8.1032123565673828  5.4420318603515616 48.0459518432617259
  8.1007528305053711 14.4734306335449219 48.0459518432617259
 17.1336116790771484  5.4420318603515616 48.0459518432617259
 17.1311531066894531 14.4734306335449219 48.0459518432617259
  5.4410333633422852  0.9265221953392029 48.0449485778808594
  5.4385743141174316  9.9579219818115234 48.0449485778808594
 14.4714326858520490  0.9265221953392029 48.0449485778808594
 14.4689741134643555  9.9579219818115234 48.0449485778808594
  1.4218254089355467  3.0919990539550781 46.4558296203613281
  1.4193661212921143 12.1233978271484375 46.4558296203613281
 10.4522256851196289  3.0919990539550781 46.4558296203613281
 10.4497661590576172 12.1233978271484375 46.4558296203613281
  3.0899283885955806  7.6075901985168457 46.4545211791992188
  3.0874691009521484 16.6389904022216797 46.4545211791992188
 12.1203289031982422  7.6075901985168457 46.4545211791992188
 12.1178693771362305 16.6389904022216797 46.4545211791992188
  0.9247469902038573  3.5893490314483643 48.0459518432617259
  0.9222877025604248 12.6207475662231445 48.0459518432617259
  9.9551477432250977  3.5893490314483643 48.0459518432617259
  9.9526882171630859 12.6207475662231445 48.0459518432617259
  3.5868983268737793  8.1048498153686523 48.0448913574218821
  3.5844390392303462 17.1362495422363281 48.0448913574218821
 12.6172990798950195  8.1048498153686523 48.0448913574218821
 12.6148395538330078 17.1362495422363281 48.0448913574218821
  7.6061611175537109  5.9393639564514160 46.4558296203613281
  7.6037015914916992 14.9707632064819336 46.4558296203613281
 16.6365604400634766  5.9393639564514160 46.4558296203613281
 16.6341018676757812 14.9707632064819336 46.4558296203613281
  5.9380125999450684  1.4238001108169553 46.4545211791992188
  5.9355530738830566 10.4551992416381836 46.4545211791992188
 14.9684123992919904  1.4238001108169553 46.4545211791992188
 14.9659538269042951 10.4551992416381836 46.4545211791992188
 -0.0011664569610730  4.5157265663146973 45.3548011779785156
 -0.0036257810425013 13.5471258163452148 45.3548011779785156
  9.0292339324951172  4.5157265663146973 45.3548011779785156
  9.0267744064331037 13.5471258163452148 45.3548011779785156
  4.5152091979980469  0.0000000000000000 45.3536758422851562
  4.5127501487731934  9.0313997268676740 45.3536758422851562
 13.5456094741821289  0.0000000000000000 45.3536758422851562
 13.5431499481201172  9.0313997268676740 45.3536758422851562
 12.9779291152954102  7.9152450561523438 33.8558082580566406
 13.2776088714599609  8.9510068893432617 32.4397888183593750
 11.8496532440185547 10.0071153640747070 34.9866371154785156
 12.8129577636718732 11.4897289276123047 34.8533248901367188
 15.3100500106811523  9.0705099105834961 35.7047004699707102
 14.1859836578369123 10.3255090713500977 36.2958145141601562
 15.6611633300781250 10.1309652328491211 33.1566886901855469
 14.3440990447998047 11.2861509323120117 32.9000740051269531
 15.6474275588989258  8.3640270233154297 32.4213333129882812
 15.6119880676269531  7.6300544738769531 34.0212821960449219
 15.7309284210205078  5.8788490295410156 32.4038887023925852
 14.1477260589599609  5.8204889297485352 33.1584053039550781
 11.5136651992797852  9.9551076889038086 32.5132560729980540
 12.4361400604248047 11.4831819534301758 32.3474006652832102
 10.9540958404541016 11.4211902618408203 33.2937622070312500
 13.5840377807617188  8.2592086791992188 37.3606719970703125
 13.5679082870483398  7.3479547500610352 35.8685569763183594
 12.2783050537109375  8.5260639190673828 36.2175254821777344
 14.8312339782714844 12.4150362014770490 35.0404243469238352
 16.2545166015625000 12.2895145416259748 34.0213928222656250
 16.1149501800537109 11.2128391265869141 35.3951797485351634
 14.7714338302612305  6.9458003044128418 30.3442134857177734
 14.1320962905883789  5.3586244583129874 30.7301769256591797
 11.9526195526123047  5.7083315849304199 32.5595016479492259
 13.1556138992309570  8.3361892700195312 29.3553524017333984
  9.6910610198974609  6.7421169281005859 32.5480117797851634
 10.8871917724609375  9.3452816009521467 29.3253421783447266
  9.1662158966064453  8.5326890945434570 30.9386577606201207
 17.9127044677734375  4.3951911926269531 34.7298316955566406
  0.6488819122314470 13.9148540496826172 35.1646232604980540
  8.5235013961791992  4.1408281326293945 34.8606376647949219
  9.0162487030029297 13.6674661636352539 34.7908096313476562
  4.2912135124206543  9.4795408248901349 34.9438056945800781
  4.5757698277011514 17.8714190125465393 34.7024803161621165
 13.8067983845248818 17.7371724545955658 35.2080612182617188
  0.1430017948150635  4.4582638740539551 40.6024398803710938
  0.1621686667203903 13.7674627304077148 40.7881584167480540
  8.9920043945312500  4.4035296440124512 40.5221443176269531
  9.0218343734741211 13.6073150634765625 40.6240921020507884
  4.5341582298278809  8.9585399627685547 40.6019897460937500
  4.5907711246982217 18.0461800098419225 40.4681663513183594
 13.5351772308349609  9.3756904602050763 40.7880096435546875
 13.5265773991122842 17.9743048250675201 40.5399551391601634
  9.0289716720581055  4.5156092643737793 46.4455223083496165
  9.0265130996704102 13.5470085144042969 46.4455223083496165
 18.0593719482421875  4.5156092643737793 46.4455223083496165
 18.0569133758544922 13.5470085144042969 46.4455223083496165
  4.5152091979980469  0.0000180629995157 46.4442062377929759
  4.5127501487731934  9.0314178466796857 46.4442062377929759
 13.5456094741821289  0.0000180629995157 46.4442062377929759
 13.5431499481201172  9.0314178466796857 46.4442062377929759
 12.7206888198852539  6.9479193687438965 30.9613151550293004
 11.7308082580566406  6.4945964813232422 31.8358592987060582
 12.4058017730712891  7.9732532501220694 30.0431499481201172
 10.4484910964965820  7.0707011222839347 31.8325939178466797
 11.1330327987670898  8.5468626022338867 30.0218772888183629
 10.1424379348754883  8.0906219482421875 30.9286365509033203
 13.7178821563720685  8.5703754425048828 33.3787498474121094
 12.5425424575805664 10.5553474426269531 34.3535118103027344
 14.2538661956787092  9.3999805450439453 35.7057914733886790
 14.9001646041870117 10.7350225448608398 33.6564483642578196
 15.0158309936523438  7.7901477813720703 33.1057052612304759
 14.7604827880859375  6.4069881439208984 32.4601783752441406
 11.8520240783691406 10.8540992736816388 33.0331726074218750
 13.3569784164428711  8.3350114822387695 36.2951812744140625
 15.5438051223754883 11.7046470642089844 34.6102027893066406
 14.1336936950683594  6.4068889617919913 31.0503864288330078
  0.9925136566162102  4.3449654579162598 35.3705635070800781
  0.8621635437011737 12.8188829421997070 35.8429832458496165
  9.7749881744384766  3.8352756500244141 35.1022186279296875
  8.7688922882080078 12.6588602066040039 35.5957221984863281
  7.9609451293945312  5.2679710388183594 35.1987876892089844
  8.6710700988769531 14.9217815399169922 35.0337448120117259
 16.7232570648193359  4.4102468490600586 35.2982177734375000
 17.6905879974365234 14.7340373992919922 35.3229942321777344
  4.3793478012084961  8.2526893615722656 35.3976135253906250
  3.3632965087890625  0.1628416478633881 35.0331459045410227
 12.5045437077060342 17.7962493598461151 35.3608627319335938
  5.6657032966613761  0.4339815378189086 35.0963745117187571
  5.1598496437072754 10.4313526153564453 35.1930961608886790
 14.6485309600830078  0.6171934008598328 35.5571403503418040
  0.9942791461944580  3.5820987224578857 41.0506362915039062
  0.9150196909904479 12.8120460510253906 41.2581176757812500
  9.9696016311645508  3.7331006526947021 41.0556907653808665
  9.7336263656616211 12.7700376510620117 41.3493919372558594
  3.7897069454193115  7.9961643218994141 41.0936164855957031
  3.7451419094577432 17.2958363890647888 41.1139373779296875
 12.6983957290649414  8.5406198501586914 41.3471794128417969
 12.7480434635654092 17.1231082081794739 41.1465339660644531
  8.2709331512451172  5.3327503204345703 41.1282882690429759
  8.1571321487426758 14.4932870864868164 41.0900306701660156
 17.3198373317718506  5.1116995811462402 41.3097991943359446
 17.0952357649803162 14.1799411773681641 41.3128013610839844
  5.4640083312988281  0.8272317647933960 41.0170745849609375
  5.2545447349548340  9.8299713134765625 41.3020973205566406
 14.2670001983642578  0.8523436188697815 41.1320381164550781
 14.8442440032958984  9.3675127029418945 40.9734611511230469
  0.8273094892501831  3.6869695186614990 47.0359649658203125
  0.8248501420021057 12.7183685302734375 47.0359649658203125
  9.8577098846435547  3.6869695186614990 47.0359649658203125
  9.8552503585815412 12.7183685302734375 47.0359649658203125
  3.6843190193176270  8.2023353576660156 47.0346527099609375
  3.6818594932556152 17.2337341308593750 47.0346527099609375
 12.7147188186645508  8.2023353576660156 47.0346527099609375
 12.7122592926025391 17.2337341308593750 47.0346527099609375
  8.2006769180297852  5.3445744514465332 47.0360260009765696
  8.1982173919677734 14.3759746551513672 47.0360260009765696
 17.2310771942138672  5.3445744514465332 47.0360260009765696
 17.2286186218261719 14.3759746551513672 47.0360260009765696
  5.3436489105224600  0.8290914893150328 47.0346527099609375
  5.3411893844604483  9.8604917526245117 47.0346527099609375
 14.3740482330322266  0.8290914893150328 47.0346527099609375
 14.3715896606445312  9.8604917526245117 47.0346527099609375
 13.8602485656738281  9.7907152175903320 34.2774925231933594
  9.1471757888793945  0.3277601599693298 34.5139694213867188
  8.7117662429809570  9.2339124679565430 34.6868553161621094
 17.9637137576937675  0.1018185243010521 34.4791717529296946
  0.6066817045211792  9.1572456359863281 34.6522560119628906
  4.5063872337341309  4.4849500656127930 34.5978355407714844
  4.3270473480224609 13.8363494873046875 34.5402221679687500
 13.2844190597534180  3.8209753036499023 34.7572784423828125
 12.6911888122558594 14.3422336578369141 34.5018768310546875
  0.0335645088925958 17.9725098088383675 40.8908691406250000
  0.3019047975540161  8.9121646881103516 40.9606742858886719
  9.0789375305175781  0.0306454095989466 40.8976974487304688
  9.0880222320556641  8.9386644363403320 40.9447135925292969
  4.6528134346008301  4.4284462928771973 40.9218864440918040
  4.5276770591735840 13.6341714859008789 40.8973655700683594
 13.4998703002929670  4.7577276229858398 40.9531517028808594
 13.5283603668212873 13.4073038101196289 40.8638153076171946
  2.4664027690887451  2.0986897945404053 37.9343032836914062
  2.6814868450164795 11.0334463119506836 38.1730232238769602
 11.5947589874267578  2.0428369045257568 38.1572380065917969
 11.2774658203124982 11.2758054733276349 38.2769889831542969
  6.5267949104309073  7.0460343360900879 38.0404281616210938
  6.7489075660705566 15.9180459976196271 37.8518638610839844
 16.0000438690185547  6.6912250518798828 38.2339935302734375
 15.6681509017944336 15.9035253524780273 38.0798225402832031
  2.1465725898742676  6.5933456420898438 38.0397186279296875
  2.1876451969146729 15.8100948333740234 37.9809455871582031
 10.6937208175659180  6.2770814895629883 37.7018318176269531
 11.0560111999511719 15.6311626434326172 38.1340599060058594
  6.9162707328796387  2.3924834728240967 37.8794975280761719
  6.8665175437927246 11.4454107284545898 38.2708129882812500
 16.0132617950439453  2.5611767768859863 38.3026199340820312
 16.4206600189208984 11.7073173522949219 38.5287170410156250
  0.0000000000000000  0.0000000000000000 47.1735610961914062
 -0.0024593239650130  9.0313997268676740 47.1735610961914062
  9.0304002761840803  0.0000000000000000 47.1735610961914062
  9.0279407501220685  9.0313997268676740 47.1735610961914062
  4.5139794349670410  4.5156998634338379 47.1742515563964844
  4.5115203857421875 13.5470991134643537 47.1742515563964844
 13.5443792343139648  4.5156998634338379 47.1742515563964844
 13.5419197082519531 13.5470991134643537 47.1742515563964844
  2.4519233703613277  2.0629522800445557 44.0401268005371165
  2.4494640827178955 11.0943517684936523 44.0401268005371165
 11.4823226928710920  2.0629522800445557 44.0401268005371165
 11.4798641204833984 11.0943517684936523 44.0401268005371165
  6.5760178565979004  6.9684472084045410 44.0401268005371165
  6.5735583305358887 15.9998464584350586 44.0401268005371165
 15.6064186096191406  6.9684472084045410 44.0401268005371165
 15.6039590835571289 15.9998464584350586 44.0401268005371165
  2.0610768795013428  6.5788145065307617 44.0400009155273509
  2.0586175918579102 15.6102142333984375 44.0400009155273509
 11.0914773941040039  6.5788145065307617 44.0400009155273509
 11.0890178680419922 15.6102142333984375 44.0400009155273509
  6.9668641090393066  2.4525938034057613 44.0400657653808665
  6.9644045829772949 11.4839935302734375 44.0400657653808665
 15.9972639083862305  2.4525938034057613 44.0400657653808665
 15.9948053359985352 11.4839935302734375 44.0400657653808665
  2.4316265583038330  2.0832188129425049 50.0684852600097656
  2.4291670322418213 11.1146183013915998 50.0684852600097656
 11.4620265960693359  2.0832188129425049 50.0684852600097656
 11.4595670700073224 11.1146183013915998 50.0684852600097656
  6.5963144302368164  6.9481806755065918 50.0684852600097656
  6.5938549041748047 15.9795799255371076 50.0684852600097656
 15.6267137527465803  6.9481806755065918 50.0684852600097656
 15.6242542266845703 15.9795799255371076 50.0684852600097656
  2.0811281204223633  6.5990090370178223 50.0690460205078125
  2.0786688327789307 15.6304082870483398 50.0690460205078125
 11.1115283966064453  6.5990090370178223 50.0690460205078125
 11.1090688705444336 15.6304082870483398 50.0690460205078125
  6.9468131065368652  2.4323906898498531 50.0690460205078125
  6.9443535804748535 11.4637899398803711 50.0690460205078125
 15.9772129058837891  2.4323906898498531 50.0690460205078125
 15.9747543334960938 11.4637899398803711 50.0690460205078125
 18.0088047534227371  0.0558449104428291 37.8064880371093750
  0.1139757633209229  9.1554269790649414 37.7720870971679688
  9.0858659744262695  0.1153727397322655 37.7941246032714844
  8.9998989105224609  9.0785150527954102 37.7900619506836009
  4.5139827728271484  4.5881032943725586 37.8066864013671875
  4.4494886398315430 13.6299104690551758 37.7242774963378906
 13.4813470840454102  4.6513471603393555 37.8429679870605469
 13.3508682250976545 13.6693401336669922 37.6143302917480469
  0.0000090280000222  0.0000090310004452 44.0429992675781250
 -0.0024502959568053  9.0314083099365234 44.0429992675781250
  9.0304088592529297  0.0000090310004452 44.0429992675781250
  9.0279493331909180  9.0314083099365234 44.0429992675781250
  4.5139703750610352  4.5156903266906738 44.0427513122558594
  4.5115113258361816 13.5470905303955078 44.0427513122558594
 13.5443706512451172  4.5156903266906738 44.0427513122558594
 13.5419111251831037 13.5470905303955078 44.0427513122558594
  0.0000000000000000  0.0000000000000000 50.4472808837890696
 -0.0024593239650130  9.0313997268676740 50.4472808837890696
  9.0304002761840803  0.0000000000000000 50.4472808837890696
  9.0279407501220685  9.0313997268676740 50.4472808837890696
  4.5139703750610352  4.5156998634338379 50.4472808837890696
  4.5115113258361816 13.5470991134643537 50.4472808837890696
 13.5443706512451172  4.5156998634338379 50.4472808837890696
 13.5419111251831055 13.5470991134643537 50.4472808837890696
