 H  C  N  I Pb 
 1.0000000000000000
    18.0608005523681641    0.0000000000000000    0.0000000000000000
    -0.0049186488613486   18.0627994537353516    0.0000000000000000
     0.0000000000000000    0.0000000000000000   62.4874992370605469
 H   C   N   I   Pb 
 143  39  47  72  24
Cartesian
  7.8257312774658203  4.9518299102783203 36.4885597229003906
  7.6913814544677734 13.9308805465698242 36.3052635192871094
 16.9723358154296875  5.3316736221313477 36.4759063720703125
 17.1572189331054688 14.5572271347045898 36.3468856811523438
  5.4912762641906738  0.9119616746902466 36.3815116882324219
  5.5125570297241211 10.2371530532836914 36.0969657897949290
 14.0265569686889648  1.1960160732269287 36.3792190551757812
  1.6639442443847667  3.2351698875427242 35.0600013732910156
  1.5881729125976554 12.2651462554931641 34.9323196411132812
 10.7841587066650373  3.3348102569580078 35.0034637451171875
 11.0422353744506836 13.0429582595825195 34.9856529235839844
  6.5184311866760254  0.7394157648086548 34.9417686462402344
  5.4399313926696777 10.8308486938476562 34.4401817321777344
 15.0324506759643537  1.4116742610931396 34.9459075927734375
  1.2168521881103536  4.0131192207336426 36.5678482055664062
  0.5965557098388665 12.4883480072021484 36.3491630554199219
  9.8084630966186523  3.3676970005035400 36.4759254455566406
 10.0172452926635742 12.7867212295532227 36.3553924560546946
  4.3607487678527832  8.0392608642578125 36.5257339477539062
  3.2761768558993936 17.8449740707874298 36.3307304382324219
 12.4394849995151162 17.3404684066772461 36.3620796203613281
  7.5126943588256827  5.7651801109313956 34.9754447937011719
  7.3430523872375488 14.8204326629638672 34.8565101623535227
 16.2110404968261719  5.1816649436950684 34.9057769775390625
 17.2094173431396484 15.5295991897583008 34.8906593322753906
  3.5873124599456787  7.2490262985229492 35.1509437561035156
  2.8505598763003945 16.9738914966583252 34.8477745056152415
 12.4627355793491006 16.2856736183166504 34.9202079772949219
  9.3584070205688477  4.7833218574523926 33.8872032165527344
  9.3967800140380842 14.3195800781250000 33.8695678710937500
 17.8075275421142578  3.8313388824462891 33.9373588562011719
  0.7942199707031264 14.2160854339599609 33.8843116760253906
  4.2325849533081055  8.9957952499389648 33.6865615844726562
  4.9141010502353311 17.5262914896011353 33.8426818847656250
 14.0914386967197061 17.5760088562965393 33.8969459533691477
  7.9249715805053711  5.2661762237548828 42.1520576477050781
  7.8999085426330566 14.7257089614868164 42.0054283142089915
 17.2059153318405151  5.2567257881164551 42.3478660583496165
 17.0024060010910034 14.4370260238647461 42.2659835815429688
  5.4382858276367188  0.9621137976646423 42.1575164794921875
  5.4030342102050781 10.0410699844360352 42.2238578796386790
 14.5851068496704084  0.9011175036430359 42.2005004882812571
 14.5814790725708008 10.0134696960449219 42.1462783813476562
  1.5102195739746094  3.0954279899597168 40.4614486694335938
  1.6043452024459837 12.4187631607055664 40.7691497802734446
 10.4605054855346680  3.1466612815856934 40.4621658325195384
 10.2580747604370117 12.0156288146972656 41.0584411621093750
  3.1866648197174068  7.5212750434875488 40.6723709106445312
  3.0984374741092324 16.6420971155166626 40.6221389770507812
 12.0003805160522461  7.5267004966735840 41.0149955749511719
 11.9898685673251748 16.8413906097412145 40.6272773742675852
  1.0992189645767212  3.4434404373168945 42.0989646911621165
  0.8677279353141785 12.6252069473266602 42.3084526062011719
  9.7821178436279297  3.3836014270782466 42.0432929992675781
  9.6382846832275391 12.7645006179809570 42.4977722167968750
  3.6245572566986084  8.0848884582519531 42.2644424438476634
  3.5573209980502720 17.2042771577835083 42.2092132568359375
 12.7174053192138672  8.0971164703369141 42.5061492919921875
 12.5237049320712686 17.2996730208396912 42.2233238220214915
  7.6245012283325195  5.9904189109802246 40.6225013732910156
  7.6824197769165039 15.0547704696655273 40.3136367797851562
 16.6275863647460938  5.8227143287658691 40.8086776733398438
 16.7447142601013184 15.1645145416259766 40.7299385070800781
  5.9714460372924805  1.3846189975738525 40.5425224304199219
  5.8820629119873038 10.5059452056884766 40.6252021789550852
 15.1241149902343732  1.3217673301696777 40.5984764099121094
 14.7178325653076172 10.4809694290161133 40.4920654296875000
 18.0042689219117165  4.5728316307067871 39.5239677429199290
  0.3671305179595947 13.9919939041137695 39.6884498596191406
  9.1632022857666016  4.7897882461547852 39.4461250305175781
  9.1613454818725586 13.3746185302734375 39.6003417968750000
  4.5611194828525186 17.9622610881924629 39.4776611328125000
  4.5154662132263175  8.9744558334350586 39.5270462036132812
 13.5570587376132607 18.0543456561863422 39.4944610595703125
 13.1903314590454102  9.0102186203002930 39.6761817932128906
  8.1032123565673828  5.4420318603515616 48.0459518432617259
  8.1007528305053711 14.4734306335449219 48.0459518432617259
 17.1336116790771484  5.4420318603515616 48.0459518432617259
 17.1311531066894531 14.4734306335449219 48.0459518432617259
  5.4410333633422852  0.9265221953392029 48.0449485778808594
  5.4385743141174316  9.9579219818115234 48.0449485778808594
 14.4714326858520490  0.9265221953392029 48.0449485778808594
 14.4689741134643555  9.9579219818115234 48.0449485778808594
  1.4218254089355467  3.0919990539550781 46.4558296203613281
  1.4193661212921143 12.1233978271484375 46.4558296203613281
 10.4522256851196289  3.0919990539550781 46.4558296203613281
 10.4497661590576172 12.1233978271484375 46.4558296203613281
  3.0899283885955806  7.6075901985168457 46.4545211791992188
  3.0874691009521484 16.6389904022216797 46.4545211791992188
 12.1203289031982422  7.6075901985168457 46.4545211791992188
 12.1178693771362305 16.6389904022216797 46.4545211791992188
  0.9247469902038573  3.5893490314483643 48.0459518432617259
  0.9222877025604248 12.6207475662231445 48.0459518432617259
  9.9551477432250977  3.5893490314483643 48.0459518432617259
  9.9526882171630859 12.6207475662231445 48.0459518432617259
  3.5868983268737793  8.1048498153686523 48.0448913574218821
  3.5844390392303462 17.1362495422363281 48.0448913574218821
 12.6172990798950195  8.1048498153686523 48.0448913574218821
 12.6148395538330078 17.1362495422363281 48.0448913574218821
  7.6061611175537109  5.9393639564514160 46.4558296203613281
  7.6037015914916992 14.9707632064819336 46.4558296203613281
 16.6365604400634766  5.9393639564514160 46.4558296203613281
 16.6341018676757812 14.9707632064819336 46.4558296203613281
  5.9380125999450684  1.4238001108169553 46.4545211791992188
  5.9355530738830566 10.4551992416381836 46.4545211791992188
 14.9684123992919904  1.4238001108169553 46.4545211791992188
 14.9659538269042951 10.4551992416381836 46.4545211791992188
 -0.0011664569610730  4.5157265663146973 45.3548011779785156
 -0.0036257810425013 13.5471258163452148 45.3548011779785156
  9.0292339324951172  4.5157265663146973 45.3548011779785156
  9.0267744064331037 13.5471258163452148 45.3548011779785156
  4.5152091979980469  0.0000000000000000 45.3536758422851562
  4.5127501487731934  9.0313997268676740 45.3536758422851562
 13.5456094741821289  0.0000000000000000 45.3536758422851562
 13.5431499481201172  9.0313997268676740 45.3536758422851562
 14.0264463424682599  9.2917222976684570 32.6223983764648438
 15.6911849975585938  9.2923650741577148 33.4276466369628906
 13.8135128021240234 11.3829746246337891 33.7799263000488281
 13.9008255004882812 11.4248590469360352 35.5090827941894531
 12.2838296890258789  8.3667011260986328 35.1096725463867188
 12.2057476043701172 10.0883207321166992 35.5166816711425781
 14.6078872680664045  7.7848453521728516 35.8475227355957031
 15.7608184814453107  9.0928621292114258 35.8950271606445312
 15.4925861358642560  7.0839896202087393 34.0421524047851562
 13.7469549179077148  6.9465541839599609 33.7684326171875000
 13.9731235504150373  7.0683326721191406 31.4443721771240270
 15.6176118850708008  7.7402219772338867 31.5050888061523438
 16.1461868286132812 11.3983831405639648 33.4293899536132884
 16.5349540710449219 11.0546636581420898 35.1035270690918040
 15.7699451446533203 12.6086168289184570 34.6262321472167969
 10.7297658920288086  9.6324815750122070 33.5685119628906321
 12.0421695709228516  8.7873601913452148 32.6885566711425781
 12.0842094421386719 10.5699949264526367 32.9328041076660156
 13.2320175170898438  8.6681385040283203 37.5601577758789134
 13.5966205596923828 10.3138504028320295 37.0277519226074219
 14.7378854751586914  9.4927415847778320 38.0319709777832102
 15.1186714172363281  4.9044828414916992 32.5290222167968750
 15.2272882461547852  5.2259373664855957 30.7909774780273438
 16.9353027343750000  3.3175666332244869 31.4722976684570312
 17.5594463348388672  7.5616216659545898 32.1735458374023438
  1.3114223480224612  2.9827306270599365 31.5718154907226562
  1.8554363250732420  7.2160844802856436 32.3291511535644602
  2.8685207366943373  4.9004373550415039 32.0181961059570312
 17.9390373229980469  4.1802258491516113 35.0062484741210938
  0.3979358673095724 13.9168481826782209 34.8318710327148438
  9.1155271530151349  4.5461082458496094 34.9245986938476634
  9.1622714996337891 13.9178590774536133 34.8519783020019531
  4.5153822898864746  9.0599241256713867 34.7439727783203125
  4.6751260021701455 17.8979027867317200 34.8458290100097727
 13.7354492405429465 17.8982803225517273 34.8847007751464915
  0.0298512019217014  4.4754257202148438 40.6115264892578196
  0.1387609988451004 13.8115406036376953 40.7040977478027344
  9.0289707183837891  4.5898542404174805 40.4877777099609375
  8.9754695892333984 13.5581760406494141 40.6413192749023438
  4.5513486862182617  9.0284252166748047 40.6019287109375000
  4.5301703670993447 18.0529958335682750 40.5361557006836009
 13.3551006317138654  8.9971303939819336 40.7524452209472656
 13.5772914886474609  0.0520483180880547 40.5676841735839915
  9.0289716720581055  4.5156092643737793 46.4455223083496165
  9.0265130996704102 13.5470085144042969 46.4455223083496165
 18.0593719482421875  4.5156092643737793 46.4455223083496165
 18.0569133758544922 13.5470085144042969 46.4455223083496165
  4.5152091979980469  0.0000180629995157 46.4442062377929759
  4.5127501487731934  9.0314178466796857 46.4442062377929759
 13.5456094741821289  0.0000180629995157 46.4442062377929759
 13.5431499481201172  9.0314178466796857 46.4442062377929759
 17.0296630859375000  5.4972248077392578 31.8035488128662109
 17.6042709350585938  4.1729936599731445 31.6083068847656286
 17.8975791931152344  6.5518941879272461 31.9685840606689489
  0.9164161682128927  3.9913876056671138 31.6751766204834020
  1.2459125518798861  6.3348703384399414 32.0693588256835938
  1.7805595397949223  5.0740089416503906 31.9424343109130859
 14.6580018997192383  8.8756599426269531 33.4438743591308594
 14.3858804702758789 11.0164098739624023 34.6375579833984375
 12.5462989807128906  9.3865222930908203 34.7406387329101634
 14.6859016418457031  8.8746957778930664 35.9225654602050781
 14.6706542968750000  7.4110774993896484 33.4164695739746094
 14.9452838897705078  6.9373564720153809 31.9520359039306641
 15.7881841659545898 11.5198545455932617 34.4619216918945312
 11.8227968215942383  9.6133613586425781 33.4052314758300781
 14.0263786315917969  9.3319664001464844 37.2133941650390696
 15.5385866165161133  5.5990571975708008 31.7733135223388672
  0.9834308624267595  3.7723002433776855 35.5874099731445312
  0.8753147125244144 12.8447532653808594 35.4106864929199219
  9.9091205596923828  3.6718716621398926 35.5082855224609375
 10.0926570892333984 13.1613407135009766 35.4218940734863281
  8.1051692962646484  5.1127929687500000 35.4830856323242259
  8.0204954147338867 14.2325067520141584 35.3360023498535227
 16.9950160980224609  4.9320116043090820 35.5135078430175781
 17.5563659667968750 14.6836576461791992 35.3874816894531250
  4.1282525062561035  8.0636339187622070 35.5529098510742188
  3.5324269989505410 17.5509980320930481 35.4076423645019531
 12.8086094120517373 17.1574723720550537 35.4495697021484375
  5.6012263298034668  0.5442690253257751 35.4564781188964915
  5.1828355789184570 10.0910654067993164 35.1495170593261719
 14.2997789382934570  0.8695544004440308 35.4725303649902344
  0.9465498328208923  3.6054933071136475 41.1076316833496094
  0.9231885075569153 12.8774852752685547 41.3194084167480469
  9.8219366073608398  3.6276569366455078 41.0534896850586009
  9.6466207504272461 12.7375545501708984 41.4489364624023509
  3.7248494625091553  8.1402244567871094 41.2092857360839844
  3.6600145557895303 17.2394022941589355 41.1564254760742188
 12.6844272613525391  8.1972160339355469 41.5038528442382812
 12.6202806690707803 17.3576878905296361 41.1693267822265625
  8.1647138595581055  5.2995882034301758 41.1193580627441406
  8.1552238464355469 14.4742116928100586 40.9998092651367188
 17.2856842875480652  5.2028899192810050 41.3129043579101562
 17.2598021030426025 14.4983854293823242 41.3063964843750071
  5.3833713531494141  0.8567637801170348 41.1085243225097656
  5.3015017509460449  9.8879156112670898 41.1722221374511719
 14.4693431854248029  0.7772678732872008 41.1407089233398438
 14.2705526351928711  9.8861713409423828 41.1775970458984375
  0.8273094892501831  3.6869695186614990 47.0359649658203125
  0.8248501420021057 12.7183685302734375 47.0359649658203125
  9.8577098846435547  3.6869695186614990 47.0359649658203125
  9.8552503585815412 12.7183685302734375 47.0359649658203125
  3.6843190193176270  8.2023353576660156 47.0346527099609375
  3.6818594932556152 17.2337341308593750 47.0346527099609375
 12.7147188186645508  8.2023353576660156 47.0346527099609375
 12.7122592926025391 17.2337341308593750 47.0346527099609375
  8.2006769180297852  5.3445744514465332 47.0360260009765696
  8.1982173919677734 14.3759746551513672 47.0360260009765696
 17.2310771942138672  5.3445744514465332 47.0360260009765696
 17.2286186218261719 14.3759746551513672 47.0360260009765696
  5.3436489105224600  0.8290914893150328 47.0346527099609375
  5.3411893844604483  9.8604917526245117 47.0346527099609375
 14.3740482330322266  0.8290914893150328 47.0346527099609375
 14.3715896606445312  9.8604917526245117 47.0346527099609375
 14.1073303222656250  9.5382575988769513 34.7095985412597656
  8.9760780334472656  0.0378096140921116 34.5062294006347656
  8.4727134704589844  8.6771192550659180 34.7229843139648438
 17.9264314025640488  0.1030132994055748 34.4318656921386719
  0.4737450480461121  8.9283571243286133 34.9074935913085938
  4.6407637596130371  4.4440956115722656 34.6493034362792969
  4.4192714691162109 13.7102422714233398 34.4613151550292969
 13.3085651397705078  4.1226334571838379 34.7056007385253906
 13.0398292541503906 14.0541200637817383 34.1320228576660156
  0.1033638119697571  0.0370011068880558 40.9001960754394531
  0.0572047606110573  9.0883321762084943 41.0318679809570384
  9.0893249511718732  0.0596711635589600 40.8751564025878906
  9.0370502471923828  9.0220699310302734 40.9470252990722656
  4.4828119277954102  4.4790973663330078 40.9401550292968750
  4.4938130378723145 13.5557308197021484 40.9045448303222656
 13.3926296234130842  4.4941091537475586 40.9677658081054688
 13.5395984649658203 13.7203168869018555 40.8078384399414062
  2.6389164924621582  1.8396599292755127 38.0363922119140625
  2.6935722827911377 10.9296922683715820 38.0433654785156321
 11.5633754730224609  1.8992376327514648 38.0492935180664062
 11.1252441406250000 11.4736042022705078 38.4071197509765625
  6.4563546180725098  7.0166821479797363 38.1979522705078196
  6.4633822441101065 16.1101474761962891 38.0048828125000000
 15.9611635208129883  6.6616625785827637 38.4027481079101562
 15.4547195434570295 16.1690921783447266 37.9506835937500000
  2.0230233669281006  6.4084076881408683 38.1278686523437571
  1.9624406099319458 15.5330238342285156 37.9521980285644602
 11.1105289459228516  6.6120562553405762 37.9247093200683594
 11.0231580734252930 15.5929088592529297 38.1156082153320312
  7.1192741394042969  2.5376186370849609 38.1257553100585938
  6.9881334304809570 11.6650142669677717 37.8683090209960938
 16.0866470336914062  2.4295005798339844 38.1370086669921875
 16.4726791381835938 11.9760065078735352 38.3601379394531250
  0.0000000000000000  0.0000000000000000 47.1735610961914062
 -0.0024593239650130  9.0313997268676740 47.1735610961914062
  9.0304002761840803  0.0000000000000000 47.1735610961914062
  9.0279407501220685  9.0313997268676740 47.1735610961914062
  4.5139794349670410  4.5156998634338379 47.1742515563964844
  4.5115203857421875 13.5470991134643537 47.1742515563964844
 13.5443792343139648  4.5156998634338379 47.1742515563964844
 13.5419197082519531 13.5470991134643537 47.1742515563964844
  2.4519233703613277  2.0629522800445557 44.0401268005371165
  2.4494640827178955 11.0943517684936523 44.0401268005371165
 11.4823226928710920  2.0629522800445557 44.0401268005371165
 11.4798641204833984 11.0943517684936523 44.0401268005371165
  6.5760178565979004  6.9684472084045410 44.0401268005371165
  6.5735583305358887 15.9998464584350586 44.0401268005371165
 15.6064186096191406  6.9684472084045410 44.0401268005371165
 15.6039590835571289 15.9998464584350586 44.0401268005371165
  2.0610768795013428  6.5788145065307617 44.0400009155273509
  2.0586175918579102 15.6102142333984375 44.0400009155273509
 11.0914773941040039  6.5788145065307617 44.0400009155273509
 11.0890178680419922 15.6102142333984375 44.0400009155273509
  6.9668641090393066  2.4525938034057613 44.0400657653808665
  6.9644045829772949 11.4839935302734375 44.0400657653808665
 15.9972639083862305  2.4525938034057613 44.0400657653808665
 15.9948053359985352 11.4839935302734375 44.0400657653808665
  2.4316265583038330  2.0832188129425049 50.0684852600097656
  2.4291670322418213 11.1146183013915998 50.0684852600097656
 11.4620265960693359  2.0832188129425049 50.0684852600097656
 11.4595670700073224 11.1146183013915998 50.0684852600097656
  6.5963144302368164  6.9481806755065918 50.0684852600097656
  6.5938549041748047 15.9795799255371076 50.0684852600097656
 15.6267137527465803  6.9481806755065918 50.0684852600097656
 15.6242542266845703 15.9795799255371076 50.0684852600097656
  2.0811281204223633  6.5990090370178223 50.0690460205078125
  2.0786688327789307 15.6304082870483398 50.0690460205078125
 11.1115283966064453  6.5990090370178223 50.0690460205078125
 11.1090688705444336 15.6304082870483398 50.0690460205078125
  6.9468131065368652  2.4323906898498531 50.0690460205078125
  6.9443535804748535 11.4637899398803711 50.0690460205078125
 15.9772129058837891  2.4323906898498531 50.0690460205078125
 15.9747543334960938 11.4637899398803711 50.0690460205078125
 18.0458400882780552  0.0657528787851334 37.6488418579101562
  0.1783674210309982  9.0975847244262695 37.9625282287597656
  9.0603742599487305  0.0169721730053425 37.6371078491211009
  9.0164279937744141  8.9702491760253906 37.7317428588867188
  4.6183176040649405  4.4811716079711914 37.7543716430664134
  4.5101222991943359 13.6568593978881836 37.6916084289550781
 13.5168800354003906  4.5275669097900382 37.8577575683593821
 13.5212411880493164 13.6827869415283203 37.7912101745605469
  0.0000090280000222  0.0000090310004452 44.0429992675781250
 -0.0024502959568053  9.0314083099365234 44.0429992675781250
  9.0304088592529297  0.0000090310004452 44.0429992675781250
  9.0279493331909180  9.0314083099365234 44.0429992675781250
  4.5139703750610352  4.5156903266906738 44.0427513122558594
  4.5115113258361816 13.5470905303955078 44.0427513122558594
 13.5443706512451172  4.5156903266906738 44.0427513122558594
 13.5419111251831037 13.5470905303955078 44.0427513122558594
  0.0000000000000000  0.0000000000000000 50.4472808837890696
 -0.0024593239650130  9.0313997268676740 50.4472808837890696
  9.0304002761840803  0.0000000000000000 50.4472808837890696
  9.0279407501220685  9.0313997268676740 50.4472808837890696
  4.5139703750610352  4.5156998634338379 50.4472808837890696
  4.5115113258361816 13.5470991134643537 50.4472808837890696
 13.5443706512451172  4.5156998634338379 50.4472808837890696
 13.5419111251831055 13.5470991134643537 50.4472808837890696
