 H  C  N  I Pb 
 1.0000000000000000
    18.0608005523681641    0.0000000000000000    0.0000000000000000
    -0.0049186488613486   18.0627994537353516    0.0000000000000000
     0.0000000000000000    0.0000000000000000   62.4874992370605469
 H   C   N   I   Pb 
 143  39  47  72  24
Cartesian
  7.3669338226318359  5.0970649719238281 35.1990852355957031
  7.4875149726867676 12.5875511169433594 35.7454795837402344
 16.7341213226318359  5.2753558158874503 36.2573890686035227
 16.7846870422363281 14.7370433807373047 35.8128471374511790
  5.8477993011474609  1.6683571338653564 35.2395782470703125
  5.8167815208435050 10.3812303543090820 35.5600547790527415
 14.4835033416748047  1.8396654129028318 35.3987655639648438
  1.9930858612060574  4.3602194786071777 35.1231079101562571
  1.4074592590332031 12.2967338562011701 35.5890617370605469
 10.6000738143920898  3.3870818614959717 35.2995948791503906
 10.8289947509765625 13.6779661178588867 34.9194679260253906
  6.8252906799316406  0.3319040536880493 34.6419372558593750
  4.5849490165710440 11.2462129592895508 34.6625328063964915
 15.8124151229858398  0.8295401334762573 34.7997169494628906
  1.1507110595703121  5.2061285972595215 36.3885803222656250
 17.9241180419921875 12.5505962371826172 36.3563499450683594
  8.8991346359252930  3.1205487251281738 35.6661758422851634
  9.9543294906616211 12.5033359527587891 35.8666381835937500
  5.5691828727722168  7.9149222373962402 35.7635650634765625
  3.4158799648284912  1.2365102767944336 35.5722122192382812
 12.3144063949584943  0.6121325492858887 35.8248863220214844
  8.1947202682495117  6.5822496414184570 34.7482604980468750
  6.7644696235656738 13.7894105911254883 34.6927986145019531
 15.9851570129394531  4.3873023986816406 34.9644203186035227
 17.6343231201171875 15.7710599899291992 34.7090454101562500
  4.2399621009826660  7.1866126060485840 34.9082107543945312
  2.7932428577914830 17.7978556752204895 34.9742851257324219
 12.2715763309970498 17.0009529590606689 35.2915649414062500
 10.2997179031372070  5.5633397102355957 34.6763763427734375
  8.8853569030761719 14.6396694183349609 34.0563583374023509
  0.0016365051269537  3.6724119186401367 34.0687599182128906
  1.3006649017333993 14.2608966827392578 34.3612976074218750
  3.4272837638854976  9.2581186294555664 34.1418685913085938
  4.9164242008700967 17.0108640193939209 34.3572463989257812
 14.4650205830112082 17.0030543804168701 34.6103019714355540
  8.1952638626098633  5.3291783332824698 42.0443725585937500
  7.9742712974548340 14.6920194625854492 41.9181938171386719
 17.3188039064407384  5.1176886558532715 42.3223152160644531
 16.4991536140441930 13.3473587036132812 41.6230468750000000
  5.3830842971801749  0.7675058841705322 42.1656188964843750
  5.4495301246643066 10.1187763214111328 42.0827789306640625
 14.4087600708007795  0.9615463018417358 42.1893386840820384
 15.0231161117553711  8.7657203674316406 41.7178993225097656
  1.6441503763198853  3.0914607048034668 40.4212799072265625
  1.9291019439697266 12.6387643814086914 40.8416213989257812
 10.4348211288452148  2.9543359279632568 40.4130554199218750
 10.3863067626953125 12.1850261688232422 40.7177505493164062
  3.3618316650390621  7.4330730438232413 40.6955680847167969
  2.9373544910922642 16.7920122146606445 40.3403701782226562
 11.5006723403930664  8.5513582229614258 40.7850532531738281
 12.1604103306308389 16.5819659233093262 40.6208686828613281
  1.1513346433639526  3.4088916778564453 42.0577354431152415
  0.4788405299186707 11.8628244400024414 41.4094963073730540
  9.8419418334960938  3.3862590789794922 41.9908905029296875
  9.8111801147460920 12.8884811401367170 42.2098731994628906
  3.8918132781982422  8.0657844543457031 42.2346763610839844
  3.3491923073306680 17.2360116243362427 41.9818916320800852
 12.6457242965698224  7.8655443191528320 41.9003906250000000
 12.6066841343417764 17.1658111214637756 42.2047042846679688
  7.9033713340759277  6.1016359329223633 40.5120620727539062
  7.5174379348754883 14.9820108413696271 40.2583427429199219
 16.7285467386245728  5.7798128128051758 40.8178520202636790
 16.7240595817565953 14.9999246597290039 41.1321563720703125
  6.1671562194824210  1.1250503063201904 40.6685371398925852
  5.7723512649536133 10.6537370681762695 40.4557876586914134
 14.9548492431640625  1.4275165796279907 40.5966911315917969
 15.2577657699584943 10.0107536315917951 40.5213203430175781
  0.1102475374937057  4.5599656105041495 39.5114440917968750
  0.8848429918289185 14.6932535171508789 40.5161933898925781
  9.2708234786987305  4.6428775787353516 39.3374214172363281
  8.9926013946533203 13.4434623718261719 39.3875160217285156
  4.6686252811923623 17.9573211222887039 39.3993682861328125
  4.4931316375732422  9.0049486160278320 39.4650917053222656
 13.5976194599643332 17.9774301797151566 39.5055961608886719
 13.0556554794311506  9.9550485610961914 39.7979011535644531
  8.1032123565673828  5.4420318603515616 48.0459518432617259
  8.1007528305053711 14.4734306335449219 48.0459518432617259
 17.1336116790771484  5.4420318603515616 48.0459518432617259
 17.1311531066894531 14.4734306335449219 48.0459518432617259
  5.4410333633422852  0.9265221953392029 48.0449485778808594
  5.4385743141174316  9.9579219818115234 48.0449485778808594
 14.4714326858520490  0.9265221953392029 48.0449485778808594
 14.4689741134643555  9.9579219818115234 48.0449485778808594
  1.4218254089355467  3.0919990539550781 46.4558296203613281
  1.4193661212921143 12.1233978271484375 46.4558296203613281
 10.4522256851196289  3.0919990539550781 46.4558296203613281
 10.4497661590576172 12.1233978271484375 46.4558296203613281
  3.0899283885955806  7.6075901985168457 46.4545211791992188
  3.0874691009521484 16.6389904022216797 46.4545211791992188
 12.1203289031982422  7.6075901985168457 46.4545211791992188
 12.1178693771362305 16.6389904022216797 46.4545211791992188
  0.9247469902038573  3.5893490314483643 48.0459518432617259
  0.9222877025604248 12.6207475662231445 48.0459518432617259
  9.9551477432250977  3.5893490314483643 48.0459518432617259
  9.9526882171630859 12.6207475662231445 48.0459518432617259
  3.5868983268737793  8.1048498153686523 48.0448913574218821
  3.5844390392303462 17.1362495422363281 48.0448913574218821
 12.6172990798950195  8.1048498153686523 48.0448913574218821
 12.6148395538330078 17.1362495422363281 48.0448913574218821
  7.6061611175537109  5.9393639564514160 46.4558296203613281
  7.6037015914916992 14.9707632064819336 46.4558296203613281
 16.6365604400634766  5.9393639564514160 46.4558296203613281
 16.6341018676757812 14.9707632064819336 46.4558296203613281
  5.9380125999450684  1.4238001108169553 46.4545211791992188
  5.9355530738830566 10.4551992416381836 46.4545211791992188
 14.9684123992919904  1.4238001108169553 46.4545211791992188
 14.9659538269042951 10.4551992416381836 46.4545211791992188
 -0.0011664569610730  4.5157265663146973 45.3548011779785156
 -0.0036257810425013 13.5471258163452148 45.3548011779785156
  9.0292339324951172  4.5157265663146973 45.3548011779785156
  9.0267744064331037 13.5471258163452148 45.3548011779785156
  4.5152091979980469  0.0000000000000000 45.3536758422851562
  4.5127501487731934  9.0313997268676740 45.3536758422851562
 13.5456094741821289  0.0000000000000000 45.3536758422851562
 13.5431499481201172  9.0313997268676740 45.3536758422851562
 14.4389944076538086  9.1824340820312500 32.1308174133300781
 15.8628730773925763  9.0441837310791016 33.1805915832519531
 13.7207336425781232 11.1947593688964826 33.2435951232910156
 13.6884565353393555 11.2507333755493164 35.0051879882812500
 12.4059123992919922  8.0370826721191406 34.3754882812500000
 12.0826492309570312  9.7080850601196289 34.8453865051269602
 14.3809795379638672  7.6621975898742676 35.3970413208007812
 15.6221494674682617  8.9365243911743164 35.5553550720214844
 15.4803199768066406  6.7617583274841309 33.6885185241699219
 13.7782201766967773  6.8027749061584473 33.2698440551757812
 14.1566991806030256  6.9127445220947266 30.9408931732177734
 15.8335609436035138  7.3836555480957022 31.0990619659423864
 16.2040424346923828 11.1676435470581055 33.2009887695312500
 16.2687225341796875 10.9369869232177734 34.9658889770507812
 15.6256904602050763 12.4418115615844709 34.2909126281738281
 10.8387098312377930  9.2250623703002930 32.8387413024902344
 12.2853965759277344  8.7388181686401367 31.9176502227783203
 12.0357151031494141 10.4398832321166974 32.4256515502929759
 12.7577762603759748  9.1024198532104474 36.7041206359863281
 14.0320243835449219 10.3319444656372070 36.9197654724121165
 14.2169141769409180  8.7077417373657227 37.5861854553222656
 14.8268451690673810  4.6488375663757324 32.0224685668945312
 15.2898187637329102  4.9492387771606445 30.3656787872314489
 16.6966400146484375  2.8837413787841797 31.1548442840576207
 17.5772933959960938  6.9448828697204590 32.3400802612304688
  1.0074558258056621  2.2838692665100098 31.4799022674560582
  1.8540267944335942  6.3451790809631339 32.6485481262207102
  2.6541538238525395  4.0193881988525391 32.2139053344726562
 18.0236721038818359  4.3003053665161133 34.9683952331543040
  0.4719066619873043 13.9962596893310547 35.0249786376953196
  9.4187536239624023  4.9734144210815430 34.9366989135742188
  8.8153095245361328 13.7741556167602539 34.7207412719726562
  4.3553447723388672  9.2164115905761719 34.7209968566894602
  4.8170026997104287 18.0221013128757477 34.7554092407226562
 14.0395073154941201 17.9303509593009949 34.9966583251953125
  0.1533145606517792  4.4342756271362305 40.5940208435058665
  0.3167881667613983 13.8465881347656250 40.9320907592773438
  9.1694860458374023  4.5278086662292480 40.4266433715820312
  8.9529495239257812 13.5821437835693342 40.4768905639648438
  4.5670018196105957  9.0347232818603516 40.5570831298828196
  4.5389813641086221 17.9923318102955818 40.4816894531250000
 13.3714618682861328  9.2921152114868164 40.6124229431152344
 13.5566324451938272 18.0232562385499477 40.5987014770507812
  9.0289716720581055  4.5156092643737793 46.4455223083496165
  9.0265130996704102 13.5470085144042969 46.4455223083496165
 18.0593719482421875  4.5156092643737793 46.4455223083496165
 18.0569133758544922 13.5470085144042969 46.4455223083496165
  4.5152091979980469  0.0000180629995157 46.4442062377929759
  4.5127501487731934  9.0314178466796857 46.4442062377929759
 13.5456094741821289  0.0000180629995157 46.4442062377929759
 13.5431499481201172  9.0314178466796857 46.4442062377929759
 16.9464149475097656  4.9559607505798340 31.6936969757080114
 17.4018821716308594  3.6551442146301265 31.4773502349853551
 17.8832035064697266  5.9180784225463867 32.1160545349121094
  0.6887550354003915  3.3116188049316406 31.6419200897216797
  1.1629486083984391  5.5760245323181152 32.2962341308593750
  1.6106395721435536  4.2748179435729980 32.0419044494628906
 14.8203678131103498  8.7183218002319336 33.0508689880371094
 14.2447671890258789 10.8630352020263672 34.1457977294921875
 12.5496120452880859  9.0862522125244141 34.0731887817382812
 14.5386524200439453  8.7489757537841797 35.5066642761230469
 14.7606086730957031  7.1977987289428711 32.9818153381347656
 15.0579824447631836  6.7489852905273438 31.5446987152099645
 15.6800127029418945 11.3565397262573242 34.1444206237792969
 11.9198074340820312  9.3863468170166016 32.7260017395019531
 13.8308200836181641  9.2733840942382812 36.7285804748535156
 15.4850482940673828  5.2761659622192374 31.4019546508789098
  1.0975914001464870  4.6273846626281738 35.5352973937988352
  0.5517749786376972 12.8448705673217773 35.6447753906250071
  9.6324186325073224  3.7081818580627441 35.2451934814453125
  9.9282550811767578 13.2450361251831055 35.1547584533691406
  8.2386770248413086  5.5642023086547852 34.9033737182617188
  7.6148085594177246 13.3313732147216797 35.0401344299316406
 16.8494644165039062  4.6859602928161621 35.4146308898925852
 17.5153293609619141 14.8287019729614258 35.0989837646484375
  4.7591056823730469  8.0362396240234375 35.1407318115234375
  3.6135740280151367  0.3450733721256256 35.0905838012695384
 12.7754034260287881 17.8942875266075134 35.3472747802734375
  5.8884677886962891  0.7136473655700682 34.8537635803222656
  4.9833579063415527 10.3404397964477539 34.9639663696289062
 14.8233766555786133  0.9191188812255859 35.0808143615722656
  1.0310184955596924  3.5874128341674805 41.0662536621093750
  0.9352343082427979 12.7074346542358398 41.0718498229980540
  9.8514184951782227  3.5615181922912598 40.9894866943359375
  9.7573518753051758 12.8364629745483398 41.2033958435058594
  3.9063556194305420  8.1272735595703125 41.2228393554687500
  3.5469030598178501 17.3096429109573400 40.9846534729003906
 12.4604206085205078  8.5058202743530273 41.1294631958007884
 12.7357229450717568 17.2058299183845520 41.1983070373535156
  8.3738632202148438  5.3709821701049805 41.0485115051269531
  8.0927124023437500 14.4672784805297852 40.9304924011230469
 17.3747000694274938  5.1463770866394034 41.3061752319336009
 17.1161727309227025 14.0663661956787109 41.2381324768066477
  5.4007239341735840  0.6523613929748535 41.1564483642578196
  5.3079285621643066  9.9932641983032209 41.0836257934570384
 14.3488540649414062  0.8431177735328674 41.1829032897949219
 14.6268501281738281  9.3542842864990234 40.9832458496093750
  0.8273094892501831  3.6869695186614990 47.0359649658203125
  0.8248501420021057 12.7183685302734375 47.0359649658203125
  9.8577098846435547  3.6869695186614990 47.0359649658203125
  9.8552503585815412 12.7183685302734375 47.0359649658203125
  3.6843190193176270  8.2023353576660156 47.0346527099609375
  3.6818594932556152 17.2337341308593750 47.0346527099609375
 12.7147188186645508  8.2023353576660156 47.0346527099609375
 12.7122592926025391 17.2337341308593750 47.0346527099609375
  8.2006769180297852  5.3445744514465332 47.0360260009765696
  8.1982173919677734 14.3759746551513672 47.0360260009765696
 17.2310771942138672  5.3445744514465332 47.0360260009765696
 17.2286186218261719 14.3759746551513672 47.0360260009765696
  5.3436489105224600  0.8290914893150328 47.0346527099609375
  5.3411893844604483  9.8604917526245117 47.0346527099609375
 14.3740482330322266  0.8290914893150328 47.0346527099609375
 14.3715896606445312  9.8604917526245117 47.0346527099609375
 14.0530118942260742  9.3545761108398438 34.1860466003417969
  9.2147392490878701 17.6956336200237274 34.5455665588378977
  8.5294284820556641  9.1908454895019531 34.5699386596679688
  0.1491325795650482  0.2296390980482101 34.4369468688964844
  0.5771244764328003  8.8540649414062500 34.6464958190917969
  4.6417288780212402  4.3535327911376953 34.6597595214843750
  4.1543879508972168 13.8453245162963867 34.4272689819335938
 13.2751455307006836  4.1244425773620605 34.6652450561523438
 13.1710128784179688 14.3731822967529279 34.6327095031738281
 17.9849575916305184 17.7665411233901978 40.8793907165527415
  0.1442783027887344  9.1051378250122070 40.9434471130371094
  8.9829034805297852  0.0247801467776299 40.8959465026855540
  8.9318218231201172  9.0541086196899414 40.8734321594238281
  4.7546586990356445  4.3441567420959473 40.9515838623046875
  4.4354839324951172 13.6273183822631836 40.8492546081543040
 13.4329566955566406  4.7356724739074707 40.9495010375976562
 13.5318050384521484 13.2824974060058594 40.9284591674804688
  2.4553611278533936  2.1250228881835938 38.0581207275390625
  2.6547625064849854 10.9906644821166992 37.8762016296386719
 11.5502996444702148  2.0174977779388428 38.0459976196289062
 11.1626605987548828 11.3886241912841797 37.9765777587890625
  6.6391716003417969  6.9500856399536133 38.0083580017089844
  6.5790772438049316 16.0031127929687500 37.8410339355468750
 16.0253734588623047  6.5951733589172363 38.2328376770019531
 15.5778837203979492 16.0958099365234375 37.8530273437500000
  2.2805140018463135  6.6729946136474609 38.1848754882812571
  2.0855667591094971 15.7606077194213867 37.8504371643066406
 11.1196975708007812  6.6469244956970215 37.5968971252441406
 11.1118450164794922 15.5942754745483398 38.2437095642089915
  7.1588268280029297  2.5292670726776123 37.7290191650390696
  6.8426027297973624 11.4339790344238281 37.9630508422851562
 15.9305810928344727  2.4105515480041504 38.2689094543457031
 16.2924938201904297 11.7019824981689453 38.1371231079101562
  0.0000000000000000  0.0000000000000000 47.1735610961914062
 -0.0024593239650130  9.0313997268676740 47.1735610961914062
  9.0304002761840803  0.0000000000000000 47.1735610961914062
  9.0279407501220685  9.0313997268676740 47.1735610961914062
  4.5139794349670410  4.5156998634338379 47.1742515563964844
  4.5115203857421875 13.5470991134643537 47.1742515563964844
 13.5443792343139648  4.5156998634338379 47.1742515563964844
 13.5419197082519531 13.5470991134643537 47.1742515563964844
  2.4519233703613277  2.0629522800445557 44.0401268005371165
  2.4494640827178955 11.0943517684936523 44.0401268005371165
 11.4823226928710920  2.0629522800445557 44.0401268005371165
 11.4798641204833984 11.0943517684936523 44.0401268005371165
  6.5760178565979004  6.9684472084045410 44.0401268005371165
  6.5735583305358887 15.9998464584350586 44.0401268005371165
 15.6064186096191406  6.9684472084045410 44.0401268005371165
 15.6039590835571289 15.9998464584350586 44.0401268005371165
  2.0610768795013428  6.5788145065307617 44.0400009155273509
  2.0586175918579102 15.6102142333984375 44.0400009155273509
 11.0914773941040039  6.5788145065307617 44.0400009155273509
 11.0890178680419922 15.6102142333984375 44.0400009155273509
  6.9668641090393066  2.4525938034057613 44.0400657653808665
  6.9644045829772949 11.4839935302734375 44.0400657653808665
 15.9972639083862305  2.4525938034057613 44.0400657653808665
 15.9948053359985352 11.4839935302734375 44.0400657653808665
  2.4316265583038330  2.0832188129425049 50.0684852600097656
  2.4291670322418213 11.1146183013915998 50.0684852600097656
 11.4620265960693359  2.0832188129425049 50.0684852600097656
 11.4595670700073224 11.1146183013915998 50.0684852600097656
  6.5963144302368164  6.9481806755065918 50.0684852600097656
  6.5938549041748047 15.9795799255371076 50.0684852600097656
 15.6267137527465803  6.9481806755065918 50.0684852600097656
 15.6242542266845703 15.9795799255371076 50.0684852600097656
  2.0811281204223633  6.5990090370178223 50.0690460205078125
  2.0786688327789307 15.6304082870483398 50.0690460205078125
 11.1115283966064453  6.5990090370178223 50.0690460205078125
 11.1090688705444336 15.6304082870483398 50.0690460205078125
  6.9468131065368652  2.4323906898498531 50.0690460205078125
  6.9443535804748535 11.4637899398803711 50.0690460205078125
 15.9772129058837891  2.4323906898498531 50.0690460205078125
 15.9747543334960938 11.4637899398803711 50.0690460205078125
 18.0208985880017281  0.1175395473837852 37.7547187805175781
  0.1707716286182404  9.0599517822265607 37.7367553710937571
  9.0542968967929482 17.9524099156260490 37.6883506774902344
  9.0179891586303711  9.0366258621215820 37.6559829711914062
  4.6121277809143066  4.4924998283386230 37.8616294860839844
  4.4139161109924316 13.6676473617553711 37.6894035339355540
 13.5096921920776367  4.5364680290222168 37.8525390625000000
 13.5502815246582031 13.6860322952270508 37.8003807067871094
  0.0000090280000222  0.0000090310004452 44.0429992675781250
 -0.0024502959568053  9.0314083099365234 44.0429992675781250
  9.0304088592529297  0.0000090310004452 44.0429992675781250
  9.0279493331909180  9.0314083099365234 44.0429992675781250
  4.5139703750610352  4.5156903266906738 44.0427513122558594
  4.5115113258361816 13.5470905303955078 44.0427513122558594
 13.5443706512451172  4.5156903266906738 44.0427513122558594
 13.5419111251831037 13.5470905303955078 44.0427513122558594
  0.0000000000000000  0.0000000000000000 50.4472808837890696
 -0.0024593239650130  9.0313997268676740 50.4472808837890696
  9.0304002761840803  0.0000000000000000 50.4472808837890696
  9.0279407501220685  9.0313997268676740 50.4472808837890696
  4.5139703750610352  4.5156998634338379 50.4472808837890696
  4.5115113258361816 13.5470991134643537 50.4472808837890696
 13.5443706512451172  4.5156998634338379 50.4472808837890696
 13.5419111251831055 13.5470991134643537 50.4472808837890696
