 H  C  N  I Pb 
 1.0000000000000000
    18.0608005523681641    0.0000000000000000    0.0000000000000000
    -0.0049186488613486   18.0627994537353516    0.0000000000000000
     0.0000000000000000    0.0000000000000000   62.4874992370605469
 H   C   N   I   Pb 
 143  39  47  72  24
Cartesian
  8.0088787078857422  5.9424228668212882 35.5010757446289062
  7.5873684883117676 14.9764366149902344 35.5388603210449290
 17.3853874206542969  5.8172750473022461 36.1128273010253906
 17.1135883331298828 14.7053585052490234 35.9259872436523438
  5.8658551434054971 17.2140088081359863 35.8133239746093821
  6.2138924598693839 10.1418724060058594 35.3535842895507884
 14.5016765594482422  1.4634604454040527 35.8218383789062571
  0.2938861846923847  2.5056986808776855 35.0663566589355469
  1.1608848571777355 11.7960548400878888 35.5034294128417969
 10.1083717346191406  3.1154680252075195 34.6459922790527415
  9.1260833740234375 11.7198886871337891 35.1568374633789062
  6.5650968551635742  0.3732385337352753 34.8011665344238281
  5.1699132919311523 11.3853979110717773 34.6950340270996094
 15.7697782516479474  0.4082988798618317 35.2240371704101634
 17.4644908905029297  3.3519043922424316 36.2616806030273509
 17.9372291564941406 12.4208574295043945 36.4864730834960938
 10.1407661437988281  4.6547203063964835 35.4902648925781250
  7.8367133140563965 12.5383453369140625 35.9745979309082031
  5.1544342041015625  7.9199395179748535 35.8135490417480469
  3.4448622921481729 16.8066184520721436 35.6493568420410156
 12.1825656890869141  0.5791967511177062 35.6773529052734375
  6.6426229476928702  5.1521954536437988 34.7515258789062500
  8.8070669174194336 15.7383031845092756 34.5729637145996165
  0.3388385772705096  6.5886149406433105 34.9200210571289062
 17.9909076690673828 15.5735073089599609 34.7024002075195384
  3.5223610401153564  7.7304134368896484 35.2594795227050781
  2.4994842270389199 17.8917491734027898 34.6860313415527344
 12.0165495136752725 17.0209952592849731 35.0563392639160156
  7.8686933517456055  3.3178217411041260 34.0893707275390625
  9.9491138458251953 13.7219800949096662 34.2229728698730540
  1.0412120819091812  4.4986224174499512 34.0379905700683594
  1.3925628662109415 13.7819309234619123 34.2774543762207031
  3.3607516288757324  9.8921375274658203 34.5066375732421875
  4.4231915473937988  1.0429518222808838 34.0198516845703125
 14.2551025608554482 16.7799930572509766 34.6667785644531250
  8.7434186935424805  6.0830760002136230 41.6875114440917969
  8.0027227401733398 14.6919670104980469 42.0972938537597656
 17.4693660736084020  5.0692715644836426 42.3992729187011790
 16.7028774023056030 13.1398687362670881 42.0566253662109375
  5.6132359504699707  0.9449387788772583 41.9242706298828125
  5.4113965034484863  9.9520225524902344 42.1921463012695312
 14.3424768447875977  1.0937944650650024 42.1947898864746094
 13.6450843811035138 10.7778692245483398 41.4145584106445384
  1.5180939435958862  2.9496505260467525 40.3048439025878906
  1.9793181419372559 12.9998731613159180 40.6649513244628906
 10.4944019317626953  3.1135816574096680 40.5553131103515625
 10.1837940216064453 12.0652780532836914 40.7126159667968821
  3.2850322723388672  7.4881587028503409 40.4892730712890625
  3.1178993443027139 16.6523822546005249 40.5628738403320384
 12.8394155502319336  7.2293205261230469 41.3545532226562500
 12.2257198551669717 16.6197741031646729 40.5905914306640625
  1.1520644426345825  3.2022788524627686 41.9874801635742259
  0.9971716403961183 12.2347755432128888 41.8568649291992188
 10.7778711318969727  4.6489539146423331 41.2824325561523509
  9.5692605972290039 12.6254377365112305 42.2535972595214915
  3.6110892295837402  8.0608386993408203 42.1001930236816406
  3.7210652092471719 17.1804631948471069 42.1007881164550852
 12.1832151412963867  8.7832489013671875 41.8404922485351562
 12.4791397312656045 17.3239231705665588 42.1560363769531250
  7.2164282798767090  5.3508043289184570 41.2468681335449290
  7.7490115165710449 15.2612924575805664 40.4784431457519531
 16.9098423719406163  5.8806872367858878 40.9708786010742188
 16.2871035337448120 14.4067773818969727 40.9367828369140625
  6.0048103332519531  1.3786712884902954 40.2923698425293040
  6.0159850120544425 10.4238920211791992 40.6317062377929759
 15.0765399932861328  1.3911676406860349 40.6575126647949219
 15.1166048049926758 10.4810428619384766 40.5287895202636719
  0.1250827759504318  4.6178259849548340 39.5377044677734446
  0.3131065368652344 14.4423494338989258 39.9549255371093750
  8.2053861618041992  3.4481620788574219 40.3942794799804759
  9.0929737091064453 13.6657581329345703 39.4941940307617259
  4.4822973469272256 18.0157601870596409 39.3187065124511719
  4.7295465469360352  8.9121999740600586 39.4513130187988281
 13.8483833530917764 17.8747211545705795 39.5354423522949290
 14.7267208099365234  8.1750516891479492 40.3922004699707031
  8.1032123565673828  5.4420318603515616 48.0459518432617259
  8.1007528305053711 14.4734306335449219 48.0459518432617259
 17.1336116790771484  5.4420318603515616 48.0459518432617259
 17.1311531066894531 14.4734306335449219 48.0459518432617259
  5.4410333633422852  0.9265221953392029 48.0449485778808594
  5.4385743141174316  9.9579219818115234 48.0449485778808594
 14.4714326858520490  0.9265221953392029 48.0449485778808594
 14.4689741134643555  9.9579219818115234 48.0449485778808594
  1.4218254089355467  3.0919990539550781 46.4558296203613281
  1.4193661212921143 12.1233978271484375 46.4558296203613281
 10.4522256851196289  3.0919990539550781 46.4558296203613281
 10.4497661590576172 12.1233978271484375 46.4558296203613281
  3.0899283885955806  7.6075901985168457 46.4545211791992188
  3.0874691009521484 16.6389904022216797 46.4545211791992188
 12.1203289031982422  7.6075901985168457 46.4545211791992188
 12.1178693771362305 16.6389904022216797 46.4545211791992188
  0.9247469902038573  3.5893490314483643 48.0459518432617259
  0.9222877025604248 12.6207475662231445 48.0459518432617259
  9.9551477432250977  3.5893490314483643 48.0459518432617259
  9.9526882171630859 12.6207475662231445 48.0459518432617259
  3.5868983268737793  8.1048498153686523 48.0448913574218821
  3.5844390392303462 17.1362495422363281 48.0448913574218821
 12.6172990798950195  8.1048498153686523 48.0448913574218821
 12.6148395538330078 17.1362495422363281 48.0448913574218821
  7.6061611175537109  5.9393639564514160 46.4558296203613281
  7.6037015914916992 14.9707632064819336 46.4558296203613281
 16.6365604400634766  5.9393639564514160 46.4558296203613281
 16.6341018676757812 14.9707632064819336 46.4558296203613281
  5.9380125999450684  1.4238001108169553 46.4545211791992188
  5.9355530738830566 10.4551992416381836 46.4545211791992188
 14.9684123992919904  1.4238001108169553 46.4545211791992188
 14.9659538269042951 10.4551992416381836 46.4545211791992188
 -0.0011664569610730  4.5157265663146973 45.3548011779785156
 -0.0036257810425013 13.5471258163452148 45.3548011779785156
  9.0292339324951172  4.5157265663146973 45.3548011779785156
  9.0267744064331037 13.5471258163452148 45.3548011779785156
  4.5152091979980469  0.0000000000000000 45.3536758422851562
  4.5127501487731934  9.0313997268676740 45.3536758422851562
 13.5456094741821289  0.0000000000000000 45.3536758422851562
 13.5431499481201172  9.0313997268676740 45.3536758422851562
 14.0039739608764648 10.0303163528442365 32.4899978637695312
 13.0255594253540039  8.6112985610961914 32.8320121765136719
 15.7181863784790039  9.0519580841064453 33.8088226318359375
 15.4653606414794922  8.7045011520385742 35.5056800842285156
 13.4173326492309570 11.5712022781372070 34.9718589782714844
 14.5850076675415021 10.8042135238647461 36.0726547241211009
 12.0384597778320312  9.9173946380615234 35.6071166992187500
 12.2315044403076172  8.2702102661132812 35.0370750427246094
 11.1225786209106445 10.0239343643188477 33.6032638549804688
 12.1276540756225586 11.4827442169189453 33.4632034301757812
 10.9456739425659180 11.6416301727294922 31.5111923217773473
 12.3995351791381836 10.8551549911499023 30.9187927246093750
 14.2495622634887695  7.0760655403137207 33.1609840393066406
 14.0553617477416992  6.6682457923889160 34.8718872070312500
 15.6455421447753888  6.6490011215209961 34.1163864135742188
 15.5974988937377912 12.5509490966796875 34.7092628479003906
 15.2547473907470703 11.6936111450195312 33.2117881774902344
 16.3989410400390625 10.9973621368408203 34.4023399353027344
 13.7261819839477539  9.5567531585693359 37.4399223327636719
 14.0005855560302734  7.8891525268554688 36.8807716369628906
 12.4158725738525391  8.3899879455566406 37.4797668457031321
  9.6542901992797852  9.5707902908325195 31.4568138122558594
 10.4247188568115234  9.8926734924316406 29.9058132171630895
 12.5716075897216797  8.6055469512939453 29.2592277526855504
 10.1388988494873047  7.5471401214599609 32.6746711730957031
 13.7562055587768555  6.4235811233520508 29.4527931213378906
 11.3581991195678693  5.3890872001647949 32.8626747131347727
 13.1707429885864258  4.8267650604248047 31.2849578857421911
  0.3635559082031244  4.5440139770507812 34.8932800292968821
  0.6088600158691436 13.6894483566284180 35.0219383239746165
  8.3587570190429688  4.1315021514892578 34.6108474731445312
  9.0204925537109375 13.7272434234619123 34.7987670898437500
  4.3179578781127930  9.5518455505371094 34.9003829956054759
  4.5232491493225098  0.1847936809062958 34.6819572448730469
 13.8995699146762490 17.7168802320957184 35.0975036621093750
  0.1799276769161224  4.4190106391906738 40.6077651977539062
  0.1039958968758583 13.7339315414428711 40.7547378540039062
  8.8248758316040039  4.2151560783386230 40.8403892517089915
  8.9696664810180664 13.6664943695068359 40.5616874694824290
  4.6482257843017578  8.9482660293579102 40.5385093688964844
  4.5597743252292275 18.0520130433142185 40.4039459228515625
 14.0042963027954102  8.8251914978027344 40.8985939025878906
 13.6638435581699014 18.0307912565767765 40.5954551696777344
  9.0289716720581055  4.5156092643737793 46.4455223083496165
  9.0265130996704102 13.5470085144042969 46.4455223083496165
 18.0593719482421875  4.5156092643737793 46.4455223083496165
 18.0569133758544922 13.5470085144042969 46.4455223083496165
  4.5152091979980469  0.0000180629995157 46.4442062377929759
  4.5127501487731934  9.0314178466796857 46.4442062377929759
 13.5456094741821289  0.0000180629995157 46.4442062377929759
 13.5431499481201172  9.0314178466796857 46.4442062377929759
 11.2728261947631818  8.2370185852050781 30.9770565032959020
 12.2864265441894531  7.8928461074829102 30.0665321350097692
 10.9261112213134766  7.3090324401855460 31.9634017944335938
 12.9669237136840820  6.6821193695068359 30.1740379333496094
 11.6013202667236328  6.0953736305236816 32.0704269409179688
 12.6361408233642578  5.7763242721557617 31.1904411315918004
 13.2181510925292969  9.6388092041015625 33.1396827697753906
 15.0039176940917951  8.6223411560058594 34.5161170959472656
 14.2947282791137695 10.9228801727294922 35.0217781066894531
 12.7597475051879883  9.0992832183837891 35.5238723754882884
 11.9425106048583984 10.4791469573974592 33.0196113586425781
 11.5163621902465820 10.7021656036376953 31.5534782409667969
 14.6937646865844727  7.1887559890747070 34.1546936035156321
 15.4577398300170898 11.5492372512817365 34.2788619995117259
 13.2775945663452148  8.7199707031250000 36.8894348144531250
 10.6327953338623047  9.6030864715576172 30.9398040771484375
  0.0304622650146470  3.4116029739379883 35.4519615173339844
  0.5748634338378941 12.5935592651367188 35.7340927124023438
  9.6433944702148438  3.9929087162017822 34.8661193847656321
  8.6166467666625977 12.5921564102172852 35.3135375976562500
  7.6478900909423819  5.1678452491760245 34.9288787841796875
  8.3945512771606445 14.8680887222290039 34.9231033325195312
 18.0146427154541016  5.7194023132324219 35.3039932250976562
 17.8286228179931641 14.6867513656616211 35.1838531494140696
  4.3783917427062988  8.2853736877441406 35.2565727233886719
  3.4312099674716592 17.5731852650642395 34.9842796325683594
 12.6059078434482217 17.8415543138980865 35.2251472473144602
  5.7071713665500283 17.9440374746918714 35.1211395263671875
  5.3083882331848145 10.3990812301635742 34.9791641235351562
 14.7764749526977539  0.5691003203392029 35.4345512390136719
  0.9957712888717651  3.4542038440704341 41.0189476013183594
  1.0773833990097046 12.9115180969238263 41.1072578430175852
 10.1150484085082990  3.9769921302795410 40.9120025634765625
  9.6044197082519531 12.7342214584350568 41.2355537414550852
  3.8097791671752930  8.1181735992431641 41.0896644592285156
  3.7515999535098672 17.2584154605865479 41.0805473327636719
 12.9224596023559570  8.2549028396606445 41.3710937500000000
 12.7388920048251748 17.2838509678840637 41.1653938293457031
  8.2350358963012695  5.2953419685363770 41.2549400329589915
  8.2080669403076172 14.5940284729003888 41.0971870422363281
 17.4951912760734558  5.1596403121948233 41.3850402832031321
 16.9926253557205200 13.7849092483520490 41.3189163208007884
  5.4388236999511710  0.8066384792327881 40.9152107238769531
  5.4073500633239746  9.8203897476196271 41.1756362915039062
 14.3928785324096680  0.8666931986808777 41.1925926208496094
 14.2660551071166974 10.1000118255615217 40.9742965698242188
  0.8273094892501831  3.6869695186614990 47.0359649658203125
  0.8248501420021057 12.7183685302734375 47.0359649658203125
  9.8577098846435547  3.6869695186614990 47.0359649658203125
  9.8552503585815412 12.7183685302734375 47.0359649658203125
  3.6843190193176270  8.2023353576660156 47.0346527099609375
  3.6818594932556152 17.2337341308593750 47.0346527099609375
 12.7147188186645508  8.2023353576660156 47.0346527099609375
 12.7122592926025391 17.2337341308593750 47.0346527099609375
  8.2006769180297852  5.3445744514465332 47.0360260009765696
  8.1982173919677734 14.3759746551513672 47.0360260009765696
 17.2310771942138672  5.3445744514465332 47.0360260009765696
 17.2286186218261719 14.3759746551513672 47.0360260009765696
  5.3436489105224600  0.8290914893150328 47.0346527099609375
  5.3411893844604483  9.8604917526245117 47.0346527099609375
 14.3740482330322266  0.8290914893150328 47.0346527099609375
 14.3715896606445312  9.8604917526245117 47.0346527099609375
 13.8246784210205060  9.5636625289916992 34.5376510620117188
  9.1365203857421875  0.3376756310462952 34.4527473449707031
  8.6026182174682617  9.0231285095214844 34.6842727661132812
  0.0301544126123190  0.0450185872614384 34.3440704345703196
  0.7194856405258179  9.1246023178100586 34.5668983459472656
  4.1838698387145996  4.3654427528381348 34.4820060729980540
  4.5310044288635245 13.8456344604492188 34.5766029357910227
 13.2800483703613263  3.6465167999267578 34.6988296508789062
 12.7238979339599592 14.3127422332763654 34.5546379089355540
  0.0231389338150620 17.7350355982780457 40.8773689270019531
  0.0512583479285240  8.9844579696655273 40.9463691711425852
  9.0858354568481445  0.2564250230789185 40.8702163696289062
  9.2886877059936523  8.8116197586059570 40.9261741638183665
  4.7049574851989746  4.4411535263061523 40.8918533325195312
  4.5630698204040527 13.6324424743652344 40.9141998291015625
 13.6435956954956055  4.7656645774841309 40.9122047424316406
 13.4579038619995117 13.6011495590209961 40.8754768371582031
  2.4275829792022705  1.9516561031341551 37.9929809570312500
  2.6852254867553711 10.9421014785766602 38.1028747558593821
 11.6992578506469727  1.8954551219940186 38.1342391967773438
 11.1436510086059570 11.4140529632568359 38.2353668212890696
  6.5050764083862305  6.9231538772583008 37.8837318420410227
  6.7179713249206543 15.9438533782958984 37.9566993713378906
 16.1136226654052734  6.5810451507568359 38.2273139953613281
 15.7462997436523438 15.7379837036132812 37.9196510314941406
  2.2590570449829102  6.6145682334899902 38.1074981689453196
  2.2504055500030518 15.7195529937744141 37.9509124755859375
 10.5902032852172834  6.0278582572937012 37.6193771362304688
 11.1456975936889648 15.7762708663940430 38.2213096618652344
  6.9682450294494629  2.4249947071075439 37.8422927856445384
  6.9313797950744629 11.3595724105834961 38.2106704711914062
 15.9971256256103498  2.4090883731842041 38.2417297363281321
 16.3091125488281250 11.5657176971435547 38.2786102294921875
  0.0000000000000000  0.0000000000000000 47.1735610961914062
 -0.0024593239650130  9.0313997268676740 47.1735610961914062
  9.0304002761840803  0.0000000000000000 47.1735610961914062
  9.0279407501220685  9.0313997268676740 47.1735610961914062
  4.5139794349670410  4.5156998634338379 47.1742515563964844
  4.5115203857421875 13.5470991134643537 47.1742515563964844
 13.5443792343139648  4.5156998634338379 47.1742515563964844
 13.5419197082519531 13.5470991134643537 47.1742515563964844
  2.4519233703613277  2.0629522800445557 44.0401268005371165
  2.4494640827178955 11.0943517684936523 44.0401268005371165
 11.4823226928710920  2.0629522800445557 44.0401268005371165
 11.4798641204833984 11.0943517684936523 44.0401268005371165
  6.5760178565979004  6.9684472084045410 44.0401268005371165
  6.5735583305358887 15.9998464584350586 44.0401268005371165
 15.6064186096191406  6.9684472084045410 44.0401268005371165
 15.6039590835571289 15.9998464584350586 44.0401268005371165
  2.0610768795013428  6.5788145065307617 44.0400009155273509
  2.0586175918579102 15.6102142333984375 44.0400009155273509
 11.0914773941040039  6.5788145065307617 44.0400009155273509
 11.0890178680419922 15.6102142333984375 44.0400009155273509
  6.9668641090393066  2.4525938034057613 44.0400657653808665
  6.9644045829772949 11.4839935302734375 44.0400657653808665
 15.9972639083862305  2.4525938034057613 44.0400657653808665
 15.9948053359985352 11.4839935302734375 44.0400657653808665
  2.4316265583038330  2.0832188129425049 50.0684852600097656
  2.4291670322418213 11.1146183013915998 50.0684852600097656
 11.4620265960693359  2.0832188129425049 50.0684852600097656
 11.4595670700073224 11.1146183013915998 50.0684852600097656
  6.5963144302368164  6.9481806755065918 50.0684852600097656
  6.5938549041748047 15.9795799255371076 50.0684852600097656
 15.6267137527465803  6.9481806755065918 50.0684852600097656
 15.6242542266845703 15.9795799255371076 50.0684852600097656
  2.0811281204223633  6.5990090370178223 50.0690460205078125
  2.0786688327789307 15.6304082870483398 50.0690460205078125
 11.1115283966064453  6.5990090370178223 50.0690460205078125
 11.1090688705444336 15.6304082870483398 50.0690460205078125
  6.9468131065368652  2.4323906898498531 50.0690460205078125
  6.9443535804748535 11.4637899398803711 50.0690460205078125
 15.9772129058837891  2.4323906898498531 50.0690460205078125
 15.9747543334960938 11.4637899398803711 50.0690460205078125
 18.0121577316895127 18.0227287150919437 37.8290328979492259
  0.1644151210784912  9.0506401062011719 37.8271636962890696
  9.0670614242553693  0.1334641575813293 37.7228660583496094
  8.9948883056640625  8.8995971679687500 37.7987785339355469
  4.4233169555664062  4.4078488349914551 37.6338691711425781
  4.4855337142944336 13.4567480087280273 37.7431182861328196
 13.4053506851196289  4.4524960517883301 37.6689414978027344
 13.2788267135620099 13.6711282730102539 37.6371498107910156
  0.0000090280000222  0.0000090310004452 44.0429992675781250
 -0.0024502959568053  9.0314083099365234 44.0429992675781250
  9.0304088592529297  0.0000090310004452 44.0429992675781250
  9.0279493331909180  9.0314083099365234 44.0429992675781250
  4.5139703750610352  4.5156903266906738 44.0427513122558594
  4.5115113258361816 13.5470905303955078 44.0427513122558594
 13.5443706512451172  4.5156903266906738 44.0427513122558594
 13.5419111251831037 13.5470905303955078 44.0427513122558594
  0.0000000000000000  0.0000000000000000 50.4472808837890696
 -0.0024593239650130  9.0313997268676740 50.4472808837890696
  9.0304002761840803  0.0000000000000000 50.4472808837890696
  9.0279407501220685  9.0313997268676740 50.4472808837890696
  4.5139703750610352  4.5156998634338379 50.4472808837890696
  4.5115113258361816 13.5470991134643537 50.4472808837890696
 13.5443706512451172  4.5156998634338379 50.4472808837890696
 13.5419111251831055 13.5470991134643537 50.4472808837890696
