 H  C  N  I Pb 
 1.0000000000000000
    18.0608005523681641    0.0000000000000000    0.0000000000000000
    -0.0049186488613486   18.0627994537353516    0.0000000000000000
     0.0000000000000000    0.0000000000000000   62.4874992370605469
 H   C   N   I   Pb 
 143  39  47  72  24
Cartesian
  7.9161152839660645  5.4455094337463379 35.9094810485839844
  7.9034547805786133 15.0302505493164062 35.9972686767578196
 17.7795925140380859  5.5776977539062500 36.3765373229980540
 17.4752368927001953 14.4476652145385742 36.4029006958007812
  5.7467192867770791 17.8105369806289708 36.1176147460937500
  5.7358512878417969 10.0955257415771484 36.1682815551757884
 14.2476987838745099  1.2274028062820432 36.3972930908203125
  0.8895092010498037  2.4653456211090088 35.0537948608398438
  0.9910526275634756 11.5871887207031250 34.8988685607910156
 10.6152744293212873  3.4827375411987300 34.6020545959472727
  9.7927837371826172 12.0751228332519531 35.1581764221191406
  6.2412118911743164  0.7630460262298584 34.8210678100585938
  5.2449254989624023 11.0921478271484375 34.8583564758300781
 15.4541358947753906  1.0093613862991333 35.2031326293945312
  0.4678363800048820  3.1790769100189209 36.5382652282714844
  0.3698368072509779 12.1602210998535156 36.3941154479980469
 10.2028865814208984  4.6870532035827637 35.7751235961914062
  8.6522226333618164 12.6853027343750000 36.3802680969238281
  4.6270723342895499  7.8265466690063477 36.2981719970703125
  3.3240792015567417 17.0772318840026855 36.1240844726562500
 12.2743648746982217 17.7576935887336731 36.3225555419921875
  6.7314009666442871  4.7053585052490234 34.8369712829589844
  8.6325101852416992 15.9026012420654297 34.6792373657226562
 18.0255565643310547  6.3966989517211905 34.8642120361328125
 17.5754776000976562 15.3691911697387695 34.9363899230957031
  3.4141261577606201  7.5037202835083008 35.0971679687500071
  2.3287588814273477 17.7519869208335876 34.8813514709472656
 12.3320926884189248 16.5256074666976929 35.0893898010253906
  8.3612480163574219  3.4034404754638672 33.8144683837890696
  9.8847265243530273 14.0452804565429688 33.9895133972167969
  0.6458930969238295  4.3772850036621094 33.8172607421875000
  0.4951095581054686 13.5897264480590820 33.7739830017089915
  3.7421789169311523  9.5334568023681641 34.0262184143066406
  4.0799937248229980  0.8734649419784546 33.9203147888183594
 14.3462299564853311 17.2360709309577977 34.2492179870605469
  8.3425750732421875  5.6598429679870605 42.1468429565429759
  7.8175172805786133 14.7738018035888672 41.9483451843261719
 17.5399653315544164  5.0257401466369629 42.6075286865234446
 16.7541071176528931 14.1279029846191406 42.1443862915039062
  5.3728704452514648  0.9833320379257202 42.1719779968261790
  5.5207853317260742  9.8236570358276367 42.1845359802246094
 14.2867984771728498  1.0658547878265381 42.1975746154785156
 14.4887657165527326 10.5654077529907227 41.8541603088378906
  1.5065999031066892  3.0253672599792480 40.3046951293945312
  1.8083628416061401 12.5839920043945312 40.9944343566894531
 10.3284225463867188  2.9250755310058594 40.7421379089355469
 10.3833045959472656 12.2589673995971680 41.1111259460449219
  3.1874530315399170  7.4660186767578125 40.5682525634765625
  3.1970578888431191 16.5227953195571899 40.6159324645996094
 12.5775108337402344  7.5303530693054190 41.2461509704589844
 12.1616758564487100 16.6489158868789673 40.5195846557617259
  1.2370893955230711  3.2290031909942627 42.0045471191406250
  0.7578318715095520 12.5634746551513672 42.3614463806152415
 10.3003263473510742  4.0084786415100098 42.0953254699707102
  9.5956945419311523 12.9997482299804688 42.4991569519042969
  3.8020441532135010  7.8714056015014648 42.1356887817382812
  3.6150202015414830 17.1155903339386022 42.1770210266113281
 12.7814970016479492  8.7691793441772461 42.4530372619628906
 12.4407667377963662 17.3087950944900513 42.0942230224609375
  7.2234439849853516  5.5032858848571768 40.8330154418945384
  7.5928993225097647 15.0276947021484375 40.2471084594726562
 16.8265426158905029  5.8313164710998535 41.2234611511230540
 16.6764518022537231 15.0176782608032227 40.6395683288574219
  5.9211635589599609  1.4617668390274048 40.5956230163574219
  5.8395466804504395 10.5373477935791016 40.6379852294921875
 15.0598926544189453  1.4111000299453735 40.6818389892578125
 15.1506872177124023 10.4459047317504865 40.2580909729003906
 18.0150645226240158  4.6740727424621582 39.6931915283203196
  0.5688685774803161 14.1535978317260742 39.8207893371582031
  8.3980216979980469  3.7597210407257080 39.8450775146484375
  9.2103681564331055 13.4590253829956055 39.6105651855468750
  4.5922059277072549 17.9645505249500275 39.4959678649902415
  4.4034547805786133  9.0959920883178711 39.5028533935546946
 13.8084634998813272 17.9593151807785034 39.5136032104492188
 14.0299406051635742  8.4950666427612305 39.7671699523925852
  8.1032123565673828  5.4420318603515616 48.0459518432617259
  8.1007528305053711 14.4734306335449219 48.0459518432617259
 17.1336116790771484  5.4420318603515616 48.0459518432617259
 17.1311531066894531 14.4734306335449219 48.0459518432617259
  5.4410333633422852  0.9265221953392029 48.0449485778808594
  5.4385743141174316  9.9579219818115234 48.0449485778808594
 14.4714326858520490  0.9265221953392029 48.0449485778808594
 14.4689741134643555  9.9579219818115234 48.0449485778808594
  1.4218254089355467  3.0919990539550781 46.4558296203613281
  1.4193661212921143 12.1233978271484375 46.4558296203613281
 10.4522256851196289  3.0919990539550781 46.4558296203613281
 10.4497661590576172 12.1233978271484375 46.4558296203613281
  3.0899283885955806  7.6075901985168457 46.4545211791992188
  3.0874691009521484 16.6389904022216797 46.4545211791992188
 12.1203289031982422  7.6075901985168457 46.4545211791992188
 12.1178693771362305 16.6389904022216797 46.4545211791992188
  0.9247469902038573  3.5893490314483643 48.0459518432617259
  0.9222877025604248 12.6207475662231445 48.0459518432617259
  9.9551477432250977  3.5893490314483643 48.0459518432617259
  9.9526882171630859 12.6207475662231445 48.0459518432617259
  3.5868983268737793  8.1048498153686523 48.0448913574218821
  3.5844390392303462 17.1362495422363281 48.0448913574218821
 12.6172990798950195  8.1048498153686523 48.0448913574218821
 12.6148395538330078 17.1362495422363281 48.0448913574218821
  7.6061611175537109  5.9393639564514160 46.4558296203613281
  7.6037015914916992 14.9707632064819336 46.4558296203613281
 16.6365604400634766  5.9393639564514160 46.4558296203613281
 16.6341018676757812 14.9707632064819336 46.4558296203613281
  5.9380125999450684  1.4238001108169553 46.4545211791992188
  5.9355530738830566 10.4551992416381836 46.4545211791992188
 14.9684123992919904  1.4238001108169553 46.4545211791992188
 14.9659538269042951 10.4551992416381836 46.4545211791992188
 -0.0011664569610730  4.5157265663146973 45.3548011779785156
 -0.0036257810425013 13.5471258163452148 45.3548011779785156
  9.0292339324951172  4.5157265663146973 45.3548011779785156
  9.0267744064331037 13.5471258163452148 45.3548011779785156
  4.5152091979980469  0.0000000000000000 45.3536758422851562
  4.5127501487731934  9.0313997268676740 45.3536758422851562
 13.5456094741821289  0.0000000000000000 45.3536758422851562
 13.5431499481201172  9.0313997268676740 45.3536758422851562
 13.9903669357299805 10.0635757446289062 32.6904373168945312
 13.0927238464355469  8.5791254043579102 32.9556503295898438
 15.7150115966796875  9.0578603744506836 34.0314178466796875
 15.3882017135620099  8.6703481674194336 35.7009506225585938
 13.3752737045288086 11.4942016601562500 35.1115951538085938
 14.4759426116943342 10.7278156280517578 36.2839736938476562
 11.9547777175903303  9.7890720367431641 35.6889686584472727
 12.2010765075683594  8.1660480499267578 35.0470008850097656
 11.1125469207763672  9.8942184448242188 33.6670532226562571
 12.0532112121582031 11.3757953643798828 33.7425994873046946
 11.0366621017456055 11.7134590148925781 31.7325687408447301
 12.4557371139526367 10.9080314636230469 31.1196079254150391
 14.9689674377441406  6.9832139015197754 33.2192077636718750
 13.7147092819213867  6.7688560485839835 34.4456062316894531
 15.3878412246704084  6.5233793258666992 34.8613739013671875
 15.5620918273925781 12.4854326248168928 34.9108390808105469
 15.3232431411743164 11.4925632476806641 33.4582557678222656
 16.3851108551025391 10.9141044616699219 34.7820281982421946
 13.7005071640014648  9.2999105453491211 37.5220909118652415
 13.7727680206298828  7.6102666854858398 36.9385910034179688
 12.2368984222412109  8.2729740142822266 37.5499229431152344
  9.7255392074584961  9.6880893707275391 31.6572055816650391
 10.3770866394042951 10.0263442993164062 30.0520153045654297
 12.7038898468017578  8.8182754516601562 29.5290603637695348
  9.9965610504150391  7.5742201805114746 32.6180267333984375
 13.9048938751220703  6.6589345932006836 29.6719551086425817
 11.1949796676635724  5.3879308700561523 32.7886543273925781
 13.1483678817749023  4.9337830543518066 31.3225994110107422
  0.3813648223876958  4.4036183357238770 34.8757362365722656
  0.2386608123779313 13.4634780883789062 34.8299751281738281
  8.6647930145263672  4.0677204132080078 34.6222801208496094
  9.2256717681884766 13.9655475616455078 34.8594932556152344
  4.3104848861694336  9.2847328186035156 34.9056472778320312
  4.2642974853515625  0.2574394643306732 34.7836265563964915
 13.9128879765048605 17.7772949039936066 35.0775146484375000
  0.1236035749316215  4.4377980232238770 40.7671051025390625
  0.2142011523246765 13.8031845092773438 40.8082847595214844
  8.7856645584106445  4.2016644477844238 40.7669105529785156
  8.9930896759033203 13.6439733505249023 40.6750068664550781
  4.5282664299011230  9.0119905471801758 40.5909957885742188
  4.5477112988010049 18.0133525766432285 40.5906410217285156
 13.8484382629394531  8.9688310623168945 40.7326774597167969
 13.6027368763461709 18.0516386777162552 40.5856170654296946
  9.0289716720581055  4.5156092643737793 46.4455223083496165
  9.0265130996704102 13.5470085144042969 46.4455223083496165
 18.0593719482421875  4.5156092643737793 46.4455223083496165
 18.0569133758544922 13.5470085144042969 46.4455223083496165
  4.5152091979980469  0.0000180629995157 46.4442062377929759
  4.5127501487731934  9.0314178466796857 46.4442062377929759
 13.5456094741821289  0.0000180629995157 46.4442062377929759
 13.5431499481201172  9.0314178466796857 46.4442062377929759
 11.2917604446411133  8.3644733428955078 31.0699901580810547
 12.3875961303710920  8.0721235275268555 30.2380104064941406
 10.8630247116088867  7.3678622245788574 31.9735012054443359
 13.0465917587280273  6.8291730880737305 30.3177032470703161
 11.5299129486083984  6.1267518997192383 32.0573654174804759
 12.6260032653808594  5.8752613067626953 31.2319984436035156
 13.1977224349975586  9.6133241653442383 33.3071708679199290
 14.9857444763183594  8.5837469100952148 34.6873207092285156
 14.2430896759033203 10.8525085449218732 35.2205886840820384
 12.7035493850708008  8.9775476455688477 35.5937309265136719
 11.9505424499511719 10.4262800216674805 33.2095603942871094
 11.5704164505004865 10.7817058563232422 31.7579364776611328
 14.7348279953002912  7.1639204025268555 34.2734832763671875
 15.4593133926391584 11.4525127410888672 34.5416030883789062
 13.1454172134399396  8.5189895629882812 36.9611740112304688
 10.6573925018310547  9.7329940795898438 31.0816287994384801
  0.5806217193603526  3.3067228794097900 35.5439529418945312
  0.5706195831298853 12.3395462036132812 35.4177780151367188
  9.9067649841308594  4.0590143203735352 35.0260658264160156
  9.2448940277099609 12.8421545028686523 35.5434837341308594
  7.7167744636535645  4.8469643592834473 35.1275329589843750
  8.4885034561157227 15.0193471908569318 35.1888542175293040
 17.9630222320556641  5.5135016441345215 35.3761634826660156
 17.6930198669433594 14.4655981063842773 35.4065132141113352
  4.1165056228637695  8.1233129501342773 35.4546661376953125
  3.2550644138827920 17.6541199088096619 35.2770919799804759
 12.7342628696933389 17.3738170266151428 35.4997901916503906
  5.4759945869445801  0.2769376635551453 35.2860412597656250
  5.1415357589721680 10.1983604431152344 35.3473548889160156
 14.6130685806274396  0.6628614068031311 35.6284332275390625
  0.9926458597183228  3.5218670368194580 41.0384750366210938
  0.9419115185737610 12.9421997070312500 41.4321365356445312
  9.8718061447143555  3.6960136890411377 41.2410087585449219
  9.7018556594848633 12.9240131378173828 41.4998245239257812
  3.8034801483154297  8.0674762725830078 41.1575889587402415
  3.7581049660220738 17.1959242820739746 41.1954727172851562
 13.0023021697998047  8.3807544708251953 41.5401878356933594
 12.6977113941684365 17.3125185966491699 41.1317100524902415
  8.0856809616088867  5.1967267990112305 41.2938308715820384
  8.0842876434326172 14.5334596633911133 40.9915237426757812
 17.4688942432403564  5.1399264335632324 41.6092605590820312
 17.1499795317649841 14.3317718505859357 41.2257652282714844
  5.3333907127380371  0.8556717038154602 41.1812095642089844
  5.3231472969055176  9.8206291198730469 41.2074317932128906
 14.3628625869750977  0.8827261924743652 41.2199745178222656
 14.5334539413452148 10.0819272994995117 40.9519004821777344
  0.8273094892501831  3.6869695186614990 47.0359649658203125
  0.8248501420021057 12.7183685302734375 47.0359649658203125
  9.8577098846435547  3.6869695186614990 47.0359649658203125
  9.8552503585815412 12.7183685302734375 47.0359649658203125
  3.6843190193176270  8.2023353576660156 47.0346527099609375
  3.6818594932556152 17.2337341308593750 47.0346527099609375
 12.7147188186645508  8.2023353576660156 47.0346527099609375
 12.7122592926025391 17.2337341308593750 47.0346527099609375
  8.2006769180297852  5.3445744514465332 47.0360260009765696
  8.1982173919677734 14.3759746551513672 47.0360260009765696
 17.2310771942138672  5.3445744514465332 47.0360260009765696
 17.2286186218261719 14.3759746551513672 47.0360260009765696
  5.3436489105224600  0.8290914893150328 47.0346527099609375
  5.3411893844604483  9.8604917526245117 47.0346527099609375
 14.3740482330322266  0.8290914893150328 47.0346527099609375
 14.3715896606445312  9.8604917526245117 47.0346527099609375
 13.7785320281982422  9.4931850433349609 34.7064437866210938
  8.9958009719848633  0.4100185036659241 34.4753608703613281
  8.4942827224731445  9.2446985244750977 34.8445892333984375
 17.8918180475011503 17.9854766726493835 34.3920936584472656
  0.6523976325988770  8.9146051406860352 34.5341720581054759
  4.1531438827514648  4.2821412086486816 34.4996070861816406
  4.6589808464050284 13.6985664367675781 34.5481643676757884
 13.4715480804443359  3.8059055805206299 34.7144012451171875
 12.9555177688598633 14.2079467773437500 34.1914329528808594
  0.0116412090137601 17.9515843540430069 40.8756179809570312
  0.2594312727451324  9.0156412124633789 40.9615898132324219
  8.9271545410156250  0.0392622575163841 40.8887138366699290
  9.1192798614501953  8.8536424636840820 40.9982604980468750
  4.5756030082702637  4.4574370384216309 40.9137611389160156
  4.4635367393493652 13.5766763687133771 40.8817558288574219
 13.3956956863403320  4.6843638420104972 40.9453392028808594
 13.5804567337036133 13.6551694869995117 40.8480796813964844
  2.5809805393218994  1.8898534774780273 38.1925430297851562
  2.6404414176940918 10.9445676803588867 38.0321464538574219
 11.7632474899291992  1.8807944059371946 38.1240653991699219
 11.1481723785400373 11.4899139404296857 38.4074096679687571
  6.3523015975952148  7.0592274665832520 38.0071830749511790
  6.5049791336059570 16.1203441619873047 37.9869422912597727
 16.1101055145263672  6.5471315383911133 38.3915901184082031
 15.5835256576538068 16.0202541351318359 38.0079307556152344
  2.0854253768920898  6.4414143562316895 38.2045860290527344
  2.0303616523742676 15.6099052429199201 37.9363975524902344
 10.4324941635131836  5.9261879920959473 37.9478912353515625
 11.0788831710815430 15.5991001129150391 38.1881637573242188
  6.9152717590332031  2.3680584430694576 37.9999122619628906
  7.0088067054748535 11.5514621734619141 38.2925148010253906
 16.0371723175048828  2.5532524585723877 38.2366828918457031
 16.5095443725585938 11.7357139587402344 38.4438934326171946
  0.0000000000000000  0.0000000000000000 47.1735610961914062
 -0.0024593239650130  9.0313997268676740 47.1735610961914062
  9.0304002761840803  0.0000000000000000 47.1735610961914062
  9.0279407501220685  9.0313997268676740 47.1735610961914062
  4.5139794349670410  4.5156998634338379 47.1742515563964844
  4.5115203857421875 13.5470991134643537 47.1742515563964844
 13.5443792343139648  4.5156998634338379 47.1742515563964844
 13.5419197082519531 13.5470991134643537 47.1742515563964844
  2.4519233703613277  2.0629522800445557 44.0401268005371165
  2.4494640827178955 11.0943517684936523 44.0401268005371165
 11.4823226928710920  2.0629522800445557 44.0401268005371165
 11.4798641204833984 11.0943517684936523 44.0401268005371165
  6.5760178565979004  6.9684472084045410 44.0401268005371165
  6.5735583305358887 15.9998464584350586 44.0401268005371165
 15.6064186096191406  6.9684472084045410 44.0401268005371165
 15.6039590835571289 15.9998464584350586 44.0401268005371165
  2.0610768795013428  6.5788145065307617 44.0400009155273509
  2.0586175918579102 15.6102142333984375 44.0400009155273509
 11.0914773941040039  6.5788145065307617 44.0400009155273509
 11.0890178680419922 15.6102142333984375 44.0400009155273509
  6.9668641090393066  2.4525938034057613 44.0400657653808665
  6.9644045829772949 11.4839935302734375 44.0400657653808665
 15.9972639083862305  2.4525938034057613 44.0400657653808665
 15.9948053359985352 11.4839935302734375 44.0400657653808665
  2.4316265583038330  2.0832188129425049 50.0684852600097656
  2.4291670322418213 11.1146183013915998 50.0684852600097656
 11.4620265960693359  2.0832188129425049 50.0684852600097656
 11.4595670700073224 11.1146183013915998 50.0684852600097656
  6.5963144302368164  6.9481806755065918 50.0684852600097656
  6.5938549041748047 15.9795799255371076 50.0684852600097656
 15.6267137527465803  6.9481806755065918 50.0684852600097656
 15.6242542266845703 15.9795799255371076 50.0684852600097656
  2.0811281204223633  6.5990090370178223 50.0690460205078125
  2.0786688327789307 15.6304082870483398 50.0690460205078125
 11.1115283966064453  6.5990090370178223 50.0690460205078125
 11.1090688705444336 15.6304082870483398 50.0690460205078125
  6.9468131065368652  2.4323906898498531 50.0690460205078125
  6.9443535804748535 11.4637899398803711 50.0690460205078125
 15.9772129058837891  2.4323906898498531 50.0690460205078125
 15.9747543334960938 11.4637899398803711 50.0690460205078125
 17.9731759876012838  0.0042047812603414 37.7843666076660227
  0.1084319949150085  9.0246152877807617 37.8754425048828125
  9.0355615615844727  0.1217413693666458 37.6764907836914062
  8.9598484039306641  8.9610042572021484 37.8381042480468750
  4.4209880828857422  4.4432463645935059 37.6705627441406250
  4.4786510467529297 13.4861412048339826 37.6295776367187500
 13.4698753356933594  4.5193152427673340 37.7341499328613281
 13.4051151275634766 13.6375675201416016 37.6877365112304688
  0.0000090280000222  0.0000090310004452 44.0429992675781250
 -0.0024502959568053  9.0314083099365234 44.0429992675781250
  9.0304088592529297  0.0000090310004452 44.0429992675781250
  9.0279493331909180  9.0314083099365234 44.0429992675781250
  4.5139703750610352  4.5156903266906738 44.0427513122558594
  4.5115113258361816 13.5470905303955078 44.0427513122558594
 13.5443706512451172  4.5156903266906738 44.0427513122558594
 13.5419111251831037 13.5470905303955078 44.0427513122558594
  0.0000000000000000  0.0000000000000000 50.4472808837890696
 -0.0024593239650130  9.0313997268676740 50.4472808837890696
  9.0304002761840803  0.0000000000000000 50.4472808837890696
  9.0279407501220685  9.0313997268676740 50.4472808837890696
  4.5139703750610352  4.5156998634338379 50.4472808837890696
  4.5115113258361816 13.5470991134643537 50.4472808837890696
 13.5443706512451172  4.5156998634338379 50.4472808837890696
 13.5419111251831055 13.5470991134643537 50.4472808837890696
