 H  C  N  I Pb 
 1.0000000000000000
    18.0608005523681641    0.0000000000000000    0.0000000000000000
    -0.0049186488613486   18.0627994537353516    0.0000000000000000
     0.0000000000000000    0.0000000000000000   62.4874992370605469
 H   C   N   I   Pb 
 143  39  47  72  24
Cartesian
  7.9390549659729004  5.4245400428771973 36.0701408386230469
  7.9440274238586426 14.9140968322753906 36.1986465454101562
 17.7015533447265625  5.5313367843627930 36.2715911865234375
 17.5169830322265625 14.4334487915039062 36.4335746765136719
  5.7022643089294425  0.1120875626802444 36.3130722045898509
  5.5830645561218253 10.0038919448852521 36.2959136962890696
 14.0494670867919904  1.1611559391021729 36.4444007873535156
  1.0915164947509770  2.4859108924865723 35.0777778625488352
  1.0546493530273418 11.6565818786621094 34.7913818359375071
 10.6938028335571289  3.5395264625549316 34.6839752197265625
  9.9810361862182617 12.1180810928344727 35.0907707214355540
  6.1709918975830069  0.9788404107093810 34.8750457763671946
  5.4043998718261719 10.9304180145263672 34.8444252014160156
 15.1617584228515625  1.2591074705123901 35.1216392517089844
  0.6073493957519557  3.2632699012756348 36.5276451110839844
  0.5750560760498046 12.2249269485473633 36.3750572204589844
 10.2405242919921875  4.6131224632263184 35.9910011291503977
  9.0268421173095703 12.5866241455078125 36.4072265625000071
  4.2431159019470215  7.8714847564697266 36.4104156494140625
  3.4100670078769326 17.1306771636009216 36.3112030029296946
 12.3677229145541769 17.4024852514266968 36.3514137268066406
  6.8371906280517569  4.8908157348632812 34.8135948181152344
  8.3604850769042969 15.8111295700073224 34.7840042114257812
 17.6970500946044922  6.2467527389526367 34.6974945068359446
 17.2874164581298828 15.2894020080566406 34.9074096679687500
  3.2645232677459717  7.5202488899230957 35.0192260742187500
  2.4460827568545938 17.4566911458969116 34.9012413024902344
 12.4356426456943154 16.3433140516281128 34.9391479492187500
  8.4893445968627930  3.6468293666839600 33.7539329528808594
  9.6950836181640625 14.0833168029785156 33.9043693542480540
  0.5294952392578134  4.2270889282226562 33.7532501220703196
  0.2000446319580099 13.5436859130859375 33.6958580017089915
  3.9274337291717525  9.4225168228149396 33.8790321350097656
  4.1124362945556641  0.6172469258308411 33.8447418212890625
 14.2156042316928506 17.4889372587203979 34.0228538513183665
  8.2461843490600586  5.5858306884765625 42.1902923583984375
  7.8443984985351562 14.6725597381591797 42.0717620849609375
 17.4000059366226196  5.1525578498840332 42.5004234313964844
 16.8818219900131226 14.4202680587768555 42.2212066650390625
  5.3822975158691406  0.9342972636222839 42.2024841308593750
  5.4171056747436515  9.9510211944580078 42.2695846557617259
 14.4397840499877930  0.9571617245674133 42.1532478332519531
 14.5160779953002930 10.4432821273803711 41.9725494384765625
  1.4887291193008421  3.0079092979431152 40.4054145812988281
  1.6932336091995239 12.4620943069458008 40.9491119384765625
 10.3256778717040998  2.9364109039306641 40.7097892761230469
 10.3432846069335938 12.2469606399536133 40.9729423522949219
  3.2718183994293213  7.4866628646850586 40.5606613159179688
  3.1498870113864541 16.5311220884323120 40.6498260498046875
 12.4045705795288086  7.5526609420776367 41.1534614562988281
 12.0648178318515420 16.6983335018157959 40.6017532348632812
  1.1576167345046997  3.3002891540527344 42.0749435424804688
  0.7773842811584473 12.6374168395996094 42.4002952575683594
 10.2293395996093732  3.8203589916229244 42.1902008056640625
  9.6745290756225568 12.8866119384765625 42.4285392761230540
  3.7825977802276611  7.9425053596496582 42.1627883911132812
  3.5881487587466836 17.1222723722457886 42.2295684814453125
 12.7572298049926758  8.6096248626708984 42.5053253173828125
 12.5054611423984170 17.2998335957527161 42.1741676330566406
  7.3077158927917480  5.6252050399780273 40.7395477294921875
  7.4886016845703125 15.0203428268432617 40.4109611511230540
 16.7606513500213623  5.8439111709594727 41.0463218688964915
 16.7846813201904297 15.1585416793823224 40.6735000610351562
  5.9401807785034171  1.3936733007431028 40.6295356750488281
  5.8213272094726562 10.6228179931640625 40.7129859924316406
 15.1012258529663086  1.3089118003845215 40.5834159851074290
 15.0766630172729492 10.4598779678344727 40.3112831115722727
 17.9798594638705289  4.6401562690734863 39.6439094543457031
  0.5118917822837830 14.1050634384155273 39.7736854553222656
  8.5291891098022461  3.9654459953308105 39.6792526245117188
  9.0626058578491211 13.5031452178955078 39.5945129394531250
  4.5887817600741982 17.9474431872367859 39.5193977355957031
  4.4933700561523438  9.1306867599487305 39.5210380554199290
 13.6916336277499795 17.9433216452598572 39.4805068969726562
 13.7956514358520508  8.6286725997924805 39.7107200622558594
  8.1032123565673828  5.4420318603515616 48.0459518432617259
  8.1007528305053711 14.4734306335449219 48.0459518432617259
 17.1336116790771484  5.4420318603515616 48.0459518432617259
 17.1311531066894531 14.4734306335449219 48.0459518432617259
  5.4410333633422852  0.9265221953392029 48.0449485778808594
  5.4385743141174316  9.9579219818115234 48.0449485778808594
 14.4714326858520490  0.9265221953392029 48.0449485778808594
 14.4689741134643555  9.9579219818115234 48.0449485778808594
  1.4218254089355467  3.0919990539550781 46.4558296203613281
  1.4193661212921143 12.1233978271484375 46.4558296203613281
 10.4522256851196289  3.0919990539550781 46.4558296203613281
 10.4497661590576172 12.1233978271484375 46.4558296203613281
  3.0899283885955806  7.6075901985168457 46.4545211791992188
  3.0874691009521484 16.6389904022216797 46.4545211791992188
 12.1203289031982422  7.6075901985168457 46.4545211791992188
 12.1178693771362305 16.6389904022216797 46.4545211791992188
  0.9247469902038573  3.5893490314483643 48.0459518432617259
  0.9222877025604248 12.6207475662231445 48.0459518432617259
  9.9551477432250977  3.5893490314483643 48.0459518432617259
  9.9526882171630859 12.6207475662231445 48.0459518432617259
  3.5868983268737793  8.1048498153686523 48.0448913574218821
  3.5844390392303462 17.1362495422363281 48.0448913574218821
 12.6172990798950195  8.1048498153686523 48.0448913574218821
 12.6148395538330078 17.1362495422363281 48.0448913574218821
  7.6061611175537109  5.9393639564514160 46.4558296203613281
  7.6037015914916992 14.9707632064819336 46.4558296203613281
 16.6365604400634766  5.9393639564514160 46.4558296203613281
 16.6341018676757812 14.9707632064819336 46.4558296203613281
  5.9380125999450684  1.4238001108169553 46.4545211791992188
  5.9355530738830566 10.4551992416381836 46.4545211791992188
 14.9684123992919904  1.4238001108169553 46.4545211791992188
 14.9659538269042951 10.4551992416381836 46.4545211791992188
 -0.0011664569610730  4.5157265663146973 45.3548011779785156
 -0.0036257810425013 13.5471258163452148 45.3548011779785156
  9.0292339324951172  4.5157265663146973 45.3548011779785156
  9.0267744064331037 13.5471258163452148 45.3548011779785156
  4.5152091979980469  0.0000000000000000 45.3536758422851562
  4.5127501487731934  9.0313997268676740 45.3536758422851562
 13.5456094741821289  0.0000000000000000 45.3536758422851562
 13.5431499481201172  9.0313997268676740 45.3536758422851562
 14.0544033050537109 10.0885829925537109 32.7886314392089844
 13.1053676605224592  8.6447048187255859 33.0045204162597727
 15.6683588027954102  9.1534547805786133 34.1723251342773509
 15.3597230911254883  8.7306365966796875 35.8415985107421875
 13.3332529067993146 11.5848875045776349 35.3018760681152415
 14.3835659027099592 10.6699609756469727 36.4131813049316406
 11.8384304046630859  9.6954488754272461 35.7047767639160227
 12.1382455825805646  8.1284351348876953 35.0907516479492188
 11.0835294723510742  9.8805522918701154 33.6688385009765625
 12.0960979461669922 11.3358860015869141 33.8669738769531250
 11.1022510528564435 11.7950792312622070 31.8200950622558629
 12.5495595932006836 10.9611873626708984 31.2276992797851598
 14.9906225204467773  7.0347518920898438 33.3170852661132812
 13.6749620437622070  6.8361077308654785 34.4669380187988352
 15.3061895370483381  6.4696803092956543 35.0083885192871094
 15.4405660629272461 12.4864187240600568 34.9454994201660156
 15.3493881225585938 11.4172840118408185 33.5385322570800781
 16.3317680358886719 10.9061689376831055 34.9709281921386790
 13.6986112594604492  9.1880483627319336 37.4661254882812571
 13.5093393325805664  7.5295929908752441 36.9851646423339915
 12.1496639251708984  8.4458398818969727 37.6064109802246094
  9.7732696533203125  9.6698846817016602 31.7202262878418004
 10.4559679031372070 10.0790634155273438 30.1543254852294957
 12.8677110671997070  8.9548244476318359 29.7113456726074219
  9.9036407470703125  7.5176091194152832 32.5149536132812500
 14.0551481246948242  6.7969427108764648 29.8598518371582067
 11.1663875579833984  5.3242273330688477 32.6698799133300781
 13.2383012771606445  4.9712672233581543 31.3633365631103551
  0.3452262878417967  4.3311886787414551 34.8238067626953125
  0.1214809417724636 13.4628896713256836 34.8000526428222656
  8.7648715972900391  4.2044973373413086 34.6586532592773509
  9.1855764389038086 13.9526929855346680 34.8617172241211009
  4.3269157409667969  9.2255640029907227 34.8731346130371094
  4.3062810897827148  0.2033437192440033 34.8348045349121094
 13.8095115879550576 17.8250374794006348 34.9749526977539062
  0.0719532892107964  4.4464831352233887 40.7102813720703125
  0.2178892642259598 13.8192329406738281 40.7873382568359446
  8.8070888519287109  4.2685256004333496 40.6919555664062500
  8.9284896850585938 13.6284580230712891 40.6759986877441406
  4.5617861747741699  9.0588436126708984 40.6130790710449290
  4.5411600330844522 17.9889227449893987 40.6105155944824290
 13.7403297424316406  9.0075683593750000 40.7285614013671875
 13.5723518589511514 18.0265613235533237 40.5660247802734446
  9.0289716720581055  4.5156092643737793 46.4455223083496165
  9.0265130996704102 13.5470085144042969 46.4455223083496165
 18.0593719482421875  4.5156092643737793 46.4455223083496165
 18.0569133758544922 13.5470085144042969 46.4455223083496165
  4.5152091979980469  0.0000180629995157 46.4442062377929759
  4.5127501487731934  9.0314178466796857 46.4442062377929759
 13.5456094741821289  0.0000180629995157 46.4442062377929759
 13.5431499481201172  9.0314178466796857 46.4442062377929759
 11.3196716308593750  8.3671627044677734 31.1103401184082067
 12.4623823165893555  8.1596355438232422 30.3398761749267578
 10.8179874420166016  7.3514885902404785 31.9310417175293004
 13.1555175781250000  6.9376168251037589 30.4201793670654332
 11.5068426132202131  6.1238131523132324 32.0103492736816406
 12.6819953918457031  5.9058537483215332 31.2766399383544922
 13.2656307220458984  9.6531276702880859 33.3819389343261790
 14.9511661529541016  8.6424856185913086 34.8212966918945384
 14.1839933395385742 10.8648118972778320 35.3482093811035156
 12.6009931564331055  8.9483661651611328 35.6420211791992259
 11.9391746520996094 10.4536085128784180 33.2591705322265625
 11.6279230117797852 10.7971611022949219 31.7986946105957067
 14.7189092636108398  7.1701040267944336 34.3766517639160156
 15.4187679290771467 11.4283161163330078 34.6472854614257812
 13.0329360961914062  8.4981546401977539 36.9994430541992188
 10.7029008865356445  9.7343759536743164 31.1597728729248047
  0.7126369476318368  3.2857451438903809 35.5402145385742188
  0.6212539672851560 12.3979883193969727 35.3695526123046875
  9.9682636260986328  4.0836496353149414 35.1554756164550852
  9.4315652847290039 12.8529281616210938 35.5177040100097656
  7.7934536933898926  4.9195818901062012 35.2027931213378906
  8.4294090270996094 14.9224071502685547 35.2938270568847656
 17.8332290649414062  5.4128260612487793 35.2794876098632812
 17.5969066619873047 14.4586324691772461 35.4246025085449290
  3.9355795383453369  8.1258163452148438 35.4565048217773438
  3.3413764694705606 17.5715680122375488 35.3736724853515625
 12.7734522083774209 17.1595896482467651 35.4329452514648509
  5.4780635833740234  0.4695034623146057 35.3671760559082031
  5.1510930061340332 10.1242179870605469 35.3619766235351562
 14.4280586242675781  0.7477351427078247 35.5715866088867188
  0.9370375871658324  3.5513725280761719 41.1041488647460938
  0.9202389717102051 12.9311695098876953 41.4200172424316406
  9.8380985260009766  3.6617441177368164 41.2459449768066406
  9.7085762023925781 12.8639316558837891 41.4204025268554688
  3.8238441944122310  8.1047277450561523 41.1560745239257812
  3.7030212143436070 17.1601769328117406 41.2042198181152344
 12.9211330413818359  8.3701562881469727 41.5293121337890625
 12.6540950993075967 17.2936341166496277 41.1585884094238281
  8.0870008468627930  5.2261271476745605 41.2616310119628906
  8.0375499725341797 14.4939346313476562 41.1011085510253906
 17.3764460682868958  5.1980714797973633 41.4991836547851562
 17.2531630992889404 14.4802465438842773 41.2640800476074219
  5.3368349075317383  0.8008781075477600 41.1990165710449219
  5.3100910186767578  9.9378290176391602 41.2475814819336009
 14.4230222702026367  0.7946533560752868 41.1508331298828125
 14.4802751541137695 10.0409975051879883 41.0269546508789062
  0.8273094892501831  3.6869695186614990 47.0359649658203125
  0.8248501420021057 12.7183685302734375 47.0359649658203125
  9.8577098846435547  3.6869695186614990 47.0359649658203125
  9.8552503585815412 12.7183685302734375 47.0359649658203125
  3.6843190193176270  8.2023353576660156 47.0346527099609375
  3.6818594932556152 17.2337341308593750 47.0346527099609375
 12.7147188186645508  8.2023353576660156 47.0346527099609375
 12.7122592926025391 17.2337341308593750 47.0346527099609375
  8.2006769180297852  5.3445744514465332 47.0360260009765696
  8.1982173919677734 14.3759746551513672 47.0360260009765696
 17.2310771942138672  5.3445744514465332 47.0360260009765696
 17.2286186218261719 14.3759746551513672 47.0360260009765696
  5.3436489105224600  0.8290914893150328 47.0346527099609375
  5.3411893844604483  9.8604917526245117 47.0346527099609375
 14.3740482330322266  0.8290914893150328 47.0346527099609375
 14.3715896606445312  9.8604917526245117 47.0346527099609375
 13.7438373565673828  9.5163955688476545 34.7955589294433665
  8.8520631790161133  0.2833050191402435 34.4681243896484446
  8.5110101699829102  9.3279600143432599 34.8866233825683594
 -0.0007532220333815 17.9522642791271210 34.4574966430664062
  0.5978996753692626  8.8257074356079102 34.4647636413574219
  4.3345055580139160  4.4113616943359375 34.4942588806152344
  4.5703916549682617 13.5350437164306641 34.5520668029785156
 13.5591716766357404  3.8987791538238521 34.7344818115234446
 13.0676813125610334 14.1263990402221680 34.1889190673828125
  0.0298495041206479 18.0159485600888729 40.8939971923828196
  0.1939226090908051  9.0837297439575195 40.9046630859375000
  8.9536003330722451 18.0441415216773748 40.8258018493652344
  9.1661329269409180  8.7860832214355469 41.0181884765625000
  4.5465393066406250  4.4551615715026855 40.8415565490722656
  4.5133676528930664 13.6007595062255859 40.9332389831542969
 13.3716049194335938  4.5891346931457511 40.9456481933593750
 13.6394662857055646 13.6922197341918945 40.8464088439941406
  2.5997047424316406  1.9062217473983765 38.1020278930664062
  2.6286499500274658 10.9912576675415039 37.9127120971679759
 11.6901979446411133  1.8501976728439329 37.9950561523437500
 11.1755657196044922 11.4402570724487305 38.3854522705078125
  6.3389244079589844  7.0860409736633292 37.9311065673828125
  6.4416308403015137 16.1037921905517578 37.9213638305664062
 16.0575466156005859  6.5841102600097656 38.3883056640625071
 15.5425252914428711 16.1553573608398438 37.8875160217285156
  2.0138058662414551  6.4484834671020508 38.0873374938964844
  1.9602382183074951 15.5089340209960938 37.8977890014648438
 10.4425544738769531  5.9566087722778320 38.0677833557128906
 11.0260295867919922 15.5848350524902344 38.0639533996582031
  6.9285798072814941  2.4131889343261719 38.0148048400878906
  6.9446172714233398 11.4905900955200195 38.2194595336914134
 16.0899562835693359  2.5383169651031494 38.2374191284179688
 16.5296554565429688 11.8364458084106445 38.4254646301269531
  0.0000000000000000  0.0000000000000000 47.1735610961914062
 -0.0024593239650130  9.0313997268676740 47.1735610961914062
  9.0304002761840803  0.0000000000000000 47.1735610961914062
  9.0279407501220685  9.0313997268676740 47.1735610961914062
  4.5139794349670410  4.5156998634338379 47.1742515563964844
  4.5115203857421875 13.5470991134643537 47.1742515563964844
 13.5443792343139648  4.5156998634338379 47.1742515563964844
 13.5419197082519531 13.5470991134643537 47.1742515563964844
  2.4519233703613277  2.0629522800445557 44.0401268005371165
  2.4494640827178955 11.0943517684936523 44.0401268005371165
 11.4823226928710920  2.0629522800445557 44.0401268005371165
 11.4798641204833984 11.0943517684936523 44.0401268005371165
  6.5760178565979004  6.9684472084045410 44.0401268005371165
  6.5735583305358887 15.9998464584350586 44.0401268005371165
 15.6064186096191406  6.9684472084045410 44.0401268005371165
 15.6039590835571289 15.9998464584350586 44.0401268005371165
  2.0610768795013428  6.5788145065307617 44.0400009155273509
  2.0586175918579102 15.6102142333984375 44.0400009155273509
 11.0914773941040039  6.5788145065307617 44.0400009155273509
 11.0890178680419922 15.6102142333984375 44.0400009155273509
  6.9668641090393066  2.4525938034057613 44.0400657653808665
  6.9644045829772949 11.4839935302734375 44.0400657653808665
 15.9972639083862305  2.4525938034057613 44.0400657653808665
 15.9948053359985352 11.4839935302734375 44.0400657653808665
  2.4316265583038330  2.0832188129425049 50.0684852600097656
  2.4291670322418213 11.1146183013915998 50.0684852600097656
 11.4620265960693359  2.0832188129425049 50.0684852600097656
 11.4595670700073224 11.1146183013915998 50.0684852600097656
  6.5963144302368164  6.9481806755065918 50.0684852600097656
  6.5938549041748047 15.9795799255371076 50.0684852600097656
 15.6267137527465803  6.9481806755065918 50.0684852600097656
 15.6242542266845703 15.9795799255371076 50.0684852600097656
  2.0811281204223633  6.5990090370178223 50.0690460205078125
  2.0786688327789307 15.6304082870483398 50.0690460205078125
 11.1115283966064453  6.5990090370178223 50.0690460205078125
 11.1090688705444336 15.6304082870483398 50.0690460205078125
  6.9468131065368652  2.4323906898498531 50.0690460205078125
  6.9443535804748535 11.4637899398803711 50.0690460205078125
 15.9772129058837891  2.4323906898498531 50.0690460205078125
 15.9747543334960938 11.4637899398803711 50.0690460205078125
 18.0250308662652969  0.0283421110361814 37.7714920043945312
  0.1227663308382034  9.0473051071166992 37.7815322875976634
  9.0585479736328125  0.0990916639566422 37.6575279235839844
  8.9484663009643555  8.9603071212768555 37.8752708435058594
  4.4278430938720703  4.4723839759826660 37.6571159362793040
  4.4867763519287109 13.5224590301513672 37.6017150878906250
 13.4838285446166992  4.4908933639526367 37.7625198364257812
 13.4969081878662109 13.6671094894409180 37.7191734313964915
  0.0000090280000222  0.0000090310004452 44.0429992675781250
 -0.0024502959568053  9.0314083099365234 44.0429992675781250
  9.0304088592529297  0.0000090310004452 44.0429992675781250
  9.0279493331909180  9.0314083099365234 44.0429992675781250
  4.5139703750610352  4.5156903266906738 44.0427513122558594
  4.5115113258361816 13.5470905303955078 44.0427513122558594
 13.5443706512451172  4.5156903266906738 44.0427513122558594
 13.5419111251831037 13.5470905303955078 44.0427513122558594
  0.0000000000000000  0.0000000000000000 50.4472808837890696
 -0.0024593239650130  9.0313997268676740 50.4472808837890696
  9.0304002761840803  0.0000000000000000 50.4472808837890696
  9.0279407501220685  9.0313997268676740 50.4472808837890696
  4.5139703750610352  4.5156998634338379 50.4472808837890696
  4.5115113258361816 13.5470991134643537 50.4472808837890696
 13.5443706512451172  4.5156998634338379 50.4472808837890696
 13.5419111251831055 13.5470991134643537 50.4472808837890696
