 H  C  N  I Pb 
 1.0000000000000000
    18.0608005523681641    0.0000000000000000    0.0000000000000000
    -0.0049186488613486   18.0627994537353516    0.0000000000000000
     0.0000000000000000    0.0000000000000000   62.4874992370605469
 H   C   N   I   Pb 
 143  39  47  72  24
Cartesian
  8.1795463562011719  6.0727829933166504 35.2212562561035156
  7.9654011726379395 14.9823751449584943 35.7320480346679759
 17.3730659484863281  5.9152812957763672 35.9535865783691406
 17.0067481994628906 14.7852096557617170 35.7822723388671875
  6.0585636356845489 17.2005463838577271 35.7526702880859446
  6.3353590965270996  9.9285659790039062 34.8434791564941406
 14.5751247406005859  1.5994564294815063 35.1052856445312571
  0.2353401184082062  2.5790247917175293 34.9151496887207031
  1.3169937133789054 12.0396118164062500 35.6574478149414062
  9.9637460708618164  2.8872988224029541 34.9605789184570312
  8.9489536285400391 11.5919046401977539 34.9034309387207031
  6.6560583114624023  0.4866333305835724 34.8363304138183665
  5.3252992630004883 11.3422708511352539 34.5256500244140625
 15.8809041976928693  0.4982392787933350 34.6684570312500000
 17.2703304290771484  3.4410324096679688 36.0365295410156250
 17.8750419616699219 12.5171728134155273 36.3952140808105540
 10.2252883911132812  4.5535149574279785 35.4559860229492188
  7.9541783332824707 12.4998674392700195 35.9795532226562500
  5.0475301742553711  7.9154257774353027 35.7393074035644531
  3.6357065895572305 16.7809665203094482 35.7840499877929688
 12.3857994079589844  0.5186508893966675 35.6664733886718750
  6.7227783203125000  5.2360997200012207 34.7084579467773438
  9.1028470993041992 15.6650133132934570 34.6186828613281250
  0.3759536743164067  6.6459784507751465 34.7773056030273438
 17.9278755187988281 15.6777267456054688 34.6102333068847656
  3.3140416145324707  8.0433950424194336 35.5826339721679688
  2.6258963802829380 17.9373840093612671 34.9833374023437571
 12.3034280994907022 16.8522686958312988 35.3502883911132812
  7.7675638198852539  3.2273013591766357 34.4100418090820312
  9.8542327880859375 13.5457391738891602 33.9164009094238281
  1.1549644470214826  4.5363526344299316 34.0338325500488281
  1.4929828643798857 14.0044107437133789 34.4010543823242188
  3.3500530719757080 10.1849966049194336 34.8065071105957031
  4.4466361999511719  1.1824073791503906 34.2766151428222656
 14.4791340092197061 16.6805975437164307 34.7342529296875000
  8.7880153656005859  6.1271419525146484 41.1570358276367188
  8.0744419097900391 14.6022129058837891 42.1146392822265625
 17.3981242179870605  5.1818623542785645 42.2206764221191477
 16.7781589031219482 13.0884160995483398 42.0267028808593750
  5.5254230499267578  1.0358814001083374 41.8456726074218750
  5.3776364326477042  9.9293851852416992 42.1722602844238281
 14.4875621795654297  1.0454040765762329 42.1037101745605469
 13.9164524078369141 10.7776613235473633 40.9729080200195312
  1.5550814867019653  2.9532153606414795 40.3041801452636719
  2.1237533092498779 13.0495920181274414 40.7553863525390625
 10.1890716552734375  2.7490167617797847 40.9379653930664134
 10.2427816390991211 12.0689954757690430 40.5937004089355469
  3.1772105693817139  7.5097613334655753 40.4792556762695312
  3.0824772575870156 16.6083822250366211 40.6706352233886719
 12.5146303176879883  7.3956923484802237 41.0561218261718750
 12.1692709187045676 16.6412175893783569 40.6842765808105469
  1.1465669870376587  3.3142421245574951 41.9642868041992188
  1.0678819417953491 12.2220678329467756 41.8554306030273509
 10.7052307128906250  4.3972330093383789 41.1835823059082031
  9.7183561325073224 12.5812711715698242 42.1661605834960938
  3.5909845829010010  8.0271234512329102 42.0992431640625000
  3.6939326981082559 17.2498828172683716 42.1653594970703125
 12.0055608749389648  9.0662679672241211 41.0814437866210938
 12.6097692707553506 17.3159062862396276 42.2285385131835938
  7.1907629966735840  5.4253535270690918 40.9838294982910156
  7.7456893920898438 15.2089376449584943 40.5156898498535156
 16.8842386007308995  5.8736643791198730 40.7090568542480540
 16.3553504943847692 14.3847970962524414 40.9404182434082102
  5.8885507583618155  1.3773059844970701 40.1712341308593750
  5.9171762466430664 10.4447336196899414 40.6010971069336009
 15.0641546249389648  1.3658910989761353 40.4875869750976562
 15.5181026458740234 10.0784978866577148 40.8486175537109375
  0.1337499767541885  4.5490303039550781 39.4078254699707102
  0.4280264973640442 14.5030517578125000 40.0125846862792969
  7.9577670097351074  3.2754921913146973 40.7873535156250071
  9.0727643966674787 13.6614675521850568 39.4466133117675781
  4.3958420017734170 17.9166678786277771 39.3254737854003977
  4.6102800369262686  8.9576530456542969 39.4379806518554688
 13.6734670856967568 17.8947338610887527 39.4807128906250000
 14.7560186386108398  7.8961529731750488 40.8968162536621165
  8.1032123565673828  5.4420318603515616 48.0459518432617259
  8.1007528305053711 14.4734306335449219 48.0459518432617259
 17.1336116790771484  5.4420318603515616 48.0459518432617259
 17.1311531066894531 14.4734306335449219 48.0459518432617259
  5.4410333633422852  0.9265221953392029 48.0449485778808594
  5.4385743141174316  9.9579219818115234 48.0449485778808594
 14.4714326858520490  0.9265221953392029 48.0449485778808594
 14.4689741134643555  9.9579219818115234 48.0449485778808594
  1.4218254089355467  3.0919990539550781 46.4558296203613281
  1.4193661212921143 12.1233978271484375 46.4558296203613281
 10.4522256851196289  3.0919990539550781 46.4558296203613281
 10.4497661590576172 12.1233978271484375 46.4558296203613281
  3.0899283885955806  7.6075901985168457 46.4545211791992188
  3.0874691009521484 16.6389904022216797 46.4545211791992188
 12.1203289031982422  7.6075901985168457 46.4545211791992188
 12.1178693771362305 16.6389904022216797 46.4545211791992188
  0.9247469902038573  3.5893490314483643 48.0459518432617259
  0.9222877025604248 12.6207475662231445 48.0459518432617259
  9.9551477432250977  3.5893490314483643 48.0459518432617259
  9.9526882171630859 12.6207475662231445 48.0459518432617259
  3.5868983268737793  8.1048498153686523 48.0448913574218821
  3.5844390392303462 17.1362495422363281 48.0448913574218821
 12.6172990798950195  8.1048498153686523 48.0448913574218821
 12.6148395538330078 17.1362495422363281 48.0448913574218821
  7.6061611175537109  5.9393639564514160 46.4558296203613281
  7.6037015914916992 14.9707632064819336 46.4558296203613281
 16.6365604400634766  5.9393639564514160 46.4558296203613281
 16.6341018676757812 14.9707632064819336 46.4558296203613281
  5.9380125999450684  1.4238001108169553 46.4545211791992188
  5.9355530738830566 10.4551992416381836 46.4545211791992188
 14.9684123992919904  1.4238001108169553 46.4545211791992188
 14.9659538269042951 10.4551992416381836 46.4545211791992188
 -0.0011664569610730  4.5157265663146973 45.3548011779785156
 -0.0036257810425013 13.5471258163452148 45.3548011779785156
  9.0292339324951172  4.5157265663146973 45.3548011779785156
  9.0267744064331037 13.5471258163452148 45.3548011779785156
  4.5152091979980469  0.0000000000000000 45.3536758422851562
  4.5127501487731934  9.0313997268676740 45.3536758422851562
 13.5456094741821289  0.0000000000000000 45.3536758422851562
 13.5431499481201172  9.0313997268676740 45.3536758422851562
 13.9988908767700178 10.0527696609497053 32.3856315612792969
 12.9836034774780273  8.6513204574584961 32.7545394897460938
 15.6825704574584961  9.0617513656616211 33.5946044921875000
 15.5430688858032209  8.7506484985351562 35.3211402893066477
 13.4319972991943359 11.5899286270141602 34.9427986145019531
 14.6914796829223633 10.8083057403564453 35.9195518493652344
 12.0380897521972638  9.8787822723388672 35.4998435974121094
 12.3108587265014648  8.2198686599731445 34.9672660827636719
 11.1374559402465820 10.1313457489013672 33.5240745544433594
 12.1734409332275391 11.5593996047973633 33.3611602783203196
 10.9324445724487305 11.6619729995727539 31.3986625671386754
 12.4056663513183594 10.8701620101928711 30.8440990447998082
 14.2511205673217773  7.0442919731140137 33.0728378295898438
 14.0268812179565430  6.7363929748535156 34.8141746520996165
 15.6306200027465820  6.6292686462402344 34.0998306274414062
 15.5612640380859375 12.5834856033325195 34.4711799621582102
 15.1061506271362305 11.7403421401977539 33.0064926147460938
 16.3529415130615234 11.0402355194091797 34.0982856750488352
 13.9245710372924805  9.5810813903808594 37.2444915771484375
 13.9982461929321289  7.8756418228149414 36.7687797546386719
 12.5288219451904297  8.5422897338867188 37.4642868041992188
  9.7396688461303711  9.5236139297485352 31.5402450561523438
 10.3466291427612305  9.8303794860839844 29.9118194580078161
 12.7165451049804688  8.6638431549072266 29.3636569976806676
 10.0434999465942365  7.4389390945434570 32.5061683654785156
 13.8511457443237287  6.4639892578124991 29.4626522064208984
 11.2065010070800781  5.2317018508911133 32.6223106384277344
 13.1212253570556641  4.7487463951110840 31.1264667510986364
  0.3673191070556634  4.6029858589172363 34.7887802124023438
  0.6176643371582038 13.8424329757690430 35.0372543334960938
  8.3632802963256836  4.0760946273803711 34.7566413879394602
  9.0605611801147461 13.6212997436523438 34.6607971191406250
  4.2997436523437500  9.6786890029907227 34.9800491333007812
  4.6215744018554688  0.2636432051658630 34.8444976806640696
 14.0941929081454873 17.6679286062717438 35.0020713806152344
  0.1835305094718933  4.4151859283447266 40.4906311035156250
  0.2174722105264664 13.7591352462768537 40.7835159301757812
  8.6774864196777344  4.0728821754455566 40.9591903686523509
  8.9957904815673828 13.6325492858886719 40.5404853820800781
  4.5528779029846183  8.9674854278564453 40.5278434753417969
  4.4849399784579873 18.0212032161653042 40.4086875915527344
 14.0373477935791016  8.7141485214233398 40.9465217590332031
 13.6223987797275186 18.0265358164906537 40.5657310485839844
  9.0289716720581055  4.5156092643737793 46.4455223083496165
  9.0265130996704102 13.5470085144042969 46.4455223083496165
 18.0593719482421875  4.5156092643737793 46.4455223083496165
 18.0569133758544922 13.5470085144042969 46.4455223083496165
  4.5152091979980469  0.0000180629995157 46.4442062377929759
  4.5127501487731934  9.0314178466796857 46.4442062377929759
 13.5456094741821289  0.0000180629995157 46.4442062377929759
 13.5431499481201172  9.0314178466796857 46.4442062377929759
 11.3132781982421875  8.2154541015625000 30.9426269531250000
 12.3800325393676740  7.9188480377197266 30.0782337188720703
 10.8818302154541016  7.2219142913818359 31.8409500122070312
 13.0204076766967773  6.6743936538696280 30.1376152038574219
 11.5251531600952148  5.9877510070800781 31.9042205810546911
 12.6044139862060547  5.7102437019348145 31.0601062774658203
 13.2042942047119141  9.6812133789062500 33.0535583496093750
 15.0204181671142578  8.6461782455444336 34.3620109558105469
 14.3174715042114258 10.9437808990478498 34.8984909057617188
 12.7962999343872070  9.0892887115478498 35.4284057617187500
 11.9686288833618164 10.5667762756347656 32.9508552551269531
 11.5163373947143555 10.7287273406982422 31.4872570037841797
 14.6887006759643555  7.1957302093505850 34.0683975219726562
 15.3993082046508789 11.5833196640014648 34.0546798706054759
 13.3604860305786133  8.7578182220458984 36.7898712158203196
 10.6523962020874006  9.5748529434204102 30.9390945434570348
 17.9550037384033203  3.4778919219970703 35.2775993347168040
  0.5704135894775396 12.7301197052001953 35.7244567871093750
  9.6298265457153303  3.8513462543487549 35.0106506347656250
  8.6011009216308594 12.5107641220092773 35.1858825683593750
  7.7422161102294922  5.2303466796875000 34.8531036376953125
  8.6511430740356445 14.8216810226440430 34.9837379455566406
 18.0123596191406250  5.7907824516296387 35.1562614440917969
 17.7478427886962891 14.7756061553955078 35.0685729980468750
  4.2332267761230469  8.4310722351074219 35.3816261291503906
  3.5733010033145547 17.6216818988323212 35.2048263549804688
 12.8214153507724387 17.7248684465885162 35.3290328979492188
  5.8561958530917764 17.9992877840995789 35.1369285583496094
  5.4027104377746582 10.3491458892822266 34.7477378845214844
 14.9122514724731445  0.6330093741416931 34.9657173156738281
  0.9979497194290161  3.5071063041687012 40.9648590087890696
  1.1709394454956055 12.9257326126098633 41.1168899536132812
  9.9367027282714844  3.7354249954223633 41.0417060852050781
  9.6794939041137695 12.7002429962158203 41.1573524475097656
  3.7180459499359131  8.1289930343627930 41.0878181457519602
  3.7074565151706338 17.2516392469406163 41.1402816772460938
 12.7660522460937482  8.3892688751220703 41.0003166198730469
 12.7542680958285928 17.2817862033843994 41.2145309448242188
  8.2035961151123047  5.2943964004516593 41.0431442260742188
  8.2351903915405273 14.5376205444335938 41.1059417724609446
 17.4634840488433873  5.1995115280151367 41.2048034667968750
 17.0673241615295410 13.7508745193481445 41.2937431335449219
  5.3557305335998535  0.8353199958801270 40.8548889160156321
  5.3356466293334952  9.8249158859252912 41.1542053222656250
 14.4345617294311506  0.8470380306243896 41.1019477844238281
 14.5053005218505859  9.9344015121459961 40.9540367126464844
  0.8273094892501831  3.6869695186614990 47.0359649658203125
  0.8248501420021057 12.7183685302734375 47.0359649658203125
  9.8577098846435547  3.6869695186614990 47.0359649658203125
  9.8552503585815412 12.7183685302734375 47.0359649658203125
  3.6843190193176270  8.2023353576660156 47.0346527099609375
  3.6818594932556152 17.2337341308593750 47.0346527099609375
 12.7147188186645508  8.2023353576660156 47.0346527099609375
 12.7122592926025391 17.2337341308593750 47.0346527099609375
  8.2006769180297852  5.3445744514465332 47.0360260009765696
  8.1982173919677734 14.3759746551513672 47.0360260009765696
 17.2310771942138672  5.3445744514465332 47.0360260009765696
 17.2286186218261719 14.3759746551513672 47.0360260009765696
  5.3436489105224600  0.8290914893150328 47.0346527099609375
  5.3411893844604483  9.8604917526245117 47.0346527099609375
 14.3740482330322266  0.8290914893150328 47.0346527099609375
 14.3715896606445312  9.8604917526245117 47.0346527099609375
 13.8319778442382795  9.5854625701904297 34.4342956542968750
  9.3195161819458008  0.2656210660934448 34.5143547058105540
  8.7253351211547852  8.9403934478759766 34.6285209655761719
  0.2752211689949036  0.1112783178687096 34.2709159851074290
  0.6638785600662231  9.1945009231567383 34.5725669860839915
  4.2757863998413086  4.3522853851318359 34.5000762939453125
  4.5954470634460449 13.8391313552856445 34.5814018249511790
 13.3407821655273438  3.7285461425781250 34.6281738281250000
 12.6502838134765625 14.2918395996093750 34.6249465942382812
  0.0181007729843259 17.7847902774810791 40.8406524658203125
 18.0128043852746487  9.1462211608886719 40.9070587158203125
  8.9571247100830078  0.2022634297609329 40.8976707458496165
  9.1472988128662109  8.8231821060180664 40.9156875610351562
  4.6791205406188965  4.4613876342773438 40.8836860656738281
  4.6718959808349609 13.6228103637695312 40.9024162292480540
 13.4497432708740234  4.8144798278808594 40.8749694824218750
 13.4514904022216797 13.4231023788452148 40.8744392395019531
  2.4240903854370113  2.0195965766906738 37.9487571716308594
  2.6511623859405518 10.9823322296142578 38.0093765258789062
 11.6951274871826172  1.9047249555587766 38.1134147644043040
 11.1286745071411133 11.3433132171630859 38.0178871154785156
  6.4559769630432129  7.0039491653442383 37.8015365600585938
  6.7684855461120605 15.8927536010742170 37.8900451660156321
 16.0711002349853516  6.5849685668945312 38.0332336425781321
 15.6583404541015625 15.8731622695922852 37.7836189270019531
  2.1654386520385742  6.6390581130981445 38.0660781860351634
  2.2330403327941895 15.6787090301513672 37.9718666076660156
 10.7270507812500000  6.1258926391601562 37.5708389282226634
 11.1300497055053711 15.7317047119140607 38.3043251037597727
  6.9769515991210938  2.4376404285430908 37.8343086242675781
  6.9457745552062988 11.3580026626586914 38.1204032897949219
 16.0058746337890625  2.3974883556365967 38.1612129211425781
 16.1563911437988281 11.6747732162475568 38.0860519409179759
  0.0000000000000000  0.0000000000000000 47.1735610961914062
 -0.0024593239650130  9.0313997268676740 47.1735610961914062
  9.0304002761840803  0.0000000000000000 47.1735610961914062
  9.0279407501220685  9.0313997268676740 47.1735610961914062
  4.5139794349670410  4.5156998634338379 47.1742515563964844
  4.5115203857421875 13.5470991134643537 47.1742515563964844
 13.5443792343139648  4.5156998634338379 47.1742515563964844
 13.5419197082519531 13.5470991134643537 47.1742515563964844
  2.4519233703613277  2.0629522800445557 44.0401268005371165
  2.4494640827178955 11.0943517684936523 44.0401268005371165
 11.4823226928710920  2.0629522800445557 44.0401268005371165
 11.4798641204833984 11.0943517684936523 44.0401268005371165
  6.5760178565979004  6.9684472084045410 44.0401268005371165
  6.5735583305358887 15.9998464584350586 44.0401268005371165
 15.6064186096191406  6.9684472084045410 44.0401268005371165
 15.6039590835571289 15.9998464584350586 44.0401268005371165
  2.0610768795013428  6.5788145065307617 44.0400009155273509
  2.0586175918579102 15.6102142333984375 44.0400009155273509
 11.0914773941040039  6.5788145065307617 44.0400009155273509
 11.0890178680419922 15.6102142333984375 44.0400009155273509
  6.9668641090393066  2.4525938034057613 44.0400657653808665
  6.9644045829772949 11.4839935302734375 44.0400657653808665
 15.9972639083862305  2.4525938034057613 44.0400657653808665
 15.9948053359985352 11.4839935302734375 44.0400657653808665
  2.4316265583038330  2.0832188129425049 50.0684852600097656
  2.4291670322418213 11.1146183013915998 50.0684852600097656
 11.4620265960693359  2.0832188129425049 50.0684852600097656
 11.4595670700073224 11.1146183013915998 50.0684852600097656
  6.5963144302368164  6.9481806755065918 50.0684852600097656
  6.5938549041748047 15.9795799255371076 50.0684852600097656
 15.6267137527465803  6.9481806755065918 50.0684852600097656
 15.6242542266845703 15.9795799255371076 50.0684852600097656
  2.0811281204223633  6.5990090370178223 50.0690460205078125
  2.0786688327789307 15.6304082870483398 50.0690460205078125
 11.1115283966064453  6.5990090370178223 50.0690460205078125
 11.1090688705444336 15.6304082870483398 50.0690460205078125
  6.9468131065368652  2.4323906898498531 50.0690460205078125
  6.9443535804748535 11.4637899398803711 50.0690460205078125
 15.9772129058837891  2.4323906898498531 50.0690460205078125
 15.9747543334960938 11.4637899398803711 50.0690460205078125
 18.0494109448045528 18.0421354472637177 37.7815361022949219
  0.0804139375686646  9.1135654449462891 37.7537384033203196
  9.1342611312866211  0.1251850426197052 37.7305297851562500
  9.0191507339477539  8.8775472640991211 37.7569313049316406
  4.4825358390808105  4.4582381248474121 37.6459007263183594
  4.5621938705444336 13.4820299148559570 37.7144126892089844
 13.4645776748657209  4.4353690147399902 37.6399841308593750
 13.3245201110839844 13.6393117904663086 37.6533012390136790
  0.0000090280000222  0.0000090310004452 44.0429992675781250
 -0.0024502959568053  9.0314083099365234 44.0429992675781250
  9.0304088592529297  0.0000090310004452 44.0429992675781250
  9.0279493331909180  9.0314083099365234 44.0429992675781250
  4.5139703750610352  4.5156903266906738 44.0427513122558594
  4.5115113258361816 13.5470905303955078 44.0427513122558594
 13.5443706512451172  4.5156903266906738 44.0427513122558594
 13.5419111251831037 13.5470905303955078 44.0427513122558594
  0.0000000000000000  0.0000000000000000 50.4472808837890696
 -0.0024593239650130  9.0313997268676740 50.4472808837890696
  9.0304002761840803  0.0000000000000000 50.4472808837890696
  9.0279407501220685  9.0313997268676740 50.4472808837890696
  4.5139703750610352  4.5156998634338379 50.4472808837890696
  4.5115113258361816 13.5470991134643537 50.4472808837890696
 13.5443706512451172  4.5156998634338379 50.4472808837890696
 13.5419111251831055 13.5470991134643537 50.4472808837890696
