 H  C  N  I Pb 
 1.0000000000000000
    18.0608005523681641    0.0000000000000000    0.0000000000000000
    -0.0049186488613486   18.0627994537353516    0.0000000000000000
     0.0000000000000000    0.0000000000000000   62.4874992370605469
 H   C   N   I   Pb 
 143  39  47  72  24
Cartesian
  8.5114669799804688  6.1185936927795410 35.3784942626953125
  7.9884204864501953 14.9576339721679688 35.9003753662109375
 16.6660671234130859  4.7578997611999512 36.1931762695312500
 16.9417133331298828 14.7976541519165021 35.8298454284668040
  5.7673563957214355  1.4126121997833252 35.5958366394042969
  6.3192095756530762  9.8549776077270508 34.9763832092285156
 14.4977025985717773  1.6808278560638428 35.4943618774414062
  1.9277725219726560  4.4937715530395508 34.8044776916503906
  1.3782596588134790 12.1697368621826154 35.9868011474609375
  9.8482818603515625  2.7393379211425781 35.0564575195312571
  9.0811481475830060 11.6440753936767578 34.9064979553222656
  6.7210836410522452  0.2576020359992981 34.7096557617187500
  5.3859596252441406 11.3135213851928711 34.5995292663574219
 15.8111019134521484  0.6287550330162048 34.9135169982910156
  1.0455150604248045  4.7995266914367676 36.2624626159667969
 17.8664741516113281 12.5908813476562482 36.6160507202148438
 10.3467178344726562  4.3656172752380371 35.5128784179687500
  8.1231327056884766 12.4790086746215820 36.0936050415039062
  4.9313206672668457  7.9008226394653320 35.7817649841308594
  3.3283405303955074  1.0753487348556519 35.7412185668945312
 12.2940444946289062  0.5589758157730103 35.8699913024902344
  6.9541215896606445  5.5072889328002930 34.8173942565917969
  9.0191955566406250 15.7238273620605469 34.7174758911132812
 15.8727111816406250  4.3401484489440918 34.7194976806640625
 17.8694992065429688 15.6563558578491211 34.6477088928222656
  3.1994657516479492  8.0376939773559570 35.5148391723632812
  2.6506752232089639 17.7677170336246490 34.9190673828125000
 12.2116207340732217 16.9178335666656494 35.3901405334472656
  7.7224149703979492  3.3681066036224365 34.4804801940917969
  9.8394193649291992 13.6772594451904297 33.9220657348632884
 17.9729003906250000  4.1392259597778320 33.5700950622558665
  1.4994583129882828 14.0303306579589844 34.5954704284668040
  3.3322799205780029 10.2051572799682617 34.7504119873046875
  4.7828430393710732 17.0131440162658691 34.1940078735351562
 14.3968366840854269 16.8380050659179688 34.7477760314941477
  8.1456708908081055  5.4733228683471680 42.0617523193359375
  8.0726642608642578 14.6057739257812500 42.0574951171875000
 17.0121347904205322  5.0288443565368652 42.1572494506835938
 16.6703310012817383 13.1757974624633789 41.8941459655761790
  5.5002880096435538  0.9295434951782227 42.0146064758300852
  5.3287296295166016 10.0331268310546857 42.1822738647460938
 14.5111265182495117  0.9703171849250793 42.1776962280273438
 15.1997013092041016  8.4983234405517578 41.4507942199707031
  1.6444653272628784  3.1231691837310791 40.5514221191406250
  2.0582647323608398 12.9884796142578125 40.7428283691406250
 10.4757671356201172  3.0592727661132812 40.5969848632812500
 10.2823238372802734 12.0660591125488281 40.5961799621582031
  3.3414628505706783  7.4480357170104980 40.4924583435058665
  3.0089511135593057 16.7580391168594360 40.4754714965820312
 11.5840835571289062  8.5777969360351562 41.0291938781738352
 12.1912941196933371 16.6304535865783727 40.6428260803222656
  0.9481161832809448  3.3833141326904297 42.1287994384765696
  0.9155305624008179 12.1502647399902344 41.7489624023437500
  9.9912557601928711  3.6580181121826172 42.1459426879882884
  9.7536945343017578 12.6287822723388672 42.1506881713867259
  3.6383543014526363  8.0598068237304688 42.0951805114746094
  3.5610195854678750 17.2367303371429443 42.0552864074707031
 12.8982686996459961  7.5591511726379395 41.5896492004394531
 12.6855959156528098 17.1944959163665771 42.2179718017578196
  7.5730800628662109  5.8526220321655273 40.4645423889160156
  7.6576919555664062 15.1081514358520508 40.4368743896484446
 16.6482375860214269  5.7334141731262207 40.6033248901367188
 16.4175369739532506 14.6215763092040998 40.9721603393554688
  6.0139107704162598  1.3871680498123169 40.4133644104003906
  5.8936171531677246 10.5541353225708008 40.6283111572265625
 15.0003652572631836  1.4529550075531006 40.5653991699218750
 15.3522634506225586 10.0531425476074219 40.6732788085937500
  0.2291345000267029  4.6095962524414062 39.4880943298339844
  0.5465093851089478 14.6460533142089844 40.1375122070312571
  9.0151386260986328  4.3587312698364258 39.4041671752929759
  9.0016555786132812 13.5550699234008771 39.4085121154785156
  4.4832668304443359  0.0194782558828592 39.3432846069335938
  4.7498121261596680  8.9484243392944336 39.4570655822753977
 13.5971006611362082 18.0373798608779907 39.4993629455566406
 13.0523338317871076 10.2843399047851562 40.3544769287109446
  8.1032123565673828  5.4420318603515616 48.0459518432617259
  8.1007528305053711 14.4734306335449219 48.0459518432617259
 17.1336116790771484  5.4420318603515616 48.0459518432617259
 17.1311531066894531 14.4734306335449219 48.0459518432617259
  5.4410333633422852  0.9265221953392029 48.0449485778808594
  5.4385743141174316  9.9579219818115234 48.0449485778808594
 14.4714326858520490  0.9265221953392029 48.0449485778808594
 14.4689741134643555  9.9579219818115234 48.0449485778808594
  1.4218254089355467  3.0919990539550781 46.4558296203613281
  1.4193661212921143 12.1233978271484375 46.4558296203613281
 10.4522256851196289  3.0919990539550781 46.4558296203613281
 10.4497661590576172 12.1233978271484375 46.4558296203613281
  3.0899283885955806  7.6075901985168457 46.4545211791992188
  3.0874691009521484 16.6389904022216797 46.4545211791992188
 12.1203289031982422  7.6075901985168457 46.4545211791992188
 12.1178693771362305 16.6389904022216797 46.4545211791992188
  0.9247469902038573  3.5893490314483643 48.0459518432617259
  0.9222877025604248 12.6207475662231445 48.0459518432617259
  9.9551477432250977  3.5893490314483643 48.0459518432617259
  9.9526882171630859 12.6207475662231445 48.0459518432617259
  3.5868983268737793  8.1048498153686523 48.0448913574218821
  3.5844390392303462 17.1362495422363281 48.0448913574218821
 12.6172990798950195  8.1048498153686523 48.0448913574218821
 12.6148395538330078 17.1362495422363281 48.0448913574218821
  7.6061611175537109  5.9393639564514160 46.4558296203613281
  7.6037015914916992 14.9707632064819336 46.4558296203613281
 16.6365604400634766  5.9393639564514160 46.4558296203613281
 16.6341018676757812 14.9707632064819336 46.4558296203613281
  5.9380125999450684  1.4238001108169553 46.4545211791992188
  5.9355530738830566 10.4551992416381836 46.4545211791992188
 14.9684123992919904  1.4238001108169553 46.4545211791992188
 14.9659538269042951 10.4551992416381836 46.4545211791992188
 -0.0011664569610730  4.5157265663146973 45.3548011779785156
 -0.0036257810425013 13.5471258163452148 45.3548011779785156
  9.0292339324951172  4.5157265663146973 45.3548011779785156
  9.0267744064331037 13.5471258163452148 45.3548011779785156
  4.5152091979980469  0.0000000000000000 45.3536758422851562
  4.5127501487731934  9.0313997268676740 45.3536758422851562
 13.5456094741821289  0.0000000000000000 45.3536758422851562
 13.5431499481201172  9.0313997268676740 45.3536758422851562
 13.0091304779052734  7.9982562065124512 33.7644691467285156
 13.3284397125244141  8.9228448867797852 32.2987632751464915
 11.9281520843505842  9.9643154144287109 34.8337745666503906
 12.7815370559692383 11.5123348236083984 34.7430686950683594
 15.3668527603149414  9.1763477325439453 35.4862251281738281
 14.2639055252075178 10.4148397445678711 36.1051216125488281
 15.8042840957641602 10.1504878997802717 33.1929244995117188
 14.5208444595336896 11.2624025344848633 32.6400451660156250
 15.7551507949829102  8.3478546142578125 32.3973808288574219
 15.5722188949584961  7.6305661201477051 33.9892692565917969
 15.7613353729248029  5.8925271034240714 32.4003677368164062
 14.1574754714965820  5.8351759910583496 33.1234092712402344
 11.4999351501464844  9.9450044631958008 32.3972969055175781
 12.4747343063354492 11.4332332611083967 32.1744918823242188
 11.0045146942138654 11.4719333648681641 33.1348648071289062
 13.6703681945800781  8.4250211715698242 37.2480697631835938
 13.6177940368652344  7.4320168495178223 35.7899589538574219
 12.3742990493774414  8.6604108810424805 36.1161613464355540
 14.7663850784301758 12.4810304641723633 34.8896026611328125
 16.2075538635253906 12.4714031219482404 33.8961944580078125
 16.1137886047363281 11.3631219863891584 35.2773704528808594
 14.8232822418212891  6.8929276466369629 30.2865066528320312
 14.2029685974121094  5.2955145835876465 30.7111282348632812
 11.9738817214965820  5.4884505271911621 32.3604812622070312
 13.2334032058715803  8.3637056350708008 29.4266395568847692
  9.6862297058105469  6.4205522537231445 32.3002738952636719
 10.9218864440917969  9.2860479354858398 29.3426208496093786
  9.1494951248168945  8.3457412719726562 30.8106002807617223
 17.9432773590087891  4.3874673843383789 34.6395797729492259
  0.6088600158691430 13.8748016357421875 35.2132682800292969
  8.4084577560424805  4.1306853294372559 34.8556060791015625
  9.1047687530517578 13.6823158264160156 34.7288055419921875
  4.2579030990600586  9.6763286590576172 34.9899559020996094
  4.6886920193210235 17.9486802220344543 34.7542953491210938
 14.0050234058871865 17.7872124910354614 35.1181526184082102
  0.1194466352462769  4.4315862655639648 40.5615501403808594
  0.2218494713306427 13.8516988754272461 40.8174591064453196
  9.0314388275146484  4.4587512016296387 40.4948959350586009
  8.9618663787841797 13.5805950164794922 40.5070075988769531
  4.6353597640991211  8.9865999221801758 40.5450057983398509
  4.5104804039001465  0.0351972915232182 40.4348602294921946
 13.4512023925781250  9.3649053573608398 40.8208694458007812
 13.6004962921142578  0.0046934857964516 40.5930328369140625
  9.0289716720581055  4.5156092643737793 46.4455223083496165
  9.0265130996704102 13.5470085144042969 46.4455223083496165
 18.0593719482421875  4.5156092643737793 46.4455223083496165
 18.0569133758544922 13.5470085144042969 46.4455223083496165
  4.5152091979980469  0.0000180629995157 46.4442062377929759
  4.5127501487731934  9.0314178466796857 46.4442062377929759
 13.5456094741821289  0.0000180629995157 46.4442062377929759
 13.5431499481201172  9.0314178466796857 46.4442062377929759
 12.7695550918579102  6.8678445816040030 30.9036312103271484
 11.7509002685546875  6.3205380439758301 31.6879997253418004
 12.4472713470458984  7.9328846931457520 30.0519390106201207
 10.4563217163085938  6.8503785133361816 31.6617469787597656
 11.1595354080200195  8.4555034637451172 30.0037918090820348
 10.1494188308715820  7.9206166267395011 30.8253765106201207
 13.7658081054687500  8.6096572875976562 33.2549171447753906
 12.5760374069213867 10.5807895660400391 34.2006111145019602
 14.3169488906860352  9.4864559173583984 35.5294036865234375
 14.9740972518920898 10.7851161956787109 33.5147171020507884
 15.0485773086547852  7.7982106208801270 33.0361785888671875
 14.7899045944213867  6.4110178947448730 32.4306793212890625
 11.8724565505981428 10.8531656265258771 32.8848228454589844
 13.4436340332031250  8.4407863616943359 36.1775016784667969
 15.5324325561523438 11.8218183517456055 34.4675521850585938
 14.1860666275024414  6.3548312187194824 31.0155639648437536
  1.0141010284423824  4.5387783050537109 35.2748107910156321
  0.5742950439453139 12.8013315200805664 35.9630928039550781
  9.6316003799438459  3.7378823757171631 35.1274642944335938
  8.7395286560058594 12.5421648025512678 35.2657318115234375
  7.9551076889038086  5.3550453186035156 34.9748458862304688
  8.6321096420288086 14.8571157455444318 35.1030120849609375
 16.7626571655273438  4.5028858184814453 35.2041206359863281
 17.7043151855468750 14.7672395706176758 35.1342315673828125
  4.1497402191162109  8.4280567169189453 35.3840904235839844
  3.4927687644958496  0.2540147900581360 35.1414604187011719
 12.7349085072055441 17.8105268180370331 35.4435729980468750
  5.7778220176696777  0.5750899910926819 35.0087051391601562
  5.4008159637451172 10.3108482360839844 34.8342590332031321
 14.8281784057617170  0.7457926869392395 35.2164382934570312
  0.9459660053253174  3.5845205783843994 41.1247901916503906
  1.1004903316497803 12.9172019958496094 41.1048507690429759
  9.8847904205322266  3.6937768459320068 41.1306686401367188
  9.6984624862670881 12.6993741989135742 41.1474304199218750
  3.8398318290710449  8.1019601821899414 41.0999526977539062
  3.6451915958896279 17.3296778202056885 41.0486488342285227
 12.5949602127075195  8.4372215270996094 41.1701965332031250
 12.7892278889194131 17.2451149225234985 41.2112617492675781
  8.2060136795043945  5.3160119056701660 41.0558738708496094
  8.1844043731689453 14.4852676391601562 41.0514602661132812
 17.2331383228302002  5.1052856445312500 41.1656112670898509
 17.0537534952163696 13.8901138305664062 41.2757530212402415
  5.3986034393310547  0.8249329328536987 41.0063743591308665
  5.3325166702270508  9.9148912429809570 41.1741447448730469
 14.4100389480590820  0.8712779283523558 41.1669197082519531
 14.7510795593261719  9.2934322357177734 41.0010452270507812
  0.8273094892501831  3.6869695186614990 47.0359649658203125
  0.8248501420021057 12.7183685302734375 47.0359649658203125
  9.8577098846435547  3.6869695186614990 47.0359649658203125
  9.8552503585815412 12.7183685302734375 47.0359649658203125
  3.6843190193176270  8.2023353576660156 47.0346527099609375
  3.6818594932556152 17.2337341308593750 47.0346527099609375
 12.7147188186645508  8.2023353576660156 47.0346527099609375
 12.7122592926025391 17.2337341308593750 47.0346527099609375
  8.2006769180297852  5.3445744514465332 47.0360260009765696
  8.1982173919677734 14.3759746551513672 47.0360260009765696
 17.2310771942138672  5.3445744514465332 47.0360260009765696
 17.2286186218261719 14.3759746551513672 47.0360260009765696
  5.3436489105224600  0.8290914893150328 47.0346527099609375
  5.3411893844604483  9.8604917526245117 47.0346527099609375
 14.3740482330322266  0.8290914893150328 47.0346527099609375
 14.3715896606445312  9.8604917526245117 47.0346527099609375
 13.9179983139038086  9.8631286621093732 34.1074333190918040
  9.2645254135131818  0.2381717711687088 34.5248222351074219
  8.7719287872314453  9.0306396484375000 34.6090583801269531
  0.1016677170991898  0.1594355255365372 34.4086570739746094
  0.4932802319526672  9.0701131820678711 34.6636543273925852
  4.5354266166687012  4.3987107276916504 34.5394897460937571
  4.5462965965270996 13.8133563995361328 34.5456619262695384
 13.2692680358886701  3.8164203166961670 34.7324905395507812
 12.6234006881713867 14.3825645446777344 34.6902885437011719
 17.9796947101131082 17.7989137172699010 40.8703422546386719
  0.2715683877468109  8.9521036148071289 40.9490737915039062
  8.9882831573486328  0.0650066807866096 40.9190826416015696
  9.0615854263305664  8.9577474594116211 40.9012336730957031
  4.6007385253906250  4.4486494064331055 40.8947944641113281
  4.5926074981689444 13.6362047195434553 40.8817710876464844
 13.4937143325805664  4.8015313148498526 40.9423484802246165
 13.4702606201171875 13.3954315185546875 40.9100227355957031
  2.3300275802612305  2.2242619991302490 37.9540901184082031
  2.7739584445953369 10.9286346435546857 37.9898185729980469
 11.5622510910034180  2.0500192642211914 38.1862373352050852
 11.3962240219116193 11.1917142868041992 37.9969406127929688
  6.5534925460815430  7.0085992813110352 37.8823966979980469
  6.7025971412658691 15.9618768692016602 37.8934097290039062
 16.0351581573486328  6.6807303428649902 38.0218925476074219
 15.6569499969482422 15.9285106658935547 37.8656387329101634
  2.2168912887573242  6.5736460685729972 38.0081672668457031
  2.2182369232177734 15.8072671890258789 37.9147224426269531
 10.7722024917602521  6.2800440788269043 37.5398483276367259
 11.1168985366821289 15.6651210784912109 38.3398323059082031
  6.9901146888732910  2.4005389213562012 37.8966064453125000
  6.9674453735351562 11.4582672119140625 38.0956192016601562
 15.9566564559936506  2.4714131355285645 38.2438354492187571
 16.2464179992675781 11.5864639282226562 38.3827400207519531
  0.0000000000000000  0.0000000000000000 47.1735610961914062
 -0.0024593239650130  9.0313997268676740 47.1735610961914062
  9.0304002761840803  0.0000000000000000 47.1735610961914062
  9.0279407501220685  9.0313997268676740 47.1735610961914062
  4.5139794349670410  4.5156998634338379 47.1742515563964844
  4.5115203857421875 13.5470991134643537 47.1742515563964844
 13.5443792343139648  4.5156998634338379 47.1742515563964844
 13.5419197082519531 13.5470991134643537 47.1742515563964844
  2.4519233703613277  2.0629522800445557 44.0401268005371165
  2.4494640827178955 11.0943517684936523 44.0401268005371165
 11.4823226928710920  2.0629522800445557 44.0401268005371165
 11.4798641204833984 11.0943517684936523 44.0401268005371165
  6.5760178565979004  6.9684472084045410 44.0401268005371165
  6.5735583305358887 15.9998464584350586 44.0401268005371165
 15.6064186096191406  6.9684472084045410 44.0401268005371165
 15.6039590835571289 15.9998464584350586 44.0401268005371165
  2.0610768795013428  6.5788145065307617 44.0400009155273509
  2.0586175918579102 15.6102142333984375 44.0400009155273509
 11.0914773941040039  6.5788145065307617 44.0400009155273509
 11.0890178680419922 15.6102142333984375 44.0400009155273509
  6.9668641090393066  2.4525938034057613 44.0400657653808665
  6.9644045829772949 11.4839935302734375 44.0400657653808665
 15.9972639083862305  2.4525938034057613 44.0400657653808665
 15.9948053359985352 11.4839935302734375 44.0400657653808665
  2.4316265583038330  2.0832188129425049 50.0684852600097656
  2.4291670322418213 11.1146183013915998 50.0684852600097656
 11.4620265960693359  2.0832188129425049 50.0684852600097656
 11.4595670700073224 11.1146183013915998 50.0684852600097656
  6.5963144302368164  6.9481806755065918 50.0684852600097656
  6.5938549041748047 15.9795799255371076 50.0684852600097656
 15.6267137527465803  6.9481806755065918 50.0684852600097656
 15.6242542266845703 15.9795799255371076 50.0684852600097656
  2.0811281204223633  6.5990090370178223 50.0690460205078125
  2.0786688327789307 15.6304082870483398 50.0690460205078125
 11.1115283966064453  6.5990090370178223 50.0690460205078125
 11.1090688705444336 15.6304082870483398 50.0690460205078125
  6.9468131065368652  2.4323906898498531 50.0690460205078125
  6.9443535804748535 11.4637899398803711 50.0690460205078125
 15.9772129058837891  2.4323906898498531 50.0690460205078125
 15.9747543334960938 11.4637899398803711 50.0690460205078125
 18.0148890987038612  0.0765755921602249 37.7593879699707031
  0.1433157622814178  9.0864629745483381 37.7767028808593750
  9.1082954406738281  0.0270540248602629 37.7955360412597656
  9.0536880493164062  9.0137090682983398 37.7508316040039062
  4.5786933898925781  4.5203680992126465 37.7423019409179688
  4.5110211372375488 13.5858669281005842 37.6811332702636719
 13.4795789718627930  4.5634107589721680 37.8192481994628977
 13.4168014526367188 13.6670551300048828 37.7522239685058594
  0.0000090280000222  0.0000090310004452 44.0429992675781250
 -0.0024502959568053  9.0314083099365234 44.0429992675781250
  9.0304088592529297  0.0000090310004452 44.0429992675781250
  9.0279493331909180  9.0314083099365234 44.0429992675781250
  4.5139703750610352  4.5156903266906738 44.0427513122558594
  4.5115113258361816 13.5470905303955078 44.0427513122558594
 13.5443706512451172  4.5156903266906738 44.0427513122558594
 13.5419111251831037 13.5470905303955078 44.0427513122558594
  0.0000000000000000  0.0000000000000000 50.4472808837890696
 -0.0024593239650130  9.0313997268676740 50.4472808837890696
  9.0304002761840803  0.0000000000000000 50.4472808837890696
  9.0279407501220685  9.0313997268676740 50.4472808837890696
  4.5139703750610352  4.5156998634338379 50.4472808837890696
  4.5115113258361816 13.5470991134643537 50.4472808837890696
 13.5443706512451172  4.5156998634338379 50.4472808837890696
 13.5419111251831055 13.5470991134643537 50.4472808837890696
