 H  C  N  I Pb 
 1.0000000000000000
    18.0608005523681641    0.0000000000000000    0.0000000000000000
    -0.0049186488613486   18.0627994537353516    0.0000000000000000
     0.0000000000000000    0.0000000000000000   62.4874992370605469
 H   C   N   I   Pb 
 143  39  47  72  24
Cartesian
  8.0734596252441406  5.4579920768737793 36.3644218444824219
  8.0286054611206055 15.0959215164184570 36.1456947326660156
 17.1347522735595703  4.8079018592834473 36.6064414978027344
 17.4667301177978516 14.5558300018310529 36.6486129760742188
  5.4283981323242188  0.7946550846099854 36.4264564514160227
  5.4941496849060059  9.9948577880859375 36.4137878417968750
 14.0005483627319336  1.2164767980575562 36.3551979064941406
  1.9009304046630833  3.5808238983154297 34.6210708618164062
  1.5205230712890623 12.2752523422241211 34.8286399841308665
 10.4387989044189453  3.2228615283966064 34.8674926757812500
  9.5949640274047852 11.8678283691406250 35.4034690856933594
  6.4593281745910645  0.7254992723464966 34.9988136291503977
  5.5266289710998535 10.8612213134765625 34.9132118225097656
 15.1383104324340803  1.2840745449066162 35.0305976867675852
  1.3283843994140636  3.7056915760040283 36.2906875610351562
  0.7873840332031263 12.4960622787475586 36.3852653503417969
 10.1398506164550763  4.1223926544189453 36.2715797424316406
  9.0791597366333008 12.8597621917724609 36.7013397216796875
  4.1155910491943359  7.8859243392944336 36.4241752624511719
  3.2224051216617227 17.6701552271842992 36.2807731628417969
 12.3691467503085732 17.4279981851577759 36.3239440917968821
  6.9723086357116699  5.2908759117126465 35.0188751220703125
  8.0226755142211914 15.5031557083129883 34.4604835510253906
 16.2976074218750000  5.1915969848632812 35.1209259033203125
 17.3081893920898438 15.6062116622924787 35.2806243896484375
  3.3558249473571777  7.4460024833679199 34.9116134643554688
  2.8389586666598916 16.9600561857223511 34.7338256835937500
 12.4831356266513449 16.2682191133499146 34.9599380493164062
  8.4088373184204102  3.8535320758819580 33.8894691467285156
  9.0201215744018555 13.5423545837402326 33.7670173645019531
 18.0162258148193359  4.5072746276855469 33.7414283752441477
  0.6222419738769551 14.2221126556396467 33.9468040466308665
  4.1766610145568848  9.2955532073974609 33.8067779541015696
  4.8834852436557412 17.5864324569702148 33.7878150939941477
 14.2128462055698037 17.4203189611434972 34.0059471130371094
  8.1804332733154297  5.5556936264038086 42.2438011169433665
  7.9290895462036133 14.7435941696166974 42.1002769470214844
 17.2763311862945557  5.1814527511596680 42.4255905151367188
 16.9726302623748779 14.5517988204956055 42.1806449890136719
  5.4979052543640137  0.9201919436454773 42.1329727172851562
  5.3350086212158203  9.9903564453125000 42.2950019836425852
 14.6188697814941406  0.8975099325180054 42.2159843444824219
 15.0695419311523438  9.7133226394653320 42.0241622924804688
  1.5207107067108154  3.0973320007324214 40.4480247497558594
  1.6335606575012207 12.3986482620239258 40.8926429748535156
 10.2999324798583984  2.9581735134124756 40.7078971862792969
 10.2665481567382812 12.0765953063964844 41.0970687866210938
  3.3530395030975342  7.4263181686401367 40.4889488220214844
  3.0608197906985879 16.6205911636352539 40.7215080261230469
 11.9114151000976562  8.0372648239135742 40.9350433349609375
 12.0022081593051553 16.8805330991745031 40.6784973144531250
  1.1391304731369019  3.4164361953735347 42.1024436950683594
  0.7965201735496521 12.6868429183959961 42.3714866638183594
 10.0259952545166016  3.6344194412231445 42.2435111999511719
  9.6469478607177734 12.8073835372924787 42.5613670349121094
  3.7189686298370361  7.9083795547485352 42.1153602600097656
  3.6375188091769814 17.1673045158386230 42.2782135009765625
 13.0173845291137695  8.0747842788696289 42.3110084533691406
 12.5709423283115029 17.3402440547943115 42.2560539245605540
  7.4874134063720703  5.8434529304504386 40.6910057067871094
  7.6818618774414054 15.0954828262329102 40.4247016906738352
 16.6310018301010132  5.7924017906188965 40.9256477355957031
 16.7718564271926880 15.1772880554199219 40.5997467041015625
  5.9511818885803223  1.3661789894104004 40.5238304138183594
  5.8635244369506836 10.6174383163452148 40.7414665222167969
 15.1750679016113281  1.3240504264831543 40.6212158203125000
 15.1554489135742188 10.4386177062988281 40.4367103576660156
 17.9771543666720390  4.5816092491149902 39.6014175415039062
  0.4414032399654388 13.9604673385620117 39.6828765869140625
  8.7295761108398438  4.2626547813415527 39.6033248901367259
  9.1411170959472656 13.4469470977783203 39.6737899780273509
  4.4812101582065225 17.9761692062020302 39.5001907348632812
  4.6265277862548828  9.0597229003906250 39.5028038024902415
 13.6088418960571271  0.0429792031645775 39.5283966064453196
 13.2335844039916992  9.4871368408203125 39.6730155944824219
  8.1032123565673828  5.4420318603515616 48.0459518432617259
  8.1007528305053711 14.4734306335449219 48.0459518432617259
 17.1336116790771484  5.4420318603515616 48.0459518432617259
 17.1311531066894531 14.4734306335449219 48.0459518432617259
  5.4410333633422852  0.9265221953392029 48.0449485778808594
  5.4385743141174316  9.9579219818115234 48.0449485778808594
 14.4714326858520490  0.9265221953392029 48.0449485778808594
 14.4689741134643555  9.9579219818115234 48.0449485778808594
  1.4218254089355467  3.0919990539550781 46.4558296203613281
  1.4193661212921143 12.1233978271484375 46.4558296203613281
 10.4522256851196289  3.0919990539550781 46.4558296203613281
 10.4497661590576172 12.1233978271484375 46.4558296203613281
  3.0899283885955806  7.6075901985168457 46.4545211791992188
  3.0874691009521484 16.6389904022216797 46.4545211791992188
 12.1203289031982422  7.6075901985168457 46.4545211791992188
 12.1178693771362305 16.6389904022216797 46.4545211791992188
  0.9247469902038573  3.5893490314483643 48.0459518432617259
  0.9222877025604248 12.6207475662231445 48.0459518432617259
  9.9551477432250977  3.5893490314483643 48.0459518432617259
  9.9526882171630859 12.6207475662231445 48.0459518432617259
  3.5868983268737793  8.1048498153686523 48.0448913574218821
  3.5844390392303462 17.1362495422363281 48.0448913574218821
 12.6172990798950195  8.1048498153686523 48.0448913574218821
 12.6148395538330078 17.1362495422363281 48.0448913574218821
  7.6061611175537109  5.9393639564514160 46.4558296203613281
  7.6037015914916992 14.9707632064819336 46.4558296203613281
 16.6365604400634766  5.9393639564514160 46.4558296203613281
 16.6341018676757812 14.9707632064819336 46.4558296203613281
  5.9380125999450684  1.4238001108169553 46.4545211791992188
  5.9355530738830566 10.4551992416381836 46.4545211791992188
 14.9684123992919904  1.4238001108169553 46.4545211791992188
 14.9659538269042951 10.4551992416381836 46.4545211791992188
 -0.0011664569610730  4.5157265663146973 45.3548011779785156
 -0.0036257810425013 13.5471258163452148 45.3548011779785156
  9.0292339324951172  4.5157265663146973 45.3548011779785156
  9.0267744064331037 13.5471258163452148 45.3548011779785156
  4.5152091979980469  0.0000000000000000 45.3536758422851562
  4.5127501487731934  9.0313997268676740 45.3536758422851562
 13.5456094741821289  0.0000000000000000 45.3536758422851562
 13.5431499481201172  9.0313997268676740 45.3536758422851562
 12.9454231262207031  8.0814094543457031 34.0579147338867188
 13.3494930267333984  9.1498498916625977 32.7078552246093750
 11.6939516067504883  9.7682085037231445 35.0277900695800781
 12.3684949874877930 11.4570941925048828 35.2028388977050781
 15.0610256195068359  9.1848831176757812 36.0617446899414062
 13.9390506744384766 10.3658647537231445 36.6925201416015625
 15.6452512741088867 10.1046218872070312 33.7676086425781250
 14.5186042785644531 11.1889944076538086 33.0168151855468750
 15.6940650939941406  8.6906471252441406 32.7574539184570312
 15.5976505279541016  8.0371742248535156 34.3673286437988281
 16.0066566467285156  6.3285307884216309 32.8372688293457031
 14.4108352661132812  6.0424451828002930 33.5026397705078196
 11.1694612503051758  9.8971691131591797 32.8712463378906250
 12.4429817199707013 11.0901393890380859 32.3967475891113281
 10.9941577911376953 11.6131334304809570 33.2648658752441477
 13.3004503250122070  8.1467237472534180 37.5637969970703196
 13.3917093276977521  7.3899936676025391 36.0173683166503977
 12.0815486907958984  8.5048055648803711 36.3811187744140625
 15.0676813125610352 12.2401723861694336 35.6951141357421875
 15.8096542358398420 12.7326087951660156 34.1569633483886719
 16.5653057098388672 11.4757299423217773 35.1591949462890696
 15.0805635452270508  7.2116441726684570 30.7669639587402379
 14.4864816665649414  5.5864295959472656 31.1394443511962926
 12.0979290008544922  5.6992120742797852 32.6409149169921875
 13.5442266464233381  8.7543945312500000 29.9429168701171875
  9.7782516479492188  6.6039657592773438 32.4159622192382812
 11.2246646881103516  9.6585683822631818 29.7302207946777344
  9.3252668380737305  8.6200380325317383 31.0322494506835938
  0.0493030548095689  4.4095196723937988 34.8195190429687500
  0.3865604400634782 13.9546995162963867 34.9762611389160227
  8.6928005218505859  4.2454853057861328 34.8667755126953125
  8.8499727249145508 13.7080211639404297 34.8504791259765625
  4.4243903160095215  9.1541996002197266 34.8628349304199219
  4.6599754551425567 17.8711370825767517 34.8204956054687500
 13.8033193806186318 17.8070329427719116 34.9454269409179688
  0.0409204438328743  4.4508523941040039 40.6652297973632884
  0.1954630315303802 13.7873325347900373 40.7115783691406250
  8.8823165893554688  4.4013576507568359 40.6650428771972656
  8.9826288223266602 13.5973186492919922 40.7249755859375071
  4.6143269538879395  9.0230665206909180 40.5824584960937500
  4.5005654552951455 18.0264591649174690 40.5866203308105469
 13.5583562850952148  9.2551040649414062 40.6683158874511790
 13.5911331176757795  0.0675374120473862 40.6159362792968750
  9.0289716720581055  4.5156092643737793 46.4455223083496165
  9.0265130996704102 13.5470085144042969 46.4455223083496165
 18.0593719482421875  4.5156092643737793 46.4455223083496165
 18.0569133758544922 13.5470085144042969 46.4455223083496165
  4.5152091979980469  0.0000180629995157 46.4442062377929759
  4.5127501487731934  9.0314178466796857 46.4442062377929759
 13.5456094741821289  0.0000180629995157 46.4442062377929759
 13.5431499481201172  9.0314178466796857 46.4442062377929759
 12.9832210540771484  7.1448683738708496 31.3147430419921911
 11.8821821212768555  6.5575127601623535 31.9938068389892578
 12.7062568664550763  8.2583627700805664 30.4689521789550817
 10.5945320129394531  7.0722246170043945 31.8691692352294922
 11.3919429779052734  8.7744941711425781 30.3703289031982422
 10.3444824218749982  8.1762647628784180 31.0660266876220703
 13.7070827484130859  8.7440328598022461 33.6366615295410156
 12.3402709960937500 10.5484800338745117 34.5740661621093750
 14.0181159973144531  9.4967031478881836 36.0216751098632884
 14.8657264709472656 10.8206005096435547 34.0074005126953125
 15.0478324890136719  8.1042261123657227 33.4309272766113352
 14.9781217575073242  6.7092056274414062 32.8529472351074219
 11.7263774871826172 10.7944536209106445 33.1919708251953125
 13.1449260711669922  8.3383159637451172 36.4995880126953125
 15.5981025695800781 11.8747739791870117 34.8094863891601634
 14.4001159667968750  6.6523046493530273 31.4390411376953125
  1.1402091979980464  3.8744254112243652 35.2807884216308594
  0.9280357360839860 12.8352899551391584 35.4272537231445312
  9.7984743118286133  3.8053252696990967 35.3875999450683665
  9.2474832534790021 12.7999324798583984 35.6988792419433594
  7.8812055587768555  5.0804176330566406 35.4465827941894531
  8.2720279693603516 14.8310289382934570 35.1536026000976562
 17.1295623779296875  4.8321065902709961 35.5843620300293040
 17.6719455718994141 14.7425804138183576 35.6944961547851562
  3.9383113384246826  8.0782756805419922 35.4300460815429759
  3.4980477550998326 17.4771987795829773 35.3127441406250000
 12.7983507374301535 17.1417547464370728 35.4378433227539062
  5.5707035064697257  0.4952923357486725 35.4555969238281250
  5.1832900047302246 10.0591306686401367 35.4416351318359375
 14.3714618682861328  0.8025614023208618 35.4957160949707102
  0.9542922973632812  3.6106886863708496 41.1109657287597656
  0.9108321070671082 12.8990221023559553 41.3796997070312500
  9.7882938385009766  3.6366760730743408 41.2471466064453125
  9.6677465438842756 12.7757854461669922 41.5082893371582102
  3.8645718097686763  8.0596885681152344 41.0935287475585938
  3.6664251545444131 17.2127233743667638 41.2358093261718750
 12.7869997024536133  8.4000396728515625 41.3512573242187500
 12.6514953831210732 17.3915480375289953 41.2199440002441406
  8.1515541076660156  5.3098416328430176 41.2414436340332031
  8.1582775115966797 14.5195894241333008 41.1095924377441406
 17.2814403772354126  5.1905450820922852 41.4066276550292969
 17.2679184675216675 14.5241918563842773 41.2046966552734375
  5.3608083724975586  0.7879226803779602 41.1145439147949219
  5.2743911743164062  9.9064702987670898 41.2541694641113281
 14.5068845748901349  0.7939791679382324 41.1871719360351562
 14.6572122573852539  9.8196468353271484 41.0805358886718750
  0.8273094892501831  3.6869695186614990 47.0359649658203125
  0.8248501420021057 12.7183685302734375 47.0359649658203125
  9.8577098846435547  3.6869695186614990 47.0359649658203125
  9.8552503585815412 12.7183685302734375 47.0359649658203125
  3.6843190193176270  8.2023353576660156 47.0346527099609375
  3.6818594932556152 17.2337341308593750 47.0346527099609375
 12.7147188186645508  8.2023353576660156 47.0346527099609375
 12.7122592926025391 17.2337341308593750 47.0346527099609375
  8.2006769180297852  5.3445744514465332 47.0360260009765696
  8.1982173919677734 14.3759746551513672 47.0360260009765696
 17.2310771942138672  5.3445744514465332 47.0360260009765696
 17.2286186218261719 14.3759746551513672 47.0360260009765696
  5.3436489105224600  0.8290914893150328 47.0346527099609375
  5.3411893844604483  9.8604917526245117 47.0346527099609375
 14.3740482330322266  0.8290914893150328 47.0346527099609375
 14.3715896606445312  9.8604917526245117 47.0346527099609375
 13.7666635513305664  9.9412031173706055 34.5954017639160156
  8.8086709976196289  0.2749350666999817 34.4702911376953196
  8.7155838012695312  9.3630647659301758 34.7638969421386719
 17.8377792984247208  0.1021031737327576 34.5462799072265696
  0.5219248533248901  9.1688318252563477 34.7275848388671875
  4.5185327529907227  4.4812130928039551 34.4764556884765625
  4.5247497558593750 13.5792427062988281 34.5259094238281321
 13.2827291488647461  3.9632287025451660 34.9426536560058594
 13.0060586929321271 14.1050424575805646 34.1185646057128906
  0.0496306903660297  0.0748611986637115 40.9287643432617188
  0.3190371394157410  9.0103483200073242 41.0028495788574219
  9.0224518040195107 18.0120548903942108 40.8832817077636790
  9.0400485992431641  8.8664474487304688 40.9543876647949219
  4.5645947456359863  4.4224214553833008 40.8259277343750000
  4.6066031455993652 13.6367979049682617 40.9348449707031250
 13.3578577041625977  4.6373243331909180 41.0348777770996165
 13.6439666748046875 13.6235990524291992 40.8656311035156250
  2.5876691341400146  1.9411205053329468 37.9585647583007812
  2.6368737220764160 11.0226278305053711 38.0846939086914062
 11.6274738311767560  1.8819468021392820 38.1006927490234446
 11.1854581832885742 11.4252328872680664 38.4360504150390625
  6.4140896797180176  7.1040549278259277 37.9634132385253906
  6.5892620086669922 16.0689182281494141 37.9672279357910156
 15.8832712173461896  6.7341284751892090 38.3352050781250071
 15.5214395523071289 16.1876316070556641 38.0669746398925781
  2.0807423591613770  6.3952302932739258 37.9840469360351562
  2.0657835006713867 15.6467857360839844 38.0814590454101562
 10.6127414703369141  6.1678934097290039 38.0418701171875000
 10.9870109558105451 15.5758829116821271 38.1100578308105469
  7.0345892906188965  2.5613756179809570 38.0766830444336009
  6.9297180175781250 11.5237951278686523 38.2725677490234375
 16.0054855346679688  2.4820251464843750 38.2468605041503906
 16.5238971710205078 11.7430896759033185 38.4851875305175852
  0.0000000000000000  0.0000000000000000 47.1735610961914062
 -0.0024593239650130  9.0313997268676740 47.1735610961914062
  9.0304002761840803  0.0000000000000000 47.1735610961914062
  9.0279407501220685  9.0313997268676740 47.1735610961914062
  4.5139794349670410  4.5156998634338379 47.1742515563964844
  4.5115203857421875 13.5470991134643537 47.1742515563964844
 13.5443792343139648  4.5156998634338379 47.1742515563964844
 13.5419197082519531 13.5470991134643537 47.1742515563964844
  2.4519233703613277  2.0629522800445557 44.0401268005371165
  2.4494640827178955 11.0943517684936523 44.0401268005371165
 11.4823226928710920  2.0629522800445557 44.0401268005371165
 11.4798641204833984 11.0943517684936523 44.0401268005371165
  6.5760178565979004  6.9684472084045410 44.0401268005371165
  6.5735583305358887 15.9998464584350586 44.0401268005371165
 15.6064186096191406  6.9684472084045410 44.0401268005371165
 15.6039590835571289 15.9998464584350586 44.0401268005371165
  2.0610768795013428  6.5788145065307617 44.0400009155273509
  2.0586175918579102 15.6102142333984375 44.0400009155273509
 11.0914773941040039  6.5788145065307617 44.0400009155273509
 11.0890178680419922 15.6102142333984375 44.0400009155273509
  6.9668641090393066  2.4525938034057613 44.0400657653808665
  6.9644045829772949 11.4839935302734375 44.0400657653808665
 15.9972639083862305  2.4525938034057613 44.0400657653808665
 15.9948053359985352 11.4839935302734375 44.0400657653808665
  2.4316265583038330  2.0832188129425049 50.0684852600097656
  2.4291670322418213 11.1146183013915998 50.0684852600097656
 11.4620265960693359  2.0832188129425049 50.0684852600097656
 11.4595670700073224 11.1146183013915998 50.0684852600097656
  6.5963144302368164  6.9481806755065918 50.0684852600097656
  6.5938549041748047 15.9795799255371076 50.0684852600097656
 15.6267137527465803  6.9481806755065918 50.0684852600097656
 15.6242542266845703 15.9795799255371076 50.0684852600097656
  2.0811281204223633  6.5990090370178223 50.0690460205078125
  2.0786688327789307 15.6304082870483398 50.0690460205078125
 11.1115283966064453  6.5990090370178223 50.0690460205078125
 11.1090688705444336 15.6304082870483398 50.0690460205078125
  6.9468131065368652  2.4323906898498531 50.0690460205078125
  6.9443535804748535 11.4637899398803711 50.0690460205078125
 15.9772129058837891  2.4323906898498531 50.0690460205078125
 15.9747543334960938 11.4637899398803711 50.0690460205078125
 17.9920460432767868  0.0975567549467087 37.7492370605468750
  0.1346670836210251  9.0662870407104492 37.8629875183105469
  9.0169210433959961  0.1230170950293541 37.6950225830078196
  8.9805631637573242  9.0299911499023438 37.7767524719238352
  4.4900240898132324  4.4740896224975586 37.6561660766601634
  4.5685811042785645 13.5860824584960938 37.6957015991211009
 13.4519424438476562  4.5572376251220703 37.9685592651367188
 13.4077854156494141 13.7497205734252930 37.7532005310058665
  0.0000090280000222  0.0000090310004452 44.0429992675781250
 -0.0024502959568053  9.0314083099365234 44.0429992675781250
  9.0304088592529297  0.0000090310004452 44.0429992675781250
  9.0279493331909180  9.0314083099365234 44.0429992675781250
  4.5139703750610352  4.5156903266906738 44.0427513122558594
  4.5115113258361816 13.5470905303955078 44.0427513122558594
 13.5443706512451172  4.5156903266906738 44.0427513122558594
 13.5419111251831037 13.5470905303955078 44.0427513122558594
  0.0000000000000000  0.0000000000000000 50.4472808837890696
 -0.0024593239650130  9.0313997268676740 50.4472808837890696
  9.0304002761840803  0.0000000000000000 50.4472808837890696
  9.0279407501220685  9.0313997268676740 50.4472808837890696
  4.5139703750610352  4.5156998634338379 50.4472808837890696
  4.5115113258361816 13.5470991134643537 50.4472808837890696
 13.5443706512451172  4.5156998634338379 50.4472808837890696
 13.5419111251831055 13.5470991134643537 50.4472808837890696
