Molecule_12951678
1.0
       20.0000000000         0.0000000000         0.0000000000
        0.0000000000        20.0000000000         0.0000000000
        0.0000000000         0.0000000000        20.0000000000
     N     C     H
     1     16     28
Cartesian
        11.556956156          9.798089444         10.039425156
        10.449276156         10.768323444         10.466390156
        11.771391156          8.779320444         11.162877156
        12.870833156         10.536760444          9.778986156
        11.123862156          9.093193444          8.748483156
        10.179233156         11.961114444          9.544123156
         8.931292156         12.746600444         10.021681156
        10.596879156          7.852838444         11.460729156
        13.428725156         11.352326444         10.939896156
        12.023382156          7.960139444          8.265673156
         7.586123156         12.269062444          9.426562156
         7.224830156         10.823547444          9.706382156
         6.842958156         10.411974444         10.993728156
         7.269199156          9.860405444          8.688247156
         6.530176156          9.077180444         11.257454156
         6.953958156          8.522516444          8.946411156
         6.588771156          8.125991444         10.234174156
         9.550153156         10.164172444         10.571351156
        10.729876156         11.125098444         11.460051156
        12.654454156          8.202059444         10.880172156
        12.024865156          9.362893444         12.048484156
        13.589417156          9.772845444          9.477725156
        12.683723156         11.178205444          8.915818156
        10.108861156          8.735206444          8.930615156
        11.066048156          9.874842444          7.990357156
        11.042927156         12.634897444          9.537638156
        10.016812156         11.639219444          8.509514156
         8.881137156         12.731141444         11.119012156
         9.063664156         13.797987444          9.744535156
        10.338909156          7.205508444         10.619117156
        10.901105156          7.202651444         12.287747156
         9.697530156          8.384212444         11.780527156
        12.739930156         12.124937444         11.291440156
        13.736097156         10.737232444         11.789457156
        14.326116156         11.861554444         10.574059156
        12.075979156          7.126516444          8.969953156
        11.584802156          7.572527444          7.340235156
        13.038385156          8.285656444          8.023202156
         6.799927156         12.926035444          9.818845156
         7.607483156         12.431404444          8.341899156
         6.771839156         11.146679444         11.793362156
         7.524882156         10.165966444          7.675591156
         6.218756156          8.782996444         12.256198156
         6.970621156          7.797380444          8.136841156
         6.327851156          7.090786444         10.435027156
