 H  C  N  I Pb 
 1.0000000000000000
    18.0608005523681641    0.0000000000000000    0.0000000000000000
    -0.0049186488613486   18.0627994537353516    0.0000000000000000
     0.0000000000000000    0.0000000000000000   62.4874992370605469
 H   C   N   I   Pb 
 143  39  47  72  24
Cartesian
  7.6284055709838858  4.6706547737121582 36.2444419860839915
  7.4361562728881836 13.2272577285766584 36.0095825195312571
 16.8243961334228516  5.1603755950927734 36.3332710266113281
 17.0149688720703125 14.6879100799560547 36.1451835632324219
  5.6778812408447266  1.1708328723907471 36.0608558654785156
  5.5128726959228516 10.4990758895874023 35.8987922668457031
 14.2953090667724592  1.3814427852630615 36.2555770874023438
  1.9244823455810540  3.7559497356414795 35.2960586547851562
  1.4953613281250007 12.1759366989135742 35.4133453369140625
 10.9331626892089844  3.5812668800354004 35.2478370666503906
 10.9409627914428711 13.4529561996459961 35.1784744262695312
  6.7197875976562500  0.2583618760108948 35.0197334289550781
  4.7622604370117188 11.1493396759033203 34.4826011657714844
 15.5977659225463867  0.8645139336585999 35.2250671386718821
  1.1862564086914082  4.7333555221557617 36.5510139465332031
  0.0809192657470724 12.4664525985717773 36.4223365783691406
  9.6157999038696289  3.1940336227416988 36.3393440246582102
  9.7880392074584961 12.5355119705200195 36.2414627075195312
  5.0098247528076172  8.0868759155273438 36.4162940979003906
  3.2213833332061768  0.6180144548416137 35.9320373535156250
 12.1878499984741211  0.0712908580899239 36.1490211486816477
  7.6681780815124512  5.9822850227355957 35.0805969238281250
  7.0670175552368164 14.4632883071899414 34.8280677795410227
 16.0075950622558594  4.4253487586975098 34.9532546997070312
 17.7117271423339844 15.7540035247802734 34.9451637268066406
  3.9172098636627193  7.2583460807800293 35.3551025390625000
  2.7408661106601353 17.4751533269882202 34.7676582336425852
 12.2104953983798623 16.7262431383132935 35.1000595092773438
  9.7506723403930664  5.3358821868896484 34.2504768371582031
  9.3519144058227539 14.6519784927368146 34.1766395568847656
 17.9763183593750000  3.5448513031005859 34.1256828308105540
  1.3050098419189475 14.2152385711669922 34.3424339294433594
  3.6279294490814205  9.1564092636108398 34.0057678222656250
  4.9470223644748330 17.1073200702667272 34.0775070190429688
 14.3585943439975381 17.1332667469978333 34.3774566650390625
  7.8918170928955078  5.0931334495544434 42.2322044372558594
  7.7745976448059073 14.8321886062622053 41.9776458740234375
 17.5984019041061401  4.9303445816040039 42.6676177978515625
 16.8397803306579590 14.0701408386230469 42.1482009887695312
  5.3226242065429688  0.8304486274719238 42.3138961791992188
  5.3972129821777335  9.9568853378295898 42.1696701049804688
 14.3396158218383789  1.0168323516845703 42.2099571228027344
 14.6015272140502930  9.9348392486572248 42.2835388183593750
  1.5146684646606445  3.0040276050567627 40.2421760559082031
  1.7969437837600708 12.4664773941040039 40.8662872314453125
 10.5070219039916992  3.1543629169464107 40.5614204406738281
 10.1438913345336914 12.2159948348999023 40.9512863159179688
  3.2786288261413574  7.3735795021057129 40.6141891479492188
  3.1008781651034951 16.6520702838897705 40.3557662963867188
 12.1053590774536133  7.7490901947021484 40.7058448791503906
 12.0649179676547647 16.6924055814743042 40.5606613159179688
  1.3160984516143799  3.1766183376312256 41.9676361083984375
  0.6720861196517944 12.3338804244995099 42.1948585510253906
  9.6825227737426758  3.2634394168853760 42.0731315612792969
  9.4608507156372070 12.9557390213012678 42.3828506469726562
  3.8392915725708008  7.8526062965393066 42.1789550781250000
  3.3525518635287876 17.1107016801834106 42.0041923522949290
 12.8321170806884766  8.0271387100219727 42.2379264831542969
 12.4011987904086709 17.3229252099990845 42.1386642456054688
  7.7008504867553711  6.0189142227172843 40.7701492309570384
  7.5124573707580558 15.1775445938110352 40.2929115295410156
 16.8285305500030518  5.7343416213989258 41.3031501770019602
 16.8954707384109533 15.1497583389282227 40.7741546630859446
  6.1016478538513175  1.2634084224700926 40.8485984802246094
  5.6400895118713370 10.6324033737182617 40.6098556518554688
 15.0601739883422852  1.3135583400726318 40.6752090454101562
 14.8032579421997070 10.7564144134521484 40.7302703857421875
 18.0172361135482788  4.5791835784912109 39.7107810974121094
  0.7178647518157959 14.2177476882934570 39.8762207031250071
  9.3352994918823242  4.8782496452331543 39.6198768615722656
  8.9735336303710938 13.5771675109863281 39.5238609313964844
  4.7642969349399209 17.9843577519059181 39.5194282531738281
  4.3534388542175293  9.0730457305908203 39.5062255859375071
 13.6974148014560342 17.9169514626264608 39.5254821777343750
 13.2436990737915039  9.4369640350341797 39.6350250244140696
  8.1032123565673828  5.4420318603515616 48.0459518432617259
  8.1007528305053711 14.4734306335449219 48.0459518432617259
 17.1336116790771484  5.4420318603515616 48.0459518432617259
 17.1311531066894531 14.4734306335449219 48.0459518432617259
  5.4410333633422852  0.9265221953392029 48.0449485778808594
  5.4385743141174316  9.9579219818115234 48.0449485778808594
 14.4714326858520490  0.9265221953392029 48.0449485778808594
 14.4689741134643555  9.9579219818115234 48.0449485778808594
  1.4218254089355467  3.0919990539550781 46.4558296203613281
  1.4193661212921143 12.1233978271484375 46.4558296203613281
 10.4522256851196289  3.0919990539550781 46.4558296203613281
 10.4497661590576172 12.1233978271484375 46.4558296203613281
  3.0899283885955806  7.6075901985168457 46.4545211791992188
  3.0874691009521484 16.6389904022216797 46.4545211791992188
 12.1203289031982422  7.6075901985168457 46.4545211791992188
 12.1178693771362305 16.6389904022216797 46.4545211791992188
  0.9247469902038573  3.5893490314483643 48.0459518432617259
  0.9222877025604248 12.6207475662231445 48.0459518432617259
  9.9551477432250977  3.5893490314483643 48.0459518432617259
  9.9526882171630859 12.6207475662231445 48.0459518432617259
  3.5868983268737793  8.1048498153686523 48.0448913574218821
  3.5844390392303462 17.1362495422363281 48.0448913574218821
 12.6172990798950195  8.1048498153686523 48.0448913574218821
 12.6148395538330078 17.1362495422363281 48.0448913574218821
  7.6061611175537109  5.9393639564514160 46.4558296203613281
  7.6037015914916992 14.9707632064819336 46.4558296203613281
 16.6365604400634766  5.9393639564514160 46.4558296203613281
 16.6341018676757812 14.9707632064819336 46.4558296203613281
  5.9380125999450684  1.4238001108169553 46.4545211791992188
  5.9355530738830566 10.4551992416381836 46.4545211791992188
 14.9684123992919904  1.4238001108169553 46.4545211791992188
 14.9659538269042951 10.4551992416381836 46.4545211791992188
 -0.0011664569610730  4.5157265663146973 45.3548011779785156
 -0.0036257810425013 13.5471258163452148 45.3548011779785156
  9.0292339324951172  4.5157265663146973 45.3548011779785156
  9.0267744064331037 13.5471258163452148 45.3548011779785156
  4.5152091979980469  0.0000000000000000 45.3536758422851562
  4.5127501487731934  9.0313997268676740 45.3536758422851562
 13.5456094741821289  0.0000000000000000 45.3536758422851562
 13.5431499481201172  9.0313997268676740 45.3536758422851562
 14.2312545776367188  9.1898155212402344 32.3478622436523438
 15.7467517852783203  9.1267080307006836 33.2420120239257884
 13.5761404037475586 11.3185472488403320 33.6258087158203196
 13.8631219863891602 11.3031997680664062 35.3554306030273438
 12.2822589874267578  8.1838026046752930 34.7898406982421875
 12.0842638015747070  9.9082965850830078 35.1702613830566406
 14.4242906570434553  7.7428169250488281 35.6365547180175781
 15.6045875549316388  9.0523891448974592 35.6670074462890625
 15.5606374740600586  6.8514490127563477 33.8325157165527344
 13.8263330459594709  6.7823734283447266 33.5499839782714844
 14.0519418716430664  6.8495216369628906 31.1896972656250036
 15.6544933319091797  7.5683484077453613 31.1881904602050781
 16.1157379150390625 11.0202770233154297 33.2853660583496094
 16.3166236877441406 11.0160961151123047 35.0685005187988281
 15.6637268066406250 12.4425354003906250 34.2418518066406250
 10.7718772888183594  9.4250431060790998 33.2394256591796875
 12.0999851226806623  8.7456703186035156 32.2958984375000071
 12.0555171966552734 10.4875698089599609 32.6712646484375000
 13.0079679489135742  8.7322006225585938 37.2432594299316477
 13.6010475158691406 10.3920450210571289 37.0303497314453196
 14.6376056671142578  9.1661691665649414 37.8353118896484375
 15.0571098327636719  4.7351431846618652 32.2933807373046946
 15.3013620376586914  5.0194277763366699 30.5917110443115234
 16.9397640228271484  3.1170516014099117 31.3694458007812536
 17.5790348052978516  7.2958726882934570 32.1739311218261719
  1.3006210327148449  2.7003378868103027 31.4809551239013672
  1.9412689208984404  6.8707900047302237 32.3104820251464844
  2.8529319763183612  4.6061620712280273 31.9854850769042969
 18.0076141357421875  4.1041226387023926 35.0604553222656250
  0.5725669860839835 13.9484758377075178 35.0813217163086009
  9.2869615554809570  4.7612562179565421 35.0540885925292969
  9.0217218399047852 13.9275922775268537 34.9319877624511719
  4.2958016395568848  9.2024040222167969 34.8652915954589844
  4.7441143253818154 17.8669900000095367 34.8354301452636790
 13.9004387119784933 17.8072240352630615 35.1076660156250000
  0.1330992281436920  4.3788232803344727 40.7684516906738281
  0.2975698113441467 13.8096532821655273 40.8006477355957102
  9.1052417755126953  4.6014671325683585 40.6328201293945312
  8.8264083862304688 13.7102556228637695 40.6006622314453125
  4.4642395973205566  9.0087852478027344 40.5834121704101562
  4.5993041256442666 17.9871923178434372 40.5948448181152415
 13.4454030990600586  9.2518138885498047 40.6948432922363352
 13.5761198261752707 18.0365049354732037 40.5956840515136790
  9.0289716720581055  4.5156092643737793 46.4455223083496165
  9.0265130996704102 13.5470085144042969 46.4455223083496165
 18.0593719482421875  4.5156092643737793 46.4455223083496165
 18.0569133758544922 13.5470085144042969 46.4455223083496165
  4.5152091979980469  0.0000180629995157 46.4442062377929759
  4.5127501487731934  9.0314178466796857 46.4442062377929759
 13.5456094741821289  0.0000180629995157 46.4442062377929759
 13.5431499481201172  9.0314178466796857 46.4442062377929759
 17.0549507141113281  5.2342586517333984 31.7407150268554688
 17.6087684631347656  3.9409475326538086 31.5721511840820312
 17.9441509246826172  6.2713365554809570 32.0320205688476562
  0.9277839660644528  3.7118668556213379 31.6282653808593786
  1.2696571350097667  6.0432596206665039 32.1035575866699219
  1.7837963104248020  4.7764663696289062 31.8935050964355504
 14.7019510269165039  8.7620878219604492 33.2543716430664134
 14.2435007095336914 10.9159088134765625 34.4023857116699219
 12.4853181838989240  9.2134695053100586 34.4141311645507812
 14.5379467010498047  8.8405399322509766 35.7182846069335938
 14.7582187652587891  7.2612991333007812 33.2030601501464915
 15.0004510879516602  6.8318300247192383 31.7327499389648438
 15.6776618957519531 11.3468208312988281 34.2351760864257884
 11.8452873229980469  9.4817132949829102 33.0654182434082031
 13.8959541320800781  9.3233833312988281 37.0195884704589915
 15.5755147933959943  5.4200596809387207 31.5834407806396520
  1.0799942016601598  4.1429176330566406 35.7059631347656250
  0.7133407592773467 12.7856540679931641 35.6647224426269531
  9.9501361846923810  3.7371697425842285 35.5495109558105540
  9.9636058807373047 13.1550817489624023 35.4345283508300781
  8.1215620040893555  5.1553115844726562 35.4745140075683594
  7.7641730308532715 13.8843183517456055 35.2955360412597656
 16.8745193481445312  4.6229481697082520 35.4589843750000000
 17.6865425109863281 14.8080492019653303 35.3683280944824219
  4.4021840095520020  8.1263942718505859 35.6121940612792969
  3.5029563168063755 18.0171045064926147 35.2174949645996094
 12.6556715229526162 17.5969489812850952 35.4399223327636790
  5.7470293045043945  0.4898686110973358 35.3174934387207031
  4.8925843238830558 10.3276891708374023 35.1177673339843750
 14.6231632232666016  0.7268997430801392 35.5713081359863352
  1.0495446920394897  3.4522736072540283 41.0233879089355540
  0.9645321369171143 12.8004169464111328 41.3352928161621094
  9.8093633651733381  3.6051337718963623 41.1353263854980469
  9.5348062515258789 12.9207658767700195 41.3847923278808594
  3.8351593017578125  8.0325832366943359 41.1809501647949290
  3.6440822342410679 17.2243207693100011 41.0346145629882812
 12.7668876647949219  8.2962121963500977 41.2683296203613352
 12.6404937962070107 17.3147488832473755 41.1535301208496094
  8.1801595687866211  5.2686152458190918 41.2563705444335938
  7.9987845420837402 14.6244440078735352 40.9991569519043040
 17.5118682384490967  5.0426349639892578 41.6453819274902344
 17.2716495990753209 14.3561716079711914 41.2838020324707031
  5.3688702583312988  0.6975938081741333 41.3141365051269602
  5.2055525779724121  9.9067029953002930 41.1667022705078196
 14.3709611892700195  0.8075836896896362 41.2115097045898509
 14.3467874526977539 10.0308866500854492 41.2892074584961009
  0.8273094892501831  3.6869695186614990 47.0359649658203125
  0.8248501420021057 12.7183685302734375 47.0359649658203125
  9.8577098846435547  3.6869695186614990 47.0359649658203125
  9.8552503585815412 12.7183685302734375 47.0359649658203125
  3.6843190193176270  8.2023353576660156 47.0346527099609375
  3.6818594932556152 17.2337341308593750 47.0346527099609375
 12.7147188186645508  8.2023353576660156 47.0346527099609375
 12.7122592926025391 17.2337341308593750 47.0346527099609375
  8.2006769180297852  5.3445744514465332 47.0360260009765696
  8.1982173919677734 14.3759746551513672 47.0360260009765696
 17.2310771942138672  5.3445744514465332 47.0360260009765696
 17.2286186218261719 14.3759746551513672 47.0360260009765696
  5.3436489105224600  0.8290914893150328 47.0346527099609375
  5.3411893844604483  9.8604917526245117 47.0346527099609375
 14.3740482330322266  0.8290914893150328 47.0346527099609375
 14.3715896606445312  9.8604917526245117 47.0346527099609375
 13.9911308288574219  9.4258909225463867 34.4352340698242259
  9.1265978077426553 17.7747086286544800 34.6175994873046875
  8.2234525680541992  8.6312227249145508 34.6407661437988281
 18.0323385614901781  0.1981581002473831 34.4737129211425781
  0.6527872085571289  8.8737392425537109 34.8366889953613281
  4.4158844947814941  4.4472832679748535 34.7381935119628906
  4.2451925277709961 13.9365329742431641 34.4565773010253906
 13.4442262649536133  4.0764656066894531 34.6548347473144531
 12.9134178161621094 14.2890100479125977 34.0788917541503906
  0.0263210209086537 17.9961013868451118 40.9097404479980469
  0.0300260037183762  9.1140842437744123 40.9932022094726634
  8.9653882980346680  0.0878681242465973 40.9168395996093750
  8.9815607070922852  9.0422706604003906 40.9310646057128977
  4.6084809303283683  4.3145928382873535 40.9761238098144531
  4.5098409652709961 13.5989313125610352 40.8814964294433665
 13.4114360809326172  4.5785474777221680 40.9746322631835938
 13.6418285369873047 13.6320333480834961 40.8461380004882884
  2.6319818496704102  1.9004209041595457 38.1219100952148438
  2.6775996685028076 10.9575519561767578 38.1053657531738281
 11.6838750839233398  1.9215798377990723 38.1404838562011719
 11.0171861648559570 11.5602025985717773 38.4072837829589915
  6.5433936119079590  7.0102558135986328 38.2908706665039062
  6.5155611038208008 16.0437870025634766 37.9952659606933665
 16.0773468017578125  6.5234494209289551 38.5041694641113281
 15.5745410919189453 16.0647754669189453 38.0263061523437500
  2.1238877773284912  6.5345568656921387 38.3199539184570312
  2.1192209720611572 15.7773437500000000 38.0299797058105469
 11.1409149169921875  6.6857724189758301 37.8896255493164062
 11.2002811431884748 15.6489496231079084 38.3221664428710938
  7.1616888046264648  2.5385277271270752 37.9980850219726562
  6.8968524932861319 11.5262355804443359 37.9382896423339844
 16.0126781463623047  2.4692251682281494 38.3298606872558594
 16.5178985595703125 11.9998855590820295 38.3815155029296946
  0.0000000000000000  0.0000000000000000 47.1735610961914062
 -0.0024593239650130  9.0313997268676740 47.1735610961914062
  9.0304002761840803  0.0000000000000000 47.1735610961914062
  9.0279407501220685  9.0313997268676740 47.1735610961914062
  4.5139794349670410  4.5156998634338379 47.1742515563964844
  4.5115203857421875 13.5470991134643537 47.1742515563964844
 13.5443792343139648  4.5156998634338379 47.1742515563964844
 13.5419197082519531 13.5470991134643537 47.1742515563964844
  2.4519233703613277  2.0629522800445557 44.0401268005371165
  2.4494640827178955 11.0943517684936523 44.0401268005371165
 11.4823226928710920  2.0629522800445557 44.0401268005371165
 11.4798641204833984 11.0943517684936523 44.0401268005371165
  6.5760178565979004  6.9684472084045410 44.0401268005371165
  6.5735583305358887 15.9998464584350586 44.0401268005371165
 15.6064186096191406  6.9684472084045410 44.0401268005371165
 15.6039590835571289 15.9998464584350586 44.0401268005371165
  2.0610768795013428  6.5788145065307617 44.0400009155273509
  2.0586175918579102 15.6102142333984375 44.0400009155273509
 11.0914773941040039  6.5788145065307617 44.0400009155273509
 11.0890178680419922 15.6102142333984375 44.0400009155273509
  6.9668641090393066  2.4525938034057613 44.0400657653808665
  6.9644045829772949 11.4839935302734375 44.0400657653808665
 15.9972639083862305  2.4525938034057613 44.0400657653808665
 15.9948053359985352 11.4839935302734375 44.0400657653808665
  2.4316265583038330  2.0832188129425049 50.0684852600097656
  2.4291670322418213 11.1146183013915998 50.0684852600097656
 11.4620265960693359  2.0832188129425049 50.0684852600097656
 11.4595670700073224 11.1146183013915998 50.0684852600097656
  6.5963144302368164  6.9481806755065918 50.0684852600097656
  6.5938549041748047 15.9795799255371076 50.0684852600097656
 15.6267137527465803  6.9481806755065918 50.0684852600097656
 15.6242542266845703 15.9795799255371076 50.0684852600097656
  2.0811281204223633  6.5990090370178223 50.0690460205078125
  2.0786688327789307 15.6304082870483398 50.0690460205078125
 11.1115283966064453  6.5990090370178223 50.0690460205078125
 11.1090688705444336 15.6304082870483398 50.0690460205078125
  6.9468131065368652  2.4323906898498531 50.0690460205078125
  6.9443535804748535 11.4637899398803711 50.0690460205078125
 15.9772129058837891  2.4323906898498531 50.0690460205078125
 15.9747543334960938 11.4637899398803711 50.0690460205078125
 17.9720228984951973  0.1152811497449875 37.7874031066894602
  0.1569102853536606  9.1101598739624023 37.8792915344238281
  9.0795177677646279 17.9711678028106689 37.7445716857910156
  8.9423131942749023  9.0401382446289062 37.6714057922363352
  4.5580286979675293  4.4991374015808105 37.8524284362792969
  4.3788332939147949 13.6842021942138672 37.7259407043457031
 13.5723323822021484  4.6212282180786133 37.8726692199707031
 13.5297727584838849 13.6444330215454102 37.8095092773437500
  0.0000090280000222  0.0000090310004452 44.0429992675781250
 -0.0024502959568053  9.0314083099365234 44.0429992675781250
  9.0304088592529297  0.0000090310004452 44.0429992675781250
  9.0279493331909180  9.0314083099365234 44.0429992675781250
  4.5139703750610352  4.5156903266906738 44.0427513122558594
  4.5115113258361816 13.5470905303955078 44.0427513122558594
 13.5443706512451172  4.5156903266906738 44.0427513122558594
 13.5419111251831037 13.5470905303955078 44.0427513122558594
  0.0000000000000000  0.0000000000000000 50.4472808837890696
 -0.0024593239650130  9.0313997268676740 50.4472808837890696
  9.0304002761840803  0.0000000000000000 50.4472808837890696
  9.0279407501220685  9.0313997268676740 50.4472808837890696
  4.5139703750610352  4.5156998634338379 50.4472808837890696
  4.5115113258361816 13.5470991134643537 50.4472808837890696
 13.5443706512451172  4.5156998634338379 50.4472808837890696
 13.5419111251831055 13.5470991134643537 50.4472808837890696
