 H  C  N  I Pb 
 1.0000000000000000
    18.0608005523681641    0.0000000000000000    0.0000000000000000
    -0.0049186488613486   18.0627994537353516    0.0000000000000000
     0.0000000000000000    0.0000000000000000   62.4874992370605469
 H   C   N   I   Pb 
 143  39  47  72  24
Cartesian
  8.0382423400878906  5.4950089454650879 36.2628440856933594
  7.9880704879760742 14.7511653900146484 36.2837867736816406
 17.4874973297119141  5.6106157302856445 36.1383781433105469
 17.5098094940185547 14.6144781112670898 36.3783149719238281
  5.6761178970336905  0.4541344642639160 36.3791007995605469
  5.4525198936462402  9.9511623382568359 36.3061027526855469
 14.0378808975219709  1.1158829927444458 36.4314270019531321
  1.2793617248535141  2.5350592136383057 35.1078681945800781
  1.1494083404541013 11.8206634521484375 34.7421150207519531
 10.6772708892822248  3.3967394828796387 34.7578315734863281
 10.1706752777099609 12.0542640686035156 34.9743041992187500
  6.1332292556762686  1.1812638044357300 34.8313446044921946
  5.5929698944091797 10.7568063735961914 34.7426948547363281
 14.9529590606689453  1.4983025789260864 34.9701423645019531
  0.6682682037353542  3.3688497543334961 36.5792312622070312
  0.8146095275878901 12.4436368942260742 36.3392524719238281
 10.2849597930908203  4.3182191848754883 36.2230110168457031
  9.3417892456054688 12.5539388656616193 36.3823127746582031
  3.9038493633270264  7.9429149627685547 36.3937835693359375
  3.5158695438876744 17.1658057570457458 36.3924636840820312
 12.4705538013949990 17.2012220025062561 36.3180389404296946
  7.0769290924072266  5.3181176185607910 34.8396873474121165
  8.0890617370605469 15.5864152908325178 34.7652854919433594
 17.3787117004394531  6.0801448822021484 34.4824447631835938
 17.0260677337646484 15.2195758819580078 34.8377380371093750
  3.0892097949981689  7.5081801414489746 34.8868713378906250
  2.6184598663821812 17.1093683838844299 34.8733749389648438
 12.4326500156894326 16.3166683912277222 34.7747611999511790
  8.6725788116455078  3.9560499191284180 33.7091102600097656
  9.4606523513793945 13.9803419113159180 33.7575378417968821
  0.4268550872802752  4.2005376815795898 33.6661262512207031
  0.0021286010742200 13.4649543762207031 33.6348762512207102
  4.0904421806335449  9.2441778182983398 33.7077407836914062
  4.2390089035034180  0.3701954483985901 33.7510452270507812
 13.9801182011142373 17.7373309135437012 33.7905006408691406
  8.2403469085693359  5.5582203865051270 42.2301445007324290
  7.9659032821655273 14.5761556625366211 42.1745910644531321
 17.1419331431388855  5.3172993659973145 42.3098068237304688
 17.0449289083480835 14.5303401947021467 42.2478065490722727
  5.3603849411010742  0.8944689035415649 42.2184677124023438
  5.4076018333435050 10.0913267135620117 42.1925239562988281
 14.5277433395385724  0.8677546381950378 42.1449813842773438
 14.5019884109497053 10.3342142105102539 42.1159744262695312
  1.4951987266540527  3.0951161384582520 40.5528030395507812
  1.5415430068969727 12.3173923492431641 40.8204002380371165
 10.3001346588134766  2.9298079013824463 40.6405105590820312
 10.3074922561645490 12.1045141220092773 40.7043571472167969
  3.2954843044281006  7.5186424255371094 40.5666809082031250
  3.0570878246799111 16.5934522151947021 40.5219535827636719
 12.3079175949096680  7.5512127876281738 40.9704322814941406
 11.9629177311435342 16.7546665668487549 40.5711021423339915
  1.0020116567611694  3.5341510772705078 42.1575279235839915
  0.7714171409606934 12.6815357208251953 42.3361091613769602
 10.0786094665527344  3.6831581592559814 42.1876564025878906
  9.8006429672241211 12.6415252685546857 42.3009643554687500
  3.7509093284606929  8.0266141891479492 42.1702270507812500
  3.4901363113895059 17.0767567157745397 42.1518287658691477
 12.6359872817993164  8.3849821090698242 42.4371452331542969
 12.4822630146518350 17.2415385842323303 42.1734657287597727
  7.4940586090087891  5.8077540397644043 40.6869010925292969
  7.5293393135070801 15.0266189575195312 40.5685005187988281
 16.5961923599243200  5.8359384536743164 40.7132301330566406
 16.7970675230026245 15.1810607910156232 40.6633071899414062
  5.8989944458007812  1.3906331062316895 40.6464424133300852
  5.8418102264404297 10.6423749923706055 40.5867538452148438
 15.0831756591796875  1.2519571781158447 40.5453376770019602
 15.0673799514770490 10.4867992401123047 40.4581375122070312
 18.0468671433627605  4.5042028427124023 39.5333786010742188
  0.3661822676658630 13.8844985961914062 39.6666831970214915
  8.6587677001953125  4.1869192123413086 39.5679321289062500
  8.9111814498901367 13.5722656250000000 39.5288085937500071
  4.5340022305026650 18.0398940686136484 39.4643974304199219
  4.5858974456787109  9.1395578384399414 39.4602050781250000
 13.5131220081821084 17.9597523286938667 39.4394912719726562
 13.7390298843383789  8.7455577850341797 39.6593971252441406
  8.1032123565673828  5.4420318603515616 48.0459518432617259
  8.1007528305053711 14.4734306335449219 48.0459518432617259
 17.1336116790771484  5.4420318603515616 48.0459518432617259
 17.1311531066894531 14.4734306335449219 48.0459518432617259
  5.4410333633422852  0.9265221953392029 48.0449485778808594
  5.4385743141174316  9.9579219818115234 48.0449485778808594
 14.4714326858520490  0.9265221953392029 48.0449485778808594
 14.4689741134643555  9.9579219818115234 48.0449485778808594
  1.4218254089355467  3.0919990539550781 46.4558296203613281
  1.4193661212921143 12.1233978271484375 46.4558296203613281
 10.4522256851196289  3.0919990539550781 46.4558296203613281
 10.4497661590576172 12.1233978271484375 46.4558296203613281
  3.0899283885955806  7.6075901985168457 46.4545211791992188
  3.0874691009521484 16.6389904022216797 46.4545211791992188
 12.1203289031982422  7.6075901985168457 46.4545211791992188
 12.1178693771362305 16.6389904022216797 46.4545211791992188
  0.9247469902038573  3.5893490314483643 48.0459518432617259
  0.9222877025604248 12.6207475662231445 48.0459518432617259
  9.9551477432250977  3.5893490314483643 48.0459518432617259
  9.9526882171630859 12.6207475662231445 48.0459518432617259
  3.5868983268737793  8.1048498153686523 48.0448913574218821
  3.5844390392303462 17.1362495422363281 48.0448913574218821
 12.6172990798950195  8.1048498153686523 48.0448913574218821
 12.6148395538330078 17.1362495422363281 48.0448913574218821
  7.6061611175537109  5.9393639564514160 46.4558296203613281
  7.6037015914916992 14.9707632064819336 46.4558296203613281
 16.6365604400634766  5.9393639564514160 46.4558296203613281
 16.6341018676757812 14.9707632064819336 46.4558296203613281
  5.9380125999450684  1.4238001108169553 46.4545211791992188
  5.9355530738830566 10.4551992416381836 46.4545211791992188
 14.9684123992919904  1.4238001108169553 46.4545211791992188
 14.9659538269042951 10.4551992416381836 46.4545211791992188
 -0.0011664569610730  4.5157265663146973 45.3548011779785156
 -0.0036257810425013 13.5471258163452148 45.3548011779785156
  9.0292339324951172  4.5157265663146973 45.3548011779785156
  9.0267744064331037 13.5471258163452148 45.3548011779785156
  4.5152091979980469  0.0000000000000000 45.3536758422851562
  4.5127501487731934  9.0313997268676740 45.3536758422851562
 13.5456094741821289  0.0000000000000000 45.3536758422851562
 13.5431499481201172  9.0313997268676740 45.3536758422851562
 14.1171617507934553 10.1765270233154297 32.9095993041992188
 13.1727581024169922  8.6343383789062500 33.0353889465332031
 15.7154932022094709  9.1391124725341797 34.2924690246582031
 15.3459892272949219  8.6998805999755859 35.9736099243164062
 13.3663196563720703 11.5766887664794922 35.4513740539550781
 14.4064655303955078 10.6945486068725586 36.5448074340820312
 11.7214736938476562  9.6968746185302734 35.7513351440429688
 12.1340875625610352  8.0865869522094727 35.0915641784668040
 11.1983270645141602  9.8626365661621094 33.7581138610839844
 12.0870399475097638 11.3914871215820312 33.9795188903808665
 11.2045240402221680 11.8797779083251953 31.8972568511962855
 12.6251955032348633 10.9653491973876953 31.3842163085937500
 14.9472484588623029  7.0809459686279288 33.4618721008300781
 13.7112855911254883  7.0244355201721191 34.6698608398437571
 15.3133821487426740  6.5423250198364258 35.0915565490722656
 15.4670915603637678 12.4944105148315430 34.9760780334472656
 15.3333568572998047 11.3491830825805664 33.7284584045410156
 16.2956905364990234 10.9239072799682617 35.1211051940917969
 13.8028573989868164  9.1297969818115234 37.4875450134277344
 13.3653793334960920  7.4632101058959961 37.0400962829589844
 12.1495380401611328  8.5188779830932617 37.7965660095214844
  9.7999544143676758  9.7851552963256818 31.8753376007080078
 10.4517164230346680 10.1656236648559570 30.2298336029052734
 13.0705919265747070  9.0165729522705078 29.8673324584960938
  9.9894161224365234  7.5858526229858398 32.5720596313476562
 14.1808004379272461  6.7670426368713379 29.9768466949462926
 11.1592960357665998  5.3800659179687500 32.7065353393554688
 13.2753200531005859  4.9460158348083496 31.4607791900634801
  0.2984161376953138  4.2869663238525391 34.7467727661132812
  0.0547542572021478 13.5185356140136719 34.6936416625976562
  8.8433284759521484  4.3611660003662109 34.6953964233398438
  9.1275396347045898 13.8391532897949219 34.7882423400878906
  4.3498730659484863  9.1493930816650391 34.7716979980468750
  4.3920907974243164  0.1323897391557693 34.8126640319824219
 13.6818231800571084 17.9211778640747070 34.8323669433593750
  0.0105435736477375  4.4687333106994629 40.5964431762695384
  0.1322878897190094 13.7748498916625977 40.6989669799804688
  8.8724508285522461  4.3772811889648438 40.6343688964843750
  8.9201021194458008 13.5689964294433594 40.5961837768554688
  4.5592236518859854  9.0528059005737305 40.5307350158691406
  4.4964112499728799 18.0427680853754282 40.5385246276855469
 13.6918230056762695  9.0203266143798828 40.7109184265136719
 13.5401252964511514 18.0512877115979791 40.5117950439453125
  9.0289716720581055  4.5156092643737793 46.4455223083496165
  9.0265130996704102 13.5470085144042969 46.4455223083496165
 18.0593719482421875  4.5156092643737793 46.4455223083496165
 18.0569133758544922 13.5470085144042969 46.4455223083496165
  4.5152091979980469  0.0000180629995157 46.4442062377929759
  4.5127501487731934  9.0314178466796857 46.4442062377929759
 13.5456094741821289  0.0000180629995157 46.4442062377929759
 13.5431499481201172  9.0314178466796857 46.4442062377929759
 11.4038782119750977  8.4378299713134766 31.2174015045166051
 12.5942039489746094  8.1755809783935547 30.4665546417236364
 10.8899745941162092  7.3788199424743652 31.9994335174560582
 13.2193841934204084  6.9648303985595703 30.5576400756835973
 11.5360689163208008  6.1676826477050781 32.0592117309570312
 12.7215108871459961  5.9350252151489258 31.3432235717773438
 13.2683620452880859  9.6591873168945312 33.4361953735351634
 14.9855117797851562  8.6534557342529297 34.9452819824218750
 14.1727609634399414 10.8654499053955078 35.4933853149414062
 12.5404739379882812  8.9304742813110352 35.6855278015136719
 12.0185623168945312 10.4526023864746094 33.3460769653320384
 11.6348295211791974 10.8663883209228516 31.9212589263916016
 14.7532796859741211  7.2673006057739258 34.5170898437500000
 15.3836784362792951 11.4221296310424805 34.8093452453613352
 12.9833097457885742  8.4794464111328125 37.0686302185058594
 10.7448644638061523  9.8198270797729492 31.2460250854492188
  0.7800025939941426  3.3621344566345215 35.5128746032714844
  0.7115535736083973 12.5394506454467773 35.2892189025878906
  9.9904088973999006  3.9817728996276855 35.2533760070800781
  9.5942649841308594 12.7691516876220703 35.4159164428710938
  7.9592103958129883  5.0880856513977051 35.2804412841796875
  8.3597183227539062 14.7537508010864258 35.2800292968750000
 17.6811943054199219  5.3500957489013672 35.1326751708984375
 17.5173110961914062 14.4966030120849609 35.3407325744628977
  3.7669963836669922  8.1330699920654297 35.4231643676757812
  3.4691464165225621 17.4353243112564087 35.4310646057128906
 12.8064092854037881 17.1372413635253906 35.3752174377441406
  5.4439678192138672  0.5966247320175170 35.4110145568847656
  5.1672692298889160  9.9764795303344727 35.3435859680175781
 14.2702674865722656  0.8665374517440796 35.4927520751953125
  0.9191702604293823  3.6216728687286377 41.1592903137207031
  0.8908166885375977 12.8384866714477521 41.3598709106445312
  9.8270063400268555  3.5961492061614990 41.2022895812988281
  9.6884765625000000 12.7605352401733398 41.2678337097167969
  3.8436954021453857  8.1585588455200195 41.1160240173339915
  3.6192971924319863 17.1783809661865234 41.1045989990234446
 12.8405618667602539  8.2962217330932617 41.4263114929199219
 12.5951160648837686 17.2985000610351562 41.1228485107421875
  8.1793346405029297  5.2776670455932617 41.2041282653808594
  8.1025085449218750 14.4340343475341797 41.1363945007324290
 17.2567896246910095  5.2164559364318839 41.2573814392089844
 17.2866426706314087 14.5291633605957031 41.2720527648925781
  5.2808437347412109  0.7819150686264038 41.1610565185546875
  5.3208479881286621  9.9966697692871094 41.1425933837890625
 14.4155797958374023  0.7276797890663147 41.0923004150390696
 14.4258499145507812  9.9800949096679688 41.1675300598144531
  0.8273094892501831  3.6869695186614990 47.0359649658203125
  0.8248501420021057 12.7183685302734375 47.0359649658203125
  9.8577098846435547  3.6869695186614990 47.0359649658203125
  9.8552503585815412 12.7183685302734375 47.0359649658203125
  3.6843190193176270  8.2023353576660156 47.0346527099609375
  3.6818594932556152 17.2337341308593750 47.0346527099609375
 12.7147188186645508  8.2023353576660156 47.0346527099609375
 12.7122592926025391 17.2337341308593750 47.0346527099609375
  8.2006769180297852  5.3445744514465332 47.0360260009765696
  8.1982173919677734 14.3759746551513672 47.0360260009765696
 17.2310771942138672  5.3445744514465332 47.0360260009765696
 17.2286186218261719 14.3759746551513672 47.0360260009765696
  5.3436489105224600  0.8290914893150328 47.0346527099609375
  5.3411893844604483  9.8604917526245117 47.0346527099609375
 14.3740482330322266  0.8290914893150328 47.0346527099609375
 14.3715896606445312  9.8604917526245117 47.0346527099609375
 13.7035713195800781  9.5646152496337891 34.9000434875488281
  8.9245576858520508  0.2627154588699341 34.4714660644531250
  8.5930147171020508  9.3772010803222656 34.8559532165527344
 18.0556050026207231 17.9978081211447716 34.5047416687011719
  0.4839370846748351  8.7093954086303711 34.3751907348632812
  4.5170226097106925  4.5243530273437500 34.4653434753417969
  4.4914684295654297 13.5511474609375000 34.4946289062500000
 13.6447877883911115  4.0317654609680176 34.7171020507812500
 13.1959877014160156 13.9943084716796875 34.2221260070800781
  0.0952300960198045 18.0468223411589861 40.8924674987792969
  0.1526814103126526  9.1452512741088867 40.8896560668945312
  9.0892381668090803  0.0333438441157341 40.8949775695800852
  9.0524797439575195  8.9030065536499023 40.9950561523437571
  4.4818305969238281  4.4955291748046875 40.9030342102050852
  4.4355573654174805 13.5605058670043945 40.8896369934082031
 13.4130010604858398  4.5289216041564941 40.9579658508300781
 13.6302108764648438 13.7036037445068359 40.8460083007812571
  2.5779080390930176  1.8777562379837036 38.0882568359375000
  2.5930261611938472 10.9159536361694336 37.9452362060546946
 11.6225662231445312  1.8126842975616455 37.9760894775390625
 11.2461442947387695 11.3506021499633789 38.3207473754882812
  6.3815870285034180  7.1255106925964355 38.0216331481933665
  6.3872799873352051 16.1118488311767578 38.0259208679199219
 15.9505624771118164  6.6738939285278320 38.3427696228027415
 15.4518117904663086 16.1932487487792969 37.9263725280761719
  1.9456139802932739  6.4646492004394531 37.9678077697753906
  1.9717381000518799 15.5162305831909162 38.0058746337890625
 10.5179672241210938  6.0434656143188477 38.0287780761718750
 10.9813232421874982 15.5492048263549805 38.0817108154296875
  7.0146760940551758  2.5044236183166504 37.9659461975097656
  6.9466013908386230 11.5018196105957013 38.1294898986816406
 16.1550712585449219  2.5044195652008057 38.0871505737304688
 16.5015277862548828 11.9225425720214844 38.3597755432128906
  0.0000000000000000  0.0000000000000000 47.1735610961914062
 -0.0024593239650130  9.0313997268676740 47.1735610961914062
  9.0304002761840803  0.0000000000000000 47.1735610961914062
  9.0279407501220685  9.0313997268676740 47.1735610961914062
  4.5139794349670410  4.5156998634338379 47.1742515563964844
  4.5115203857421875 13.5470991134643537 47.1742515563964844
 13.5443792343139648  4.5156998634338379 47.1742515563964844
 13.5419197082519531 13.5470991134643537 47.1742515563964844
  2.4519233703613277  2.0629522800445557 44.0401268005371165
  2.4494640827178955 11.0943517684936523 44.0401268005371165
 11.4823226928710920  2.0629522800445557 44.0401268005371165
 11.4798641204833984 11.0943517684936523 44.0401268005371165
  6.5760178565979004  6.9684472084045410 44.0401268005371165
  6.5735583305358887 15.9998464584350586 44.0401268005371165
 15.6064186096191406  6.9684472084045410 44.0401268005371165
 15.6039590835571289 15.9998464584350586 44.0401268005371165
  2.0610768795013428  6.5788145065307617 44.0400009155273509
  2.0586175918579102 15.6102142333984375 44.0400009155273509
 11.0914773941040039  6.5788145065307617 44.0400009155273509
 11.0890178680419922 15.6102142333984375 44.0400009155273509
  6.9668641090393066  2.4525938034057613 44.0400657653808665
  6.9644045829772949 11.4839935302734375 44.0400657653808665
 15.9972639083862305  2.4525938034057613 44.0400657653808665
 15.9948053359985352 11.4839935302734375 44.0400657653808665
  2.4316265583038330  2.0832188129425049 50.0684852600097656
  2.4291670322418213 11.1146183013915998 50.0684852600097656
 11.4620265960693359  2.0832188129425049 50.0684852600097656
 11.4595670700073224 11.1146183013915998 50.0684852600097656
  6.5963144302368164  6.9481806755065918 50.0684852600097656
  6.5938549041748047 15.9795799255371076 50.0684852600097656
 15.6267137527465803  6.9481806755065918 50.0684852600097656
 15.6242542266845703 15.9795799255371076 50.0684852600097656
  2.0811281204223633  6.5990090370178223 50.0690460205078125
  2.0786688327789307 15.6304082870483398 50.0690460205078125
 11.1115283966064453  6.5990090370178223 50.0690460205078125
 11.1090688705444336 15.6304082870483398 50.0690460205078125
  6.9468131065368652  2.4323906898498531 50.0690460205078125
  6.9443535804748535 11.4637899398803711 50.0690460205078125
 15.9772129058837891  2.4323906898498531 50.0690460205078125
 15.9747543334960938 11.4637899398803711 50.0690460205078125
  0.0245038624852896  0.0428839065134525 37.7153396606445312
  0.0781014710664749  9.0837516784667969 37.7132415771484375
  9.0373849868774414  0.0947781652212143 37.6170043945312500
  8.9272794723510742  8.9536819458007812 37.9200592041015625
  4.5202803611755371  4.4476141929626465 37.6153373718261719
  4.5064897537231445 13.5451774597167969 37.6167068481445384
 13.4690046310424805  4.4260859489440918 37.8444671630859375
 13.5111503601074201 13.7065019607543945 37.7658462524414134
  0.0000090280000222  0.0000090310004452 44.0429992675781250
 -0.0024502959568053  9.0314083099365234 44.0429992675781250
  9.0304088592529297  0.0000090310004452 44.0429992675781250
  9.0279493331909180  9.0314083099365234 44.0429992675781250
  4.5139703750610352  4.5156903266906738 44.0427513122558594
  4.5115113258361816 13.5470905303955078 44.0427513122558594
 13.5443706512451172  4.5156903266906738 44.0427513122558594
 13.5419111251831037 13.5470905303955078 44.0427513122558594
  0.0000000000000000  0.0000000000000000 50.4472808837890696
 -0.0024593239650130  9.0313997268676740 50.4472808837890696
  9.0304002761840803  0.0000000000000000 50.4472808837890696
  9.0279407501220685  9.0313997268676740 50.4472808837890696
  4.5139703750610352  4.5156998634338379 50.4472808837890696
  4.5115113258361816 13.5470991134643537 50.4472808837890696
 13.5443706512451172  4.5156998634338379 50.4472808837890696
 13.5419111251831055 13.5470991134643537 50.4472808837890696
