 H  C  N  I Pb 
 1.0000000000000000
    18.0608005523681641    0.0000000000000000    0.0000000000000000
    -0.0049186488613486   18.0627994537353516    0.0000000000000000
     0.0000000000000000    0.0000000000000000   62.4874992370605469
 H   C   N   I   Pb 
 143  39  47  72  24
Cartesian
  7.7222471237182617  4.7273640632629395 36.3783607482910227
  7.5471472740173340 13.5005302429199219 36.1672134399414062
 16.9105262756347656  5.2493710517883301 36.3829421997070312
 17.1065731048583984 14.5886888504028320 36.2630767822265625
  5.6067309379577628  1.0366324186325073 36.2660789489746165
  5.4747157096862793 10.4050502777099592 35.9847831726074219
 14.1499881744384766  1.3255375623703003 36.3656387329101562
  1.8406753540039067  3.4885730743408203 35.2243499755859375
  1.5393981933593757 12.2268724441528320 35.1874313354492259
 10.8137245178222638  3.4944953918457031 35.1765403747558665
 10.9947175979614258 13.3657283782958984 35.1749725341796946
  6.6574854850769043  0.3962056040763855 35.0417289733886719
  5.0069546699523926 11.0097122192382812 34.4521484375000000
 15.3509788513183594  1.1212099790573120 35.1503677368164062
  1.2775421142578109  4.3805408477783203 36.5717010498046875
  0.2758293151855458 12.4851045608520490 36.3778610229492188
  9.6983337402343750  3.2704265117645259 36.4357299804687500
  9.9140739440917969 12.6627292633056641 36.3356018066406250
  4.6962966918945312  8.0292224884033203 36.4968070983886719
  3.1957921981811523  0.2579616308212280 36.1551475524902415
 12.2505897739902121 17.7224901020526886 36.3167610168457031
  7.5458164215087891  5.8290715217590332 35.0450096130371094
  7.1740603446960440 14.5955247879028303 34.8829269409179759
 16.1051712036132812  4.7546911239624023 34.9304504394531250
 17.5279388427734375 15.6873950958251953 34.9643974304199219
  3.7664244174957275  7.2649850845336914 35.2691307067871165
  2.8070704201236367 17.2610104680061340 34.8421745300292969
 12.3682550648227316 16.4916762113571167 35.0775947570800781
  9.4952392578125000  5.1110310554504395 34.0981826782226562
  9.3709497451782227 14.5720596313476562 34.0855178833007812
 17.9231243133544922  3.6759297847747803 34.0644569396972656
  1.1119022369384757 14.2535295486450178 34.1355667114257812
  3.8630945682525635  9.0730619430541974 33.8369903564453125
  4.9504470089450479 17.2434746623039246 34.0032844543457031
 14.3226646641269308 17.3468117713928223 34.2011871337890625
  7.8853254318237305  5.1958093643188468 42.1758613586425781
  7.8042464256286621 14.8323316574096680 41.9674186706542969
 17.4967002868652344  4.9952821731567383 42.5894241333007884
 16.8994736671447754 14.3300514221191406 42.2280273437500000
  5.4083294868469238  0.8647948503494263 42.2978096008300781
  5.3858680725097656  9.9704866409301758 42.2364959716796875
 14.4689331054687500  1.0071902275085449 42.1715240478515625
 14.5812129974365234  9.9988040924072248 42.2264823913574219
  1.5106673240661621  3.0577921867370605 40.2747726440429688
  1.6852030754089353 12.3987970352172852 40.8489646911621094
 10.4654436111450195  3.1393346786499023 40.5869636535644602
 10.1301364898681641 12.1501321792602539 41.0948486328125071
  3.2952673435211182  7.4386129379272452 40.6068649291992188
  3.1125060776248574 16.6657626628875768 40.4438018798828125
 12.1052675247192383  7.6638770103454590 40.8630104064941406
 12.0346559742465615 16.7798777818679810 40.6639633178711009
  1.2731196880340576  3.2680275440216064 41.9909439086914134
  0.6989914178848267 12.4877767562866211 42.2695884704589844
  9.6657037734985352  3.3268930912017822 42.1175384521484375
  9.4522962570190430 12.9571113586425763 42.4825706481933594
  3.8098413944244385  7.9254765510559082 42.1904525756835938
  3.4469939926639199 17.1499546766281128 42.0717239379882812
 12.8203954696655273  8.0788240432739258 42.3816032409667969
 12.4893326023593545 17.4148172140121460 42.2167625427246094
  7.6392889022827148  6.0500826835632324 40.6726226806640696
  7.5663857460021973 15.1607561111450195 40.2752990722656250
 16.7318284511566162  5.7576613426208496 41.1987724304199219
 16.8701958656311071 15.2440900802612305 40.7585525512695312
  6.1124892234802246  1.3202799558639526 40.7925453186035227
  5.7591371536254874 10.6598415374755859 40.6900901794433594
 15.1603517532348633  1.3163532018661499 40.6000213623046946
 14.7466907501220685 10.6687602996826172 40.6552734375000071
 17.9427808523178101  4.6271405220031738 39.7088508605957031
  0.5849301815032959 14.1691808700561523 39.7941093444824290
  9.2804374694824219  4.8509001731872559 39.5638542175292969
  9.0083189010620117 13.5202217102050781 39.5903663635253906
  4.7568077305331826 18.0303462706506252 39.5151863098144531
  4.4887156486511230  9.1600141525268555 39.5380783081054688
 13.7156395176425576 17.9696256220340729 39.5326080322265696
 13.2235431671142578  9.2392177581787109 39.6810417175292969
  8.1032123565673828  5.4420318603515616 48.0459518432617259
  8.1007528305053711 14.4734306335449219 48.0459518432617259
 17.1336116790771484  5.4420318603515616 48.0459518432617259
 17.1311531066894531 14.4734306335449219 48.0459518432617259
  5.4410333633422852  0.9265221953392029 48.0449485778808594
  5.4385743141174316  9.9579219818115234 48.0449485778808594
 14.4714326858520490  0.9265221953392029 48.0449485778808594
 14.4689741134643555  9.9579219818115234 48.0449485778808594
  1.4218254089355467  3.0919990539550781 46.4558296203613281
  1.4193661212921143 12.1233978271484375 46.4558296203613281
 10.4522256851196289  3.0919990539550781 46.4558296203613281
 10.4497661590576172 12.1233978271484375 46.4558296203613281
  3.0899283885955806  7.6075901985168457 46.4545211791992188
  3.0874691009521484 16.6389904022216797 46.4545211791992188
 12.1203289031982422  7.6075901985168457 46.4545211791992188
 12.1178693771362305 16.6389904022216797 46.4545211791992188
  0.9247469902038573  3.5893490314483643 48.0459518432617259
  0.9222877025604248 12.6207475662231445 48.0459518432617259
  9.9551477432250977  3.5893490314483643 48.0459518432617259
  9.9526882171630859 12.6207475662231445 48.0459518432617259
  3.5868983268737793  8.1048498153686523 48.0448913574218821
  3.5844390392303462 17.1362495422363281 48.0448913574218821
 12.6172990798950195  8.1048498153686523 48.0448913574218821
 12.6148395538330078 17.1362495422363281 48.0448913574218821
  7.6061611175537109  5.9393639564514160 46.4558296203613281
  7.6037015914916992 14.9707632064819336 46.4558296203613281
 16.6365604400634766  5.9393639564514160 46.4558296203613281
 16.6341018676757812 14.9707632064819336 46.4558296203613281
  5.9380125999450684  1.4238001108169553 46.4545211791992188
  5.9355530738830566 10.4551992416381836 46.4545211791992188
 14.9684123992919904  1.4238001108169553 46.4545211791992188
 14.9659538269042951 10.4551992416381836 46.4545211791992188
 -0.0011664569610730  4.5157265663146973 45.3548011779785156
 -0.0036257810425013 13.5471258163452148 45.3548011779785156
  9.0292339324951172  4.5157265663146973 45.3548011779785156
  9.0267744064331037 13.5471258163452148 45.3548011779785156
  4.5152091979980469  0.0000000000000000 45.3536758422851562
  4.5127501487731934  9.0313997268676740 45.3536758422851562
 13.5456094741821289  0.0000000000000000 45.3536758422851562
 13.5431499481201172  9.0313997268676740 45.3536758422851562
 14.1490402221679688  9.1831407546997070 32.4685478210449219
 15.7073879241943359  9.1744346618652344 33.2820930480957031
 13.6420278549194336 11.3644332885742188 33.7180175781250071
 13.8596134185791016 11.3676395416259766 35.4485626220703125
 12.2585973739624023  8.2497882843017578 34.9299697875976562
 12.1495914459228498  9.9611864089965820 35.2898826599121094
 14.4911060333251935  7.7517495155334473 35.7295341491699290
 15.7244634628295881  9.0489912033081055 35.7716674804687500
 15.5558881759643555  6.9145197868347168 33.9182357788086009
 13.7902374267578125  6.8409280776977539 33.6958808898925781
 13.9776000976562500  6.9314069747924805 31.2633666992187536
 15.5768251419067383  7.5975289344787598 31.3271732330322266
 16.0992488861083984 11.1076250076293928 33.3294639587402344
 16.4221343994140625 11.0307826995849609 35.0663642883300781
 15.6837072372436506 12.4974451065063477 34.3283538818359446
 10.7537050247192365  9.4746122360229492 33.4424781799316477
 12.0080032348632812  8.7180395126342773 32.4875373840332102
 12.1031074523925763 10.4856662750244141 32.7943878173828125
 13.1454019546508789  8.6872739791870117 37.3481712341308594
 13.5525083541870117 10.3501892089843750 37.0695343017578125
 14.7335901260375977  9.3093872070312500 37.8625144958496094
 15.0785350799560547  4.8064284324645996 32.3843231201171875
 15.2335720062255859  5.0415096282958984 30.6581001281738281
 16.9600811004638672  3.1930410861968990 31.4437751770019531
 17.6100940704345703  7.4273581504821777 32.1220550537109375
  1.3220424652099600  2.7914769649505615 31.4606380462646520
  1.9290657043457011  7.0127348899841309 32.2159423828125000
  2.8802585601806641  4.7362036705017090 31.9217548370361364
 17.9890441894531250  4.0988621711730957 35.0399742126464844
  0.5132598876953121 13.9582824707031250 35.0292015075683594
  9.1734876632690430  4.6322827339172363 35.0234718322753906
  9.1072473526000977 13.9507980346679670 34.9429550170898438
  4.3513450622558594  9.1221475601196289 34.7971649169921875
  4.7401556232944131 17.8244214057922363 34.8873786926269531
 13.8689913013949990 17.8258237540721893 35.0534133911132812
  0.0997726842761040  4.4050316810607910 40.7529296875000071
  0.2546024024486542 13.8063993453979474 40.7924728393554688
  9.0561819076538086  4.5864953994750977 40.6252746582031250
  8.8682899475097656 13.6488666534423828 40.6719169616699219
  4.5156579017639160  9.0323057174682617 40.6310653686523438
  4.6048120716586709 18.0233869440853596 40.6197357177734375
 13.4299650192260724  9.1761512756347656 40.7396659851074290
 13.5900506973266602  0.0019620470702648 40.6247138977050781
  9.0289716720581055  4.5156092643737793 46.4455223083496165
  9.0265130996704102 13.5470085144042969 46.4455223083496165
 18.0593719482421875  4.5156092643737793 46.4455223083496165
 18.0569133758544922 13.5470085144042969 46.4455223083496165
  4.5152091979980469  0.0000180629995157 46.4442062377929759
  4.5127501487731934  9.0314178466796857 46.4442062377929759
 13.5456094741821289  0.0000180629995157 46.4442062377929759
 13.5431499481201172  9.0314178466796857 46.4442062377929759
 17.0784015655517578  5.3093824386596680 31.7410221099853551
 17.6259021759033203  4.0508170127868652 31.5827770233154332
 17.9661502838134766  6.3985710144042969 31.9836406707763707
  0.9388732910156258  3.8078687191009521 31.6295757293701172
  1.2667465209960940  6.1724867820739746 32.0042572021484375
  1.8101406097412114  4.8837637901306143 31.8344669342041051
 14.6809101104736328  8.8321027755737305 33.3421554565429688
 14.2631931304931641 10.9492197036743146 34.5164222717285156
 12.5121660232543945  9.2403936386108398 34.5517654418945312
 14.6404047012329084  8.8327922821044922 35.8143920898437500
 14.7126340866088867  7.2735824584960938 33.2836647033691406
 14.9399919509887695  6.8930716514587393 31.8113880157470739
 15.7098045349121094 11.3940143585205078 34.3088989257812571
 11.8360233306884766  9.5078220367431641 33.2226638793945312
 13.9804687500000000  9.3435745239257812 37.0794372558593750
 15.5456724166870117  5.4657397270202637 31.6293888092041051
  1.0621509552001938  3.9716160297393799 35.6794509887695312
  0.7921009063720684 12.7934589385986328 35.5616989135742259
  9.9153366088867188  3.7032208442687988 35.5450630187988352
 10.0330057144165021 13.2025642395019531 35.4753189086914062
  8.0514640808105469  5.0942826271057129 35.5329170227050781
  7.8463840484619141 14.0185804367065412 35.3738594055175852
 16.9569721221923828  4.7511320114135733 35.4934005737304688
 17.6314411163330078 14.7796497344970703 35.4235954284667969
  4.2371678352355957  8.0900745391845703 35.5608291625976634
  3.5023895958438516 17.7790745496749878 35.3122558593750000
 12.7265323856845498 17.3389798402786255 35.4767875671386719
  5.7212004661560050  0.4582671821117401 35.4072990417480469
  4.9702510833740234 10.2596368789672834 35.0909576416015625
 14.5110588073730451  0.7860125899314879 35.5555076599121094
  0.9940978288650513  3.5354650020599365 41.0345611572265696
  0.8945120573043823 12.8544187545776367 41.3500328063964915
  9.7562532424926758  3.6514263153076172 41.1462249755859446
  9.5238504409790039 12.8710956573486328 41.4828376770019602
  3.8457236289978027  8.0895872116088867 41.2051658630371165
  3.6734043816104531 17.2432631254196167 41.1019210815429759
 12.7261018753051758  8.2393274307250977 41.3644714355468750
 12.6642851093783975 17.3891117572784424 41.2328643798828125
  8.1217823028564453  5.3241925239562988 41.2247085571289134
  8.0217809677124023 14.6148977279663068 41.0200004577636790
 17.4018441438674927  5.1083197593688965 41.5970573425292969
 17.3053374290466309 14.4839897155761719 41.2843475341796946
  5.3996291160583496  0.7400945425033569 41.3000106811523438
  5.2732510566711426  9.9495792388916016 41.2518539428711009
 14.4681854248046875  0.8279091119766235 41.2002487182617188
 14.2918014526367188  9.9896268844604492 41.2531852722168040
  0.8273094892501831  3.6869695186614990 47.0359649658203125
  0.8248501420021057 12.7183685302734375 47.0359649658203125
  9.8577098846435547  3.6869695186614990 47.0359649658203125
  9.8552503585815412 12.7183685302734375 47.0359649658203125
  3.6843190193176270  8.2023353576660156 47.0346527099609375
  3.6818594932556152 17.2337341308593750 47.0346527099609375
 12.7147188186645508  8.2023353576660156 47.0346527099609375
 12.7122592926025391 17.2337341308593750 47.0346527099609375
  8.2006769180297852  5.3445744514465332 47.0360260009765696
  8.1982173919677734 14.3759746551513672 47.0360260009765696
 17.2310771942138672  5.3445744514465332 47.0360260009765696
 17.2286186218261719 14.3759746551513672 47.0360260009765696
  5.3436489105224600  0.8290914893150328 47.0346527099609375
  5.3411893844604483  9.8604917526245117 47.0346527099609375
 14.3740482330322266  0.8290914893150328 47.0346527099609375
 14.3715896606445312  9.8604917526245117 47.0346527099609375
 14.0232543945312500  9.4224119186401367 34.5481567382812500
  9.1173433521762473 17.9724330306053162 34.5418395996093750
  8.2937450408935547  8.6219701766967773 34.6912803649902344
 17.8961133807897568  0.1902181953191757 34.4451484680175781
  0.5986211299896240  8.8657064437866211 34.8984680175781321
  4.4733080863952637  4.4459705352783203 34.6732597351074219
  4.3802833557128906 13.8627367019653303 34.4716911315917969
 13.3903560638427734  4.1012444496154785 34.6731033325195384
 12.9342288970947266 14.2078742980957031 34.0426559448242188
  0.0516327926889062 18.0031199082732201 40.8531532287597656
 18.0329266991466284  9.1438217163085938 41.0436363220214844
  8.9454273441806436 18.0549645796418226 40.9518585205078125
  8.9248695373535156  8.9759368896484375 40.9367599487304688
  4.5923585891723633  4.3666181564331055 40.9762725830078125
  4.5969014167785645 13.5779533386230469 40.8668022155761719
 13.4471378326416016  4.4541945457458496 40.9358901977539062
 13.6737661361694336 13.6794824600219709 40.8550338745117188
  2.7180657386779785  1.8852150440216064 38.0617218017578125
  2.7496881484985347 10.9761772155761719 38.0288887023925781
 11.6433773040771484  1.9360609054565430 38.1167411804199290
 11.0299434661865234 11.5565700531005859 38.4368286132812500
  6.5511665344238281  7.0203719139099121 38.2892112731933665
  6.5387096405029297 16.1179103851318359 38.0332450866699219
 16.0470218658447266  6.5622572898864746 38.4882316589355469
 15.5393381118774414 16.1360721588134766 37.9717636108398509
  2.1039559841156006  6.4610857963562012 38.1706542968750000
  2.0234966278076172 15.6926355361938477 37.9779014587402415
 11.1441144943237305  6.6572532653808594 37.9408340454101634
 11.1167173385620117 15.6490392684936523 38.2026252746582031
  7.1904006004333496  2.5772774219512939 38.0767097473144531
  6.9640779495239258 11.5925025939941406 37.9417953491210938
 15.9949302673339844  2.4657039642333984 38.3062744140625071
 16.5158863067626953 12.0143804550170898 38.3976211547851562
  0.0000000000000000  0.0000000000000000 47.1735610961914062
 -0.0024593239650130  9.0313997268676740 47.1735610961914062
  9.0304002761840803  0.0000000000000000 47.1735610961914062
  9.0279407501220685  9.0313997268676740 47.1735610961914062
  4.5139794349670410  4.5156998634338379 47.1742515563964844
  4.5115203857421875 13.5470991134643537 47.1742515563964844
 13.5443792343139648  4.5156998634338379 47.1742515563964844
 13.5419197082519531 13.5470991134643537 47.1742515563964844
  2.4519233703613277  2.0629522800445557 44.0401268005371165
  2.4494640827178955 11.0943517684936523 44.0401268005371165
 11.4823226928710920  2.0629522800445557 44.0401268005371165
 11.4798641204833984 11.0943517684936523 44.0401268005371165
  6.5760178565979004  6.9684472084045410 44.0401268005371165
  6.5735583305358887 15.9998464584350586 44.0401268005371165
 15.6064186096191406  6.9684472084045410 44.0401268005371165
 15.6039590835571289 15.9998464584350586 44.0401268005371165
  2.0610768795013428  6.5788145065307617 44.0400009155273509
  2.0586175918579102 15.6102142333984375 44.0400009155273509
 11.0914773941040039  6.5788145065307617 44.0400009155273509
 11.0890178680419922 15.6102142333984375 44.0400009155273509
  6.9668641090393066  2.4525938034057613 44.0400657653808665
  6.9644045829772949 11.4839935302734375 44.0400657653808665
 15.9972639083862305  2.4525938034057613 44.0400657653808665
 15.9948053359985352 11.4839935302734375 44.0400657653808665
  2.4316265583038330  2.0832188129425049 50.0684852600097656
  2.4291670322418213 11.1146183013915998 50.0684852600097656
 11.4620265960693359  2.0832188129425049 50.0684852600097656
 11.4595670700073224 11.1146183013915998 50.0684852600097656
  6.5963144302368164  6.9481806755065918 50.0684852600097656
  6.5938549041748047 15.9795799255371076 50.0684852600097656
 15.6267137527465803  6.9481806755065918 50.0684852600097656
 15.6242542266845703 15.9795799255371076 50.0684852600097656
  2.0811281204223633  6.5990090370178223 50.0690460205078125
  2.0786688327789307 15.6304082870483398 50.0690460205078125
 11.1115283966064453  6.5990090370178223 50.0690460205078125
 11.1090688705444336 15.6304082870483398 50.0690460205078125
  6.9468131065368652  2.4323906898498531 50.0690460205078125
  6.9443535804748535 11.4637899398803711 50.0690460205078125
 15.9772129058837891  2.4323906898498531 50.0690460205078125
 15.9747543334960938 11.4637899398803711 50.0690460205078125
 17.9930169731378591  0.0737547576427460 37.6965103149414134
  0.1625945419073105  9.1313543319702148 37.9424133300781250
  9.0290912846103311 17.9839309826493263 37.6551246643066406
  8.9447546005249023  9.0355224609375000 37.7086181640625071
  4.5459685325622559  4.5068860054016113 37.8014335632324219
  4.4203500747680664 13.6452274322509766 37.6748237609863352
 13.5752086639404297  4.5336947441101065 37.8030586242675852
 13.5544843673706037 13.6320915222167969 37.7788925170898438
  0.0000090280000222  0.0000090310004452 44.0429992675781250
 -0.0024502959568053  9.0314083099365234 44.0429992675781250
  9.0304088592529297  0.0000090310004452 44.0429992675781250
  9.0279493331909180  9.0314083099365234 44.0429992675781250
  4.5139703750610352  4.5156903266906738 44.0427513122558594
  4.5115113258361816 13.5470905303955078 44.0427513122558594
 13.5443706512451172  4.5156903266906738 44.0427513122558594
 13.5419111251831037 13.5470905303955078 44.0427513122558594
  0.0000000000000000  0.0000000000000000 50.4472808837890696
 -0.0024593239650130  9.0313997268676740 50.4472808837890696
  9.0304002761840803  0.0000000000000000 50.4472808837890696
  9.0279407501220685  9.0313997268676740 50.4472808837890696
  4.5139703750610352  4.5156998634338379 50.4472808837890696
  4.5115113258361816 13.5470991134643537 50.4472808837890696
 13.5443706512451172  4.5156998634338379 50.4472808837890696
 13.5419111251831055 13.5470991134643537 50.4472808837890696
