 H  C  N  I Pb 
 1.0000000000000000
    18.0608005523681641    0.0000000000000000    0.0000000000000000
    -0.0049186488613486   18.0627994537353516    0.0000000000000000
     0.0000000000000000    0.0000000000000000   62.4874992370605469
 H   C   N   I   Pb 
 143  39  47  72  24
Cartesian
  7.7870616912841797  4.8329381942749023 36.4610366821289062
  7.6279144287109375 13.7509202957153320 36.2717933654785227
 16.9411945343017578  5.3100204467773438 36.4387016296386719
 17.1479644775390625 14.5550565719604474 36.3270111083984375
  5.5315108299255371  0.9402579069137573 36.3614921569824219
  5.4859123229980469 10.2870187759399414 36.0560874938964844
 14.0523185729980469  1.2262108325958252 36.3917541503906250
  1.7297630310058589  3.3317632675170898 35.1412353515625000
  1.5668106079101560 12.2604627609252912 35.0277328491211009
 10.7849817276000977  3.3935654163360596 35.0928802490234375
 11.0514163970947248 13.2172803878784180 35.0791664123535156
  6.5915770530700684  0.5671397447586060 34.9987754821777344
  5.2577619552612296 10.8993425369262695 34.4407653808593750
 15.1564512252807599  1.2923190593719482 35.0400276184082102
  1.2660331726074237  4.1407494544982910 36.5789909362792969
  0.4637889862060554 12.4826612472534180 36.3582038879394531
  9.7525377273559570  3.3305985927581787 36.4819755554199219
 10.0168800354003906 12.7566776275634766 36.3573913574218750
  4.4888544082641602  8.0247907638549805 36.5190124511718750
  3.2503103474155068 18.0474712587893009 36.2959861755371094
 12.3802885273471475 17.4668688774108887 36.3672332763671946
  7.5149741172790527  5.7597513198852539 35.0172004699707031
  7.2632269859313965 14.7232875823974592 34.8906250000000000
 16.1758155822753906  5.0123257637023917 34.9223213195800852
 17.3462657928466797 15.6000461578369141 34.9374351501464915
  3.6561141014099121  7.2508625984191895 35.1942787170410156
  2.8312658527866001 17.1016440391540527 34.8771820068359446
 12.4545320728793723 16.3339563608169556 34.9969177246093750
  9.4010868072509748  4.9021158218383789 33.9869041442871094
  9.3735275268554688 14.4547014236450195 33.9664573669433594
 17.8631572723388672  3.7670533657073975 33.9899444580078125
  0.9225826263427743 14.2544965744018555 33.9866256713867259
  4.0839691162109375  9.0227794647216797 33.7305488586425781
  4.9393328884616494 17.3979561924934387 33.9197235107421946
 14.2085394123569131 17.4711031913757324 34.0218009948730469
  7.9141263961791983  5.2444877624511719 42.1683464050292969
  7.8640632629394531 14.8046445846557617 41.9686203002929688
 17.3320175409317052  5.1301393508911133 42.4635314941406321
 16.9660394191741979 14.4406528472900391 42.2631912231445384
  5.4323258399963379  0.9038202166557312 42.2333488464355469
  5.3910894393920898 10.0217285156250000 42.2627830505371094
 14.5317859649658203  0.9494485259056091 42.2162818908691406
 14.6057291030883789 10.0119695663452148 42.1723899841308665
  1.5254967212677000  3.0925240516662598 40.3770713806152344
  1.6143492460250854 12.4004650115966797 40.8157157897949290
 10.4485454559326172  3.1394767761230469 40.5032958984375000
 10.1735696792602521 12.0576629638671875 41.1386871337890696
  3.2630314826965332  7.4861540794372559 40.6674118041992259
  3.0883831242099404 16.6893976926803589 40.5531768798828125
 12.0231046676635724  7.5937829017639160 40.9641456604003977
 12.0210651615634561 16.8230009078979492 40.6576766967773438
  1.2081139087677002  3.3647208213806152 42.0514450073242188
  0.7950604557991027 12.5597782135009748 42.3128242492675852
  9.7392091751098633  3.3459949493408203 42.0693817138671875
  9.5374011993408185 12.8564062118530273 42.5386428833007812
  3.7119443416595459  8.0238227844238281 42.2593383789062500
  3.5131191471591592 17.1994766592979431 42.1599311828613352
 12.7527027130126935  8.1022768020629883 42.4682807922363352
 12.5152239063754678 17.3524810075759888 42.2403526306152415
  7.6257882118225098  6.0230855941772452 40.6535072326660156
  7.6645078659057617 15.1039743423461914 40.2704467773437571
 16.6591045856475866  5.7792639732360840 40.9915580749511790
 16.8164955377578735 15.2357139587402344 40.7601165771484446
  6.0375452041625977  1.3560709953308105 40.6652679443359375
  5.8460636138916016 10.5784864425659180 40.6865692138671875
 15.1394462585449219  1.3275539875030518 40.6320724487304759
 14.7479934692382795 10.5495014190673828 40.5570411682128906
 17.9484043121337926  4.6169719696044922 39.6079216003417969
  0.4595170319080353 14.0881280899047852 39.7429733276367188
  9.1828947067260742  4.8371429443359375 39.4919242858886719
  9.1085481643676758 13.4099397659301758 39.6200561523437571
  4.6461772182956338 18.0248102843761444 39.4978637695312500
  4.5442261695861816  9.0631055831909180 39.5547370910644531
 13.6492122868075967 18.0329389944672585 39.5275344848632812
 13.2023429870605469  9.1023550033569336 39.6845397949218750
  8.1032123565673828  5.4420318603515616 48.0459518432617259
  8.1007528305053711 14.4734306335449219 48.0459518432617259
 17.1336116790771484  5.4420318603515616 48.0459518432617259
 17.1311531066894531 14.4734306335449219 48.0459518432617259
  5.4410333633422852  0.9265221953392029 48.0449485778808594
  5.4385743141174316  9.9579219818115234 48.0449485778808594
 14.4714326858520490  0.9265221953392029 48.0449485778808594
 14.4689741134643555  9.9579219818115234 48.0449485778808594
  1.4218254089355467  3.0919990539550781 46.4558296203613281
  1.4193661212921143 12.1233978271484375 46.4558296203613281
 10.4522256851196289  3.0919990539550781 46.4558296203613281
 10.4497661590576172 12.1233978271484375 46.4558296203613281
  3.0899283885955806  7.6075901985168457 46.4545211791992188
  3.0874691009521484 16.6389904022216797 46.4545211791992188
 12.1203289031982422  7.6075901985168457 46.4545211791992188
 12.1178693771362305 16.6389904022216797 46.4545211791992188
  0.9247469902038573  3.5893490314483643 48.0459518432617259
  0.9222877025604248 12.6207475662231445 48.0459518432617259
  9.9551477432250977  3.5893490314483643 48.0459518432617259
  9.9526882171630859 12.6207475662231445 48.0459518432617259
  3.5868983268737793  8.1048498153686523 48.0448913574218821
  3.5844390392303462 17.1362495422363281 48.0448913574218821
 12.6172990798950195  8.1048498153686523 48.0448913574218821
 12.6148395538330078 17.1362495422363281 48.0448913574218821
  7.6061611175537109  5.9393639564514160 46.4558296203613281
  7.6037015914916992 14.9707632064819336 46.4558296203613281
 16.6365604400634766  5.9393639564514160 46.4558296203613281
 16.6341018676757812 14.9707632064819336 46.4558296203613281
  5.9380125999450684  1.4238001108169553 46.4545211791992188
  5.9355530738830566 10.4551992416381836 46.4545211791992188
 14.9684123992919904  1.4238001108169553 46.4545211791992188
 14.9659538269042951 10.4551992416381836 46.4545211791992188
 -0.0011664569610730  4.5157265663146973 45.3548011779785156
 -0.0036257810425013 13.5471258163452148 45.3548011779785156
  9.0292339324951172  4.5157265663146973 45.3548011779785156
  9.0267744064331037 13.5471258163452148 45.3548011779785156
  4.5152091979980469  0.0000000000000000 45.3536758422851562
  4.5127501487731934  9.0313997268676740 45.3536758422851562
 13.5456094741821289  0.0000000000000000 45.3536758422851562
 13.5431499481201172  9.0313997268676740 45.3536758422851562
 14.0694017410278303  9.2189655303955078 32.5571670532226562
 15.6759586334228516  9.2394266128540039 33.3765869140625000
 13.7553901672363263 11.3826284408569336 33.7639389038085938
 13.8682918548583967 11.3949813842773438 35.4917869567871094
 12.2595472335815430  8.3261089324951172 35.0088462829589844
 12.2016515731811506 10.0163726806640625 35.4240951538086009
 14.5666284561157227  7.7831773757934570 35.8162689208984375
 15.7678718566894531  9.0502271652221680 35.8407173156738281
 15.5148534774780273  7.0241460800170898 33.9692993164062500
 13.7642822265624982  6.8939332962036133 33.7386054992675781
 13.9528684616088849  7.0149650573730469 31.3731346130371094
 15.5789604187011719  7.6657776832580566 31.4466590881347656
 16.1068115234375000 11.2880210876464844 33.3776473999023438
 16.4731349945068359 11.0563163757324219 35.0632743835449219
 15.7299137115478516 12.5755767822265625 34.4696197509765625
 10.7134113311767578  9.5480842590332031 33.5222053527832031
 12.0033740997314453  8.7321424484252930 32.6210556030273509
 12.0903787612915039 10.5018615722656250 32.9117546081542969
 13.2199630737304688  8.6642618179321289 37.4839286804199219
 13.5901460647583008 10.3086204528808594 37.0431594848632812
 14.7553138732910156  9.4175167083740217 37.9325866699218750
 15.0923013687133789  4.8801383972167969 32.4607276916503906
 15.2323713302612305  5.1460008621215820 30.7396774291992223
 16.9285907745361328  3.2743439674377441 31.4632167816162145
 17.6156387329101562  7.5237426757812500 32.1187553405761719
  1.2941055297851567  2.9052262306213379 31.5222053527832067
  1.9030036926269558  7.1330127716064444 32.2494964599609375
  2.8815650939941411  4.8211560249328604 31.9646301269531286
 17.9682731628417969  4.1283683776855469 35.0254592895507812
  0.4591541290283228 13.9479608535766602 34.9178390502929688
  9.1228742599487287  4.5635118484497070 34.9859008789062571
  9.1479616165161133 13.9456777572631836 34.9064865112304688
  4.4458708763122559  9.0841245651245117 34.7617492675781250
  4.7062968472018838 17.8602444827556610 34.8885841369628906
 13.7964090565219504 17.8557769060134888 34.9651489257812571
  0.0622518509626389  4.4438295364379883 40.6738090515136790
  0.1938999593257904 13.8224735260009766 40.7485809326171875
  9.0293531417846680  4.5919098854064941 40.5454063415527344
  8.9367084503173828 13.5844907760620117 40.6667823791503977
  4.5571999549865723  9.0330677032470685 40.6406478881836009
  4.5523843029513955 18.0557088186033070 40.5754661560058594
 13.3890190124511719  9.0741872787475586 40.7611846923828125
 13.5887708663940430  0.0381450131535530 40.6128578186035227
  9.0289716720581055  4.5156092643737793 46.4455223083496165
  9.0265130996704102 13.5470085144042969 46.4455223083496165
 18.0593719482421875  4.5156092643737793 46.4455223083496165
 18.0569133758544922 13.5470085144042969 46.4455223083496165
  4.5152091979980469  0.0000180629995157 46.4442062377929759
  4.5127501487731934  9.0314178466796857 46.4442062377929759
 13.5456094741821289  0.0000180629995157 46.4442062377929759
 13.5431499481201172  9.0314178466796857 46.4442062377929759
 17.0628566741943359  5.4456295967102051 31.7653465270996129
 17.6112117767333984  4.1323771476745605 31.5875225067138672
 17.9329338073730469  6.4978351593017578 31.9477615356445348
  0.9186305999755898  3.9110188484191895 31.6562938690185582
  1.2685546875000002  6.2752943038940421 32.0140037536621094
  1.7905807495117174  4.9796829223632812 31.8755416870117152
 14.6573123931884766  8.8533887863159180 33.4014739990234375
 14.3391036987304670 10.9894390106201172 34.5875244140625071
 12.5348024368286115  9.3148708343505859 34.6537551879882812
 14.6891078948974609  8.8588705062866211 35.8828430175781250
 14.6920137405395490  7.3435754776000977 33.3462829589843750
 14.9048967361450178  6.9095983505249023 31.9031982421875000
 15.7384099960327131 11.4839096069335938 34.3913002014160156
 11.8062582015991211  9.5447664260864258 33.3367042541503977
 14.0343675613403320  9.3389225006103516 37.1463127136230469
 15.5333290100097638  5.5281376838684082 31.7195053100585938
  1.0294456481933620  3.8414654731750484 35.6259536743164062
  0.8508644104003908 12.8161478042602539 35.4724731445312500
  9.9047250747680664  3.6728379726409908 35.5350074768066406
 10.0741052627563477 13.2166566848754883 35.4461021423339844
  8.0711898803710938  5.0842733383178702 35.5257568359375071
  7.9541664123535147 14.1496849060058594 35.3670845031738352
 16.9817123413085938  4.8593516349792480 35.5091361999511790
 17.5854282379150391 14.7345218658447248 35.4190216064453125
  4.1634950637817383  8.0662984848022461 35.5473785400390625
  3.5101336697116494 17.6387894153594971 35.3909835815429759
 12.7902340153232217 17.1934931278228760 35.4710235595703196
  5.6694374084472656  0.4903187155723571 35.4531440734863281
  5.0931982994079590 10.1653194427490234 35.1104545593261719
 14.3963823318481445  0.8326917886734009 35.5121421813964915
  0.9755437374114990  3.5847735404968257 41.0798072814941406
  0.8979634046554565 12.8715324401855451 41.3412704467773438
  9.7829885482788086  3.6368701457977295 41.0959014892578125
  9.5759267807006836 12.7839994430541992 41.4889030456542969
  3.7875206470489502  8.1116390228271484 41.2235450744628906
  3.6481968620792031 17.2554824948310852 41.1313285827636790
 12.6910047531127930  8.2224559783935547 41.4575958251953196
 12.6381172398105246 17.3677991628646886 41.2058563232421875
  8.1424751281738281  5.3183751106262198 41.1720542907714915
  8.1136140823364258 14.5420856475830060 40.9933280944824219
 17.3171525597572327  5.1645302772521973 41.4468536376953125
 17.2921187877655065 14.5249719619750977 41.3096427917480469
  5.4092116355895996  0.8190092444419861 41.1977577209472727
  5.2994871139526367  9.9223413467407227 41.2338485717773438
 14.4736633300781250  0.8060674071311951 41.1871871948242188
 14.2744550704956055  9.9094018936157227 41.2090606689453125
  0.8273094892501831  3.6869695186614990 47.0359649658203125
  0.8248501420021057 12.7183685302734375 47.0359649658203125
  9.8577098846435547  3.6869695186614990 47.0359649658203125
  9.8552503585815412 12.7183685302734375 47.0359649658203125
  3.6843190193176270  8.2023353576660156 47.0346527099609375
  3.6818594932556152 17.2337341308593750 47.0346527099609375
 12.7147188186645508  8.2023353576660156 47.0346527099609375
 12.7122592926025391 17.2337341308593750 47.0346527099609375
  8.2006769180297852  5.3445744514465332 47.0360260009765696
  8.1982173919677734 14.3759746551513672 47.0360260009765696
 17.2310771942138672  5.3445744514465332 47.0360260009765696
 17.2286186218261719 14.3759746551513672 47.0360260009765696
  5.3436489105224600  0.8290914893150328 47.0346527099609375
  5.3411893844604483  9.8604917526245117 47.0346527099609375
 14.3740482330322266  0.8290914893150328 47.0346527099609375
 14.3715896606445312  9.8604917526245117 47.0346527099609375
 14.0774269104003906  9.4803600311279297 34.6539649963378906
  9.0053901672363281  0.0260292012244463 34.5032157897949219
  8.3904104232788086  8.6544408798217773 34.7212333679199290
 17.8677432090044022  0.1583782583475113 34.4403953552246165
  0.5326490402221680  8.8924913406372070 34.9178085327148438
  4.5712733268737793  4.4515733718872070 34.6582717895507812
  4.4160633087158203 13.7456645965576172 34.4745140075683594
 13.3397769927978516  4.1105961799621582 34.6965522766113281
 12.9825096130371094 14.1242256164550763 34.0904502868652415
  0.0931427711620927 18.0445314683020115 40.8799705505371094
  0.0031685661524534  9.1207952499389648 41.0417098999023438
  9.0236721038818359  0.0100168744102120 40.9044380187988281
  8.9835567474365234  8.9901695251464844 40.9232826232910156
  4.5326509475708008  4.4471330642700195 40.9509124755859446
  4.5561695098876953 13.5336389541625959 40.8911552429199219
 13.4204750061035156  4.4577741622924805 40.9318923950195312
 13.6014471054077131 13.7167024612426740 40.8233947753906250
  2.6769862174987789  1.8403449058532715 38.0074920654296875
  2.7185330390930176 10.9511947631835938 38.0148811340332031
 11.5788497924804688  1.9158387184143066 38.0479850769043040
 11.0748081207275391 11.5208339691162109 38.4323234558105540
  6.5049939155578613  7.0175886154174805 38.2331390380859375
  6.5116076469421387 16.1273174285888672 37.9937019348144531
 16.0059299468994141  6.6150989532470703 38.4465332031250071
 15.4919633865356428 16.1637134552001953 37.9195060729980469
  2.0536561012268066  6.4284176826477051 38.1218261718750000
  1.9744869470596313 15.6029300689697266 37.9263877868652344
 11.1278343200683594  6.6251769065856925 37.9435043334960938
 11.0576696395874023 15.6288309097290039 38.1157226562500000
  7.1480813026428223  2.5673906803131104 38.1085052490234375
  6.9772682189941397 11.6474094390869141 37.8801345825195312
 16.0469665527343750  2.4363360404968257 38.2028923034667969
 16.4961700439453125 11.9988412857055646 38.3843231201171875
  0.0000000000000000  0.0000000000000000 47.1735610961914062
 -0.0024593239650130  9.0313997268676740 47.1735610961914062
  9.0304002761840803  0.0000000000000000 47.1735610961914062
  9.0279407501220685  9.0313997268676740 47.1735610961914062
  4.5139794349670410  4.5156998634338379 47.1742515563964844
  4.5115203857421875 13.5470991134643537 47.1742515563964844
 13.5443792343139648  4.5156998634338379 47.1742515563964844
 13.5419197082519531 13.5470991134643537 47.1742515563964844
  2.4519233703613277  2.0629522800445557 44.0401268005371165
  2.4494640827178955 11.0943517684936523 44.0401268005371165
 11.4823226928710920  2.0629522800445557 44.0401268005371165
 11.4798641204833984 11.0943517684936523 44.0401268005371165
  6.5760178565979004  6.9684472084045410 44.0401268005371165
  6.5735583305358887 15.9998464584350586 44.0401268005371165
 15.6064186096191406  6.9684472084045410 44.0401268005371165
 15.6039590835571289 15.9998464584350586 44.0401268005371165
  2.0610768795013428  6.5788145065307617 44.0400009155273509
  2.0586175918579102 15.6102142333984375 44.0400009155273509
 11.0914773941040039  6.5788145065307617 44.0400009155273509
 11.0890178680419922 15.6102142333984375 44.0400009155273509
  6.9668641090393066  2.4525938034057613 44.0400657653808665
  6.9644045829772949 11.4839935302734375 44.0400657653808665
 15.9972639083862305  2.4525938034057613 44.0400657653808665
 15.9948053359985352 11.4839935302734375 44.0400657653808665
  2.4316265583038330  2.0832188129425049 50.0684852600097656
  2.4291670322418213 11.1146183013915998 50.0684852600097656
 11.4620265960693359  2.0832188129425049 50.0684852600097656
 11.4595670700073224 11.1146183013915998 50.0684852600097656
  6.5963144302368164  6.9481806755065918 50.0684852600097656
  6.5938549041748047 15.9795799255371076 50.0684852600097656
 15.6267137527465803  6.9481806755065918 50.0684852600097656
 15.6242542266845703 15.9795799255371076 50.0684852600097656
  2.0811281204223633  6.5990090370178223 50.0690460205078125
  2.0786688327789307 15.6304082870483398 50.0690460205078125
 11.1115283966064453  6.5990090370178223 50.0690460205078125
 11.1090688705444336 15.6304082870483398 50.0690460205078125
  6.9468131065368652  2.4323906898498531 50.0690460205078125
  6.9443535804748535 11.4637899398803711 50.0690460205078125
 15.9772129058837891  2.4323906898498531 50.0690460205078125
 15.9747543334960938 11.4637899398803711 50.0690460205078125
 18.0396920535713470  0.0730051249265671 37.6476135253906250
  0.1698862314224243  9.1213884353637695 37.9753456115722656
  9.0573515156283975 18.0380220599472523 37.6515808105468750
  8.9814291000366211  8.9919948577880859 37.7418289184570312
  4.5904922485351554  4.4842796325683594 37.7560043334961009
  4.4800653457641602 13.6466417312622070 37.6664962768554688
 13.5348997116088867  4.5085887908935547 37.8242988586425852
 13.5309820175170898 13.6540117263793945 37.7811851501464915
  0.0000090280000222  0.0000090310004452 44.0429992675781250
 -0.0024502959568053  9.0314083099365234 44.0429992675781250
  9.0304088592529297  0.0000090310004452 44.0429992675781250
  9.0279493331909180  9.0314083099365234 44.0429992675781250
  4.5139703750610352  4.5156903266906738 44.0427513122558594
  4.5115113258361816 13.5470905303955078 44.0427513122558594
 13.5443706512451172  4.5156903266906738 44.0427513122558594
 13.5419111251831037 13.5470905303955078 44.0427513122558594
  0.0000000000000000  0.0000000000000000 50.4472808837890696
 -0.0024593239650130  9.0313997268676740 50.4472808837890696
  9.0304002761840803  0.0000000000000000 50.4472808837890696
  9.0279407501220685  9.0313997268676740 50.4472808837890696
  4.5139703750610352  4.5156998634338379 50.4472808837890696
  4.5115113258361816 13.5470991134643537 50.4472808837890696
 13.5443706512451172  4.5156998634338379 50.4472808837890696
 13.5419111251831055 13.5470991134643537 50.4472808837890696
