 H  C  N  I Pb 
 1.0000000000000000
    18.0608005523681641    0.0000000000000000    0.0000000000000000
    -0.0049186488613486   18.0627994537353516    0.0000000000000000
     0.0000000000000000    0.0000000000000000   62.4874992370605469
 H   C   N   I   Pb 
 143  39  47  72  24
Cartesian
  8.5511159896850586  6.0820364952087393 35.5016288757324219
  8.0585784912109375 15.0336599349975586 35.8704757690429759
 16.6678256988525391  4.5797667503356934 36.2442703247070384
 16.9728679656982422 14.7906675338745117 35.8890113830566406
  5.7554054260253906  1.3823506832122803 35.5839309692382812
  6.2814564704895020 10.0238313674926758 35.2160453796386790
 14.4500398635864258  1.6796370744705198 35.6166610717773438
  1.9014320373535176  4.4575204849243164 34.8130111694335938
  1.4286937713623056 12.1749057769775373 35.9377937316894531
  9.8468389511108398  2.7068707942962646 35.0347099304199290
  9.0311212539672852 11.6505546569824219 34.9920425415039134
  6.6761169433593750  0.2164241224527359 34.6893424987793040
  5.2985401153564453 11.3854780197143555 34.6937370300292969
 15.7671260833740234  0.6448388099670410 35.0420188903808594
  1.0426082611084004  4.6058735847473145 36.3047294616699290
 17.9525833129882812 12.5760488510131818 36.6471405029296946
 10.3656435012817383  4.3126859664916992 35.5653457641601562
  8.1446008682250977 12.5600042343139631 36.1750869750976634
  5.0066871643066397  7.9349255561828613 35.7981033325195312
  3.2996826171875000  1.0840182304382324 35.7335586547851562
 12.2282896041870117  0.5457176566123962 35.8314285278320384
  6.9883775711059570  5.5321903228759766 34.9016075134277344
  9.0680475234985352 15.7254943847656250 34.6297912597656250
 15.8530282974243164  4.3314447402954102 34.7308540344238281
 17.8550834655761719 15.6544332504272461 34.6881446838378906
  3.3202924728393555  7.9282631874084473 35.3669509887695312
  2.6055454472079869 17.8236440420150757 34.8765754699707031
 12.1595339039340615 16.9346133470535278 35.2842216491699219
  7.7177953720092773  3.3923468589782715 34.4718322753906250
  9.8232421874999982 13.6229820251464844 33.9106445312500000
 17.9446201324462891  4.2416901588439941 33.5651054382324219
  1.4932003021240272 14.0279340744018555 34.5702972412109375
  3.3293080329895020 10.1124773025512695 34.6408462524414134
  4.7169369915500283 17.0211291313171422 34.1625213623046875
 14.3594297626987100 16.8693636655807495 34.7359848022461009
  8.2441930770874023  5.5257563591003418 42.0833816528320312
  7.9943332672119141 14.5924777984619141 42.0263671875000071
 17.0397362709045410  5.0055203437805176 42.1808052062988281
 16.6696635484695470 13.1915855407714826 41.9732322692871165
  5.5542716979980460  0.8934286832809447 41.9924201965332031
  5.3375620841979980 10.0048255920410156 42.2037124633789134
 14.4567012786865234  0.9763147234916687 42.1452941894531321
 15.2154712677001953  8.5147418975830078 41.4765968322753906
  1.6670036315917969  3.1354110240936279 40.5404624938964915
  2.0286355018615723 12.9887094497680664 40.7210655212402344
 10.4829759597778320  3.0539186000823975 40.5829544067382812
 10.3140077590942383 12.0876140594482422 40.6861381530761790
  3.3538064956665039  7.4243745803833008 40.5137825012207031
  2.9984556892886758 16.7961370944976807 40.4667625427246094
 11.6037483215332031  8.5767946243286133 41.1110610961914062
 12.2186912754550576 16.5821669101715088 40.5956420898437500
  0.9716004729270935  3.3687076568603516 42.1213264465332031
  0.9441285133361816 12.1875858306884766 41.8124427795410227
 10.0723114013671875  3.7116620540618896 42.1331748962402344
  9.7177248001098633 12.6514921188354492 42.2147712707519531
  3.6545412540435787  8.0080366134643555 42.1161689758300852
  3.5751542309299111 17.2629629373550415 42.0424118041992188
 12.9288110733032227  7.5872325897216797 41.7003898620605469
 12.6849750736728293 17.1685971617698669 42.1768836975097727
  7.5835728645324698  5.8662405014038086 40.5083808898925852
  7.6226692199707022 15.0591545104980469 40.3925323486328125
 16.6636707782745361  5.7495851516723624 40.6357345581054688
 16.3750830888748169 14.6016120910644513 40.9795188903808594
  6.0745716094970703  1.3372453451156616 40.3987655639648438
  5.8752479553222656 10.5506582260131836 40.6489105224609446
 14.9711360931396484  1.4658260345458984 40.5520896911621094
 15.3647279739379883 10.0328912734985352 40.6359062194824219
  0.2371245175600052  4.6494064331054679 39.5027084350586009
  0.4784181714057922 14.5903987884521484 40.0874252319335938
  8.9590301513671875  4.3468341827392578 39.4230346679687571
  9.0530347824096680 13.5202617645263672 39.4348220825195312
  4.5130052566528320  0.0116763897240162 39.3288345336914062
  4.7223291397094727  8.9512624740600586 39.4783897399902344
 13.6118740299716592 18.0068428628146648 39.4693336486816406
 13.0642280578613281 10.2265300750732422 40.3191528320312500
  8.1032123565673828  5.4420318603515616 48.0459518432617259
  8.1007528305053711 14.4734306335449219 48.0459518432617259
 17.1336116790771484  5.4420318603515616 48.0459518432617259
 17.1311531066894531 14.4734306335449219 48.0459518432617259
  5.4410333633422852  0.9265221953392029 48.0449485778808594
  5.4385743141174316  9.9579219818115234 48.0449485778808594
 14.4714326858520490  0.9265221953392029 48.0449485778808594
 14.4689741134643555  9.9579219818115234 48.0449485778808594
  1.4218254089355467  3.0919990539550781 46.4558296203613281
  1.4193661212921143 12.1233978271484375 46.4558296203613281
 10.4522256851196289  3.0919990539550781 46.4558296203613281
 10.4497661590576172 12.1233978271484375 46.4558296203613281
  3.0899283885955806  7.6075901985168457 46.4545211791992188
  3.0874691009521484 16.6389904022216797 46.4545211791992188
 12.1203289031982422  7.6075901985168457 46.4545211791992188
 12.1178693771362305 16.6389904022216797 46.4545211791992188
  0.9247469902038573  3.5893490314483643 48.0459518432617259
  0.9222877025604248 12.6207475662231445 48.0459518432617259
  9.9551477432250977  3.5893490314483643 48.0459518432617259
  9.9526882171630859 12.6207475662231445 48.0459518432617259
  3.5868983268737793  8.1048498153686523 48.0448913574218821
  3.5844390392303462 17.1362495422363281 48.0448913574218821
 12.6172990798950195  8.1048498153686523 48.0448913574218821
 12.6148395538330078 17.1362495422363281 48.0448913574218821
  7.6061611175537109  5.9393639564514160 46.4558296203613281
  7.6037015914916992 14.9707632064819336 46.4558296203613281
 16.6365604400634766  5.9393639564514160 46.4558296203613281
 16.6341018676757812 14.9707632064819336 46.4558296203613281
  5.9380125999450684  1.4238001108169553 46.4545211791992188
  5.9355530738830566 10.4551992416381836 46.4545211791992188
 14.9684123992919904  1.4238001108169553 46.4545211791992188
 14.9659538269042951 10.4551992416381836 46.4545211791992188
 -0.0011664569610730  4.5157265663146973 45.3548011779785156
 -0.0036257810425013 13.5471258163452148 45.3548011779785156
  9.0292339324951172  4.5157265663146973 45.3548011779785156
  9.0267744064331037 13.5471258163452148 45.3548011779785156
  4.5152091979980469  0.0000000000000000 45.3536758422851562
  4.5127501487731934  9.0313997268676740 45.3536758422851562
 13.5456094741821289  0.0000000000000000 45.3536758422851562
 13.5431499481201172  9.0313997268676740 45.3536758422851562
 13.0067415237426758  7.9920496940612784 33.8039512634277344
 13.3113317489624023  8.9034366607666016 32.3387413024902344
 11.9192438125610352  9.9729347229003888 34.8757324218750000
 12.7658023834228516 11.5193290710449219 34.7418403625488352
 15.3655204772949219  9.1657886505126953 35.5252418518066406
 14.2491016387939435 10.4203224182128906 36.1322593688964915
 15.7641983032226545 10.1608772277832031 33.1573677062988281
 14.4442024230957031 11.2712535858154297 32.6760215759277344
 15.7288513183593750  8.3615722656250000 32.4130668640136790
 15.5891456604003906  7.6363859176635742 34.0074424743652344
 15.7626924514770508  5.8923878669738770 32.4203681945800781
 14.1500854492187500  5.8295807838439941 33.1093711853027344
 11.4730672836303711  9.9387226104736310 32.4213790893554759
 12.4364032745361328 11.4429683685302734 32.2150192260742259
 10.9529495239257812 11.4531784057617188 33.1596679687500000
 13.6352281570434570  8.4578075408935547 37.2764282226562500
 13.6218872070312500  7.4209418296813965 35.8358306884765696
 12.3503646850585938  8.6302986145019531 36.1064872741699219
 14.7519731521606445 12.4952869415283185 34.9054565429687500
 16.2311649322509766 12.4379539489746094 33.9559555053710938
 16.0432090759277344 11.3263816833496094 35.3185119628906321
 14.8189048767089844  6.8746471405029297 30.3138160705566406
 14.1852750778198242  5.2932333946228027 30.7217483520507812
 11.9766721725463849  5.5199303627014160 32.4363670349121165
 13.2178363800048828  8.3269348144531250 29.4233398437500036
  9.6899242401123029  6.4665818214416504 32.3747749328613281
 10.9166755676269531  9.2578735351562500 29.3417339324951207
  9.1471881866455078  8.3512783050537109 30.8480300903320312
 17.9202175140380859  4.3818359375000000 34.6414566040039062
  0.6271495819091814 13.8700389862060547 35.2155952453613281
  8.4254541397094727  4.1160907745361328 34.8822555541992188
  9.1131362915039045 13.6803359985351562 34.7357559204101562
  4.2722554206848145  9.6587581634521467 34.9619255065917969
  4.6434940556064248 17.9537224471569061 34.7262535095214915
 13.9617275455966574 17.8098824024200439 35.1201820373535156
  0.1358336061239243  4.4458422660827637 40.5775794982910227
  0.1913369894027710 13.8316040039062482 40.8130760192871094
  9.0445947647094727  4.4598822593688965 40.5107460021972656
  8.9666299819946289 13.5629701614379883 40.5177574157714844
  4.6289772987365723  8.9725389480590820 40.5636672973632884
  4.5348081588745108  0.0298674497753382 40.4217720031738352
 13.4696359634399414  9.3561697006225586 40.8245429992675781
 13.5921129444614053 18.0462537109851837 40.5591354370117188
  9.0289716720581055  4.5156092643737793 46.4455223083496165
  9.0265130996704102 13.5470085144042969 46.4455223083496165
 18.0593719482421875  4.5156092643737793 46.4455223083496165
 18.0569133758544922 13.5470085144042969 46.4455223083496165
  4.5152091979980469  0.0000180629995157 46.4442062377929759
  4.5127501487731934  9.0314178466796857 46.4442062377929759
 13.5456094741821289  0.0000180629995157 46.4442062377929759
 13.5431499481201172  9.0314178466796857 46.4442062377929759
 12.7630910873413086  6.8727750778198233 30.9315109252929688
 11.7478084564208984  6.3392624855041504 31.7434082031250036
 12.4397439956665039  7.9166522026062012 30.0595989227294957
 10.4552040100097656  6.8754296302795410 31.7121620178222656
 11.1452846527099609  8.4396629333496094 30.0146102905273473
 10.1491584777832031  7.9353594779968262 30.8546295166015625
 13.7612314224243164  8.5987434387207031 33.2906646728515696
 12.5590429306030273 10.5748882293701172 34.2226104736328196
 14.3082399368286133  9.4868869781494141 35.5599250793457102
 14.9480247497558594 10.7951869964599609 33.5277481079101562
 15.0419883728027344  7.7978081703186035 33.0623779296875000
 14.7879867553710938  6.4126663208007812 32.4340019226074219
 11.8412628173828107 10.8467426300048828 32.9190025329589844
 13.4278335571289062  8.4377307891845703 36.2000923156738281
 15.5124750137329102 11.8141956329345703 34.4998359680175781
 14.1786031723022443  6.3492035865783691 31.0217304229736364
  0.9979782104492189  4.4511227607727051 35.2918128967285227
  0.6305141448974614 12.8014430999755859 35.9641342163085938
  9.6522064208984375  3.7113468647003174 35.1308403015136719
  8.7458515167236328 12.5698041915893555 35.3392944335937571
  7.9842720031738281  5.3482050895690918 35.0548400878906250
  8.6761102676391602 14.8766660690307617 35.0635604858398438
 16.7424163818359375  4.4693260192871094 35.2264595031738352
 17.7109317779541016 14.7554750442504883 35.1670684814453125
  4.2153172492980957  8.4022493362426758 35.3429374694824219
  3.4553596973419189  0.2837688922882080 35.0989875793457102
 12.6766065815463662 17.8104166388511658 35.3808975219726562
  5.7576332092285156  0.5503978729248047 34.9805755615234375
  5.3600587844848633 10.3894405364990234 34.9284324645996165
 14.7850532531738281  0.7506364583969116 35.3039855957031250
  0.9598317742347717  3.5946602821350098 41.1278839111328125
  1.0812615156173706 12.9351243972778320 41.1272659301757812
  9.9184122085571271  3.7144432067871089 41.1277885437011719
  9.7003831863403320 12.7118453979492188 41.1936531066894531
  3.8545620441436768  8.0740451812744141 41.1149444580078125
  3.6471463898196812 17.3475531339645386 41.0320014953613281
 12.6181383132934570  8.4424867630004883 41.2290878295898438
 12.7935146549716592 17.2105387449264526 41.1640548706054688
  8.2468328475952148  5.3443889617919922 41.0833129882812500
  8.1466379165649414 14.4549140930175763 41.0276374816894531
 17.2458932995796204  5.1082873344421387 41.1878433227539062
 17.0327928066253662 13.8959779739379865 41.3074989318847656
  5.4452309608459473  0.7937462329864502 40.9905509948730469
  5.3218483924865723  9.8903465270996094 41.1928215026855469
 14.3831329345703125  0.8686534166336060 41.1403770446777344
 14.7709074020385742  9.2939462661743164 41.0015640258789062
  0.8273094892501831  3.6869695186614990 47.0359649658203125
  0.8248501420021057 12.7183685302734375 47.0359649658203125
  9.8577098846435547  3.6869695186614990 47.0359649658203125
  9.8552503585815412 12.7183685302734375 47.0359649658203125
  3.6843190193176270  8.2023353576660156 47.0346527099609375
  3.6818594932556152 17.2337341308593750 47.0346527099609375
 12.7147188186645508  8.2023353576660156 47.0346527099609375
 12.7122592926025391 17.2337341308593750 47.0346527099609375
  8.2006769180297852  5.3445744514465332 47.0360260009765696
  8.1982173919677734 14.3759746551513672 47.0360260009765696
 17.2310771942138672  5.3445744514465332 47.0360260009765696
 17.2286186218261719 14.3759746551513672 47.0360260009765696
  5.3436489105224600  0.8290914893150328 47.0346527099609375
  5.3411893844604483  9.8604917526245117 47.0346527099609375
 14.3740482330322266  0.8290914893150328 47.0346527099609375
 14.3715896606445312  9.8604917526245117 47.0346527099609375
 13.8998098373413068  9.8583335876464844 34.1336631774902344
  9.2150592803955060  0.2316032052040100 34.4578781127929688
  8.7440891265869141  9.0846090316772443 34.6398735046386719
  0.0614020638167858  0.1650049239397049 34.4702873229980469
  0.5246728062629700  9.0986404418945312 34.6830520629882812
  4.5367860794067383  4.4660840034484863 34.5444869995117188
  4.4789576530456543 13.8485088348388672 34.5382308959960938
 13.2429084777832031  3.8066329956054688 34.7368087768554759
 12.6296234130859375 14.3773918151855469 34.6758155822753906
 17.9723692992702127 17.7819982171058655 40.8897323608398438
  0.2610541284084320  8.9376115798950195 40.9783668518066406
  9.0138969421386719  0.0790103301405907 40.8893127441406321
  9.0666875839233398  8.9528293609619141 40.9213714599609375
  4.6366505622863770  4.4150991439819336 40.8906936645507812
  4.6010351181030273 13.6393022537231445 40.8970527648925852
 13.4915952682495117  4.8174462318420410 40.9315795898437500
 13.4707355499267578 13.4168653488159180 40.9062194824218750
  2.3407206535339355  2.2008855342864990 37.9563026428222656
  2.7661106586456299 10.9420175552368164 38.0259666442871094
 11.5651235580444318  2.0538361072540283 38.1565971374511719
 11.3714065551757812 11.2018013000488281 38.0546073913574219
  6.5787563323974609  6.9978661537170410 37.9495506286621094
  6.7247395515441895 15.9412260055541992 37.8889198303222727
 16.0299434661865234  6.6939830780029297 38.0632553100585938
 15.6689844131469709 15.9250278472900391 37.8803443908691477
  2.2170615196228027  6.5982847213745117 38.0065193176269602
  2.2195367813110352 15.8186273574829102 37.9175910949707031
 10.7699747085571289  6.2729387283325195 37.5905342102050781
 11.1077756881713849 15.6593132019042969 38.2974586486816477
  6.9668316841125488  2.4005808830261230 37.8676986694336009
  6.9392166137695312 11.4332380294799805 38.1717376708984375
 15.9348735809326154  2.4582500457763672 38.2883300781250000
 16.2927017211914062 11.6064491271972656 38.4188804626464844
  0.0000000000000000  0.0000000000000000 47.1735610961914062
 -0.0024593239650130  9.0313997268676740 47.1735610961914062
  9.0304002761840803  0.0000000000000000 47.1735610961914062
  9.0279407501220685  9.0313997268676740 47.1735610961914062
  4.5139794349670410  4.5156998634338379 47.1742515563964844
  4.5115203857421875 13.5470991134643537 47.1742515563964844
 13.5443792343139648  4.5156998634338379 47.1742515563964844
 13.5419197082519531 13.5470991134643537 47.1742515563964844
  2.4519233703613277  2.0629522800445557 44.0401268005371165
  2.4494640827178955 11.0943517684936523 44.0401268005371165
 11.4823226928710920  2.0629522800445557 44.0401268005371165
 11.4798641204833984 11.0943517684936523 44.0401268005371165
  6.5760178565979004  6.9684472084045410 44.0401268005371165
  6.5735583305358887 15.9998464584350586 44.0401268005371165
 15.6064186096191406  6.9684472084045410 44.0401268005371165
 15.6039590835571289 15.9998464584350586 44.0401268005371165
  2.0610768795013428  6.5788145065307617 44.0400009155273509
  2.0586175918579102 15.6102142333984375 44.0400009155273509
 11.0914773941040039  6.5788145065307617 44.0400009155273509
 11.0890178680419922 15.6102142333984375 44.0400009155273509
  6.9668641090393066  2.4525938034057613 44.0400657653808665
  6.9644045829772949 11.4839935302734375 44.0400657653808665
 15.9972639083862305  2.4525938034057613 44.0400657653808665
 15.9948053359985352 11.4839935302734375 44.0400657653808665
  2.4316265583038330  2.0832188129425049 50.0684852600097656
  2.4291670322418213 11.1146183013915998 50.0684852600097656
 11.4620265960693359  2.0832188129425049 50.0684852600097656
 11.4595670700073224 11.1146183013915998 50.0684852600097656
  6.5963144302368164  6.9481806755065918 50.0684852600097656
  6.5938549041748047 15.9795799255371076 50.0684852600097656
 15.6267137527465803  6.9481806755065918 50.0684852600097656
 15.6242542266845703 15.9795799255371076 50.0684852600097656
  2.0811281204223633  6.5990090370178223 50.0690460205078125
  2.0786688327789307 15.6304082870483398 50.0690460205078125
 11.1115283966064453  6.5990090370178223 50.0690460205078125
 11.1090688705444336 15.6304082870483398 50.0690460205078125
  6.9468131065368652  2.4323906898498531 50.0690460205078125
  6.9443535804748535 11.4637899398803711 50.0690460205078125
 15.9772129058837891  2.4323906898498531 50.0690460205078125
 15.9747543334960938 11.4637899398803711 50.0690460205078125
 18.0079954713582993  0.0724786967039108 37.7931327819824290
  0.1188371330499649  9.1008310317993164 37.7910575866699219
  9.0919857025146484  0.0431403368711472 37.7699546813964844
  9.0751876831054688  9.0287590026855469 37.7484741210937500
  4.5705714225769043  4.5308551788330069 37.7497940063476562
  4.4824185371398926 13.5814771652221680 37.7087783813476562
 13.4841032028198242  4.5972204208374023 37.8132438659667969
 13.4030752182006836 13.6729335784912109 37.7269020080566406
  0.0000090280000222  0.0000090310004452 44.0429992675781250
 -0.0024502959568053  9.0314083099365234 44.0429992675781250
  9.0304088592529297  0.0000090310004452 44.0429992675781250
  9.0279493331909180  9.0314083099365234 44.0429992675781250
  4.5139703750610352  4.5156903266906738 44.0427513122558594
  4.5115113258361816 13.5470905303955078 44.0427513122558594
 13.5443706512451172  4.5156903266906738 44.0427513122558594
 13.5419111251831037 13.5470905303955078 44.0427513122558594
  0.0000000000000000  0.0000000000000000 50.4472808837890696
 -0.0024593239650130  9.0313997268676740 50.4472808837890696
  9.0304002761840803  0.0000000000000000 50.4472808837890696
  9.0279407501220685  9.0313997268676740 50.4472808837890696
  4.5139703750610352  4.5156998634338379 50.4472808837890696
  4.5115113258361816 13.5470991134643537 50.4472808837890696
 13.5443706512451172  4.5156998634338379 50.4472808837890696
 13.5419111251831055 13.5470991134643537 50.4472808837890696
