 H  C  N  I Pb 
 1.0000000000000000
    18.0608005523681641    0.0000000000000000    0.0000000000000000
    -0.0049186488613486   18.0627994537353516    0.0000000000000000
     0.0000000000000000    0.0000000000000000   62.4874992370605469
 H   C   N   I   Pb 
 143  39  47  72  24
Cartesian
  7.3900947570800772  5.0409927368164062 35.3577041625976562
  7.4516372680664062 12.6583261489868164 35.8019599914550852
 16.7673759460449219  5.2348403930664062 36.3015785217285227
 16.8225917816162109 14.7173786163330078 35.8403205871582031
  5.8458437919616699  1.6683018207550047 35.3261947631835938
  5.7566771507263184 10.4102468490600568 35.5950508117675781
 14.4920883178710920  1.7969574928283691 35.5333175659179688
  1.9990577697753944  4.3470797538757324 35.1284103393554759
  1.4328556060791029 12.2805881500244141 35.5846443176269531
 10.6559820175170898  3.4087257385253906 35.3031120300293040
 10.8558397293090820 13.5534067153930646 34.9266967773437500
  6.8210868835449219  0.3672122061252593 34.6788291931152344
  4.5694599151611319 11.2549190521240234 34.6440887451171875
 15.8032197952270508  0.8091553449630737 34.8915901184082031
  1.1413383483886739  5.1812200546264648 36.4060592651367188
 17.9535388946533203 12.5431280136108381 36.3585357666015625
  8.9645509719848633  3.1132023334503174 35.7246208190917969
  9.9169664382934553 12.4570159912109357 35.9132385253906321
  5.5351157188415518  7.9381709098815918 35.7951850891113352
  3.4076945781707764  1.2124046087265015 35.6038703918457031
 12.2744064331054670  0.5989671349525452 35.8066368103027344
  8.1459474563598633  6.5371437072753906 34.8472404479980469
  6.7897005081176758 13.8797616958618164 34.7504234313964844
 15.9835929870605451  4.3374638557434082 35.0213241577148438
 17.6643238067626953 15.7686061859130859 34.7523689270019602
  4.2308769226074219  7.2123126983642578 34.9168853759765625
  2.7900976398959756 17.8163286745548248 34.9141883850097656
 12.2344383457675576 17.0205851793289185 35.2197494506836009
 10.2570390701293945  5.5877757072448730 34.6609725952148438
  8.9413776397705078 14.6048088073730469 34.0749893188476634
 18.0562877655029297  3.6442401409149170 34.1041603088378906
  1.3432006835937511 14.2705440521240217 34.4062232971191477
  3.4217035770416260  9.2569761276245117 34.1279907226562500
  4.9431151608005166 17.0665309429168701 34.2933921813964844
 14.4355282047763467 17.0222879648208618 34.5793533325195312
  8.1807670593261719  5.3127131462097168 42.0750617980957031
  7.9482493400573730 14.6573991775512695 41.9561309814453125
 17.3425596952438354  5.0992031097412109 42.3642501831054759
 16.5341874361038208 13.3750228881835938 41.7504501342773438
  5.3915944099426270  0.7570691108703613 42.1768035888671946
  5.4796423912048340 10.0722780227661133 42.1158142089843750
 14.3774318695068359  0.9844607114791870 42.1778869628906250
 14.9667224884033203  9.0342426300048810 41.8282585144042969
  1.6346751451492310  3.0903944969177246 40.4070968627929688
  1.8983851671218872 12.6053018569946289 40.7704162597656321
 10.4267568588256818  2.9579768180847168 40.4095115661621094
 10.3910694122314435 12.2327013015747070 40.6867713928222727
  3.3659884929656982  7.4504747390747061 40.6660652160644531
  2.9364022472873330 16.8208014965057373 40.3512458801269602
 11.5661420822143555  8.3435134887695312 40.7120704650878906
 12.1954511860385537 16.5625177621841431 40.5906410217285156
  1.1774379014968872  3.3920104503631587 42.0629692077636719
  0.5149691104888916 11.8772420883178711 41.5325126647949219
  9.8190803527832031  3.3474712371826172 41.9932403564453196
  9.8169202804565430 12.8707008361816406 42.1946983337402344
  3.9111840724945064  8.0277414321899414 42.2216072082519531
  3.3591841915622354 17.2439065575599670 41.9939804077148438
 12.6750926971435547  7.8645553588867188 41.9509468078613352
 12.6076902607455850 17.1651687026023865 42.1830520629882812
  7.9261050224304190  6.1350641250610352 40.5640716552734375
  7.4792828559875479 14.9848709106445312 40.3172912597656250
 16.7190252542495763  5.7781438827514648 40.8797149658203125
 16.7266389131546021 15.0035161972045898 41.1170272827148438
  6.1646990776062012  1.1223089694976807 40.6752319335937571
  5.7812447547912589 10.6603240966796875 40.5149688720703125
 14.9503726959228516  1.4375849962234497 40.6037521362304688
 15.1474580764770508 10.1823806762695312 40.5489044189453125
  0.0789832100272179  4.5629940032958984 39.5326652526855469
  0.8229087591171265 14.6302423477172852 40.3684387207031250
  9.2884168624877930  4.7107167243957520 39.3730163574218750
  8.9927206039428711 13.5056505203247070 39.3953590393066406
  4.6491917828097939 17.9733265042304993 39.4041938781738281
  4.4867272377014160  9.0590572357177734 39.4802627563476562
 13.6368154743686318 17.9551256895065308 39.4963645935058665
 13.0116729736328125  9.8318548202514648 39.7153167724609375
  8.1032123565673828  5.4420318603515616 48.0459518432617259
  8.1007528305053711 14.4734306335449219 48.0459518432617259
 17.1336116790771484  5.4420318603515616 48.0459518432617259
 17.1311531066894531 14.4734306335449219 48.0459518432617259
  5.4410333633422852  0.9265221953392029 48.0449485778808594
  5.4385743141174316  9.9579219818115234 48.0449485778808594
 14.4714326858520490  0.9265221953392029 48.0449485778808594
 14.4689741134643555  9.9579219818115234 48.0449485778808594
  1.4218254089355467  3.0919990539550781 46.4558296203613281
  1.4193661212921143 12.1233978271484375 46.4558296203613281
 10.4522256851196289  3.0919990539550781 46.4558296203613281
 10.4497661590576172 12.1233978271484375 46.4558296203613281
  3.0899283885955806  7.6075901985168457 46.4545211791992188
  3.0874691009521484 16.6389904022216797 46.4545211791992188
 12.1203289031982422  7.6075901985168457 46.4545211791992188
 12.1178693771362305 16.6389904022216797 46.4545211791992188
  0.9247469902038573  3.5893490314483643 48.0459518432617259
  0.9222877025604248 12.6207475662231445 48.0459518432617259
  9.9551477432250977  3.5893490314483643 48.0459518432617259
  9.9526882171630859 12.6207475662231445 48.0459518432617259
  3.5868983268737793  8.1048498153686523 48.0448913574218821
  3.5844390392303462 17.1362495422363281 48.0448913574218821
 12.6172990798950195  8.1048498153686523 48.0448913574218821
 12.6148395538330078 17.1362495422363281 48.0448913574218821
  7.6061611175537109  5.9393639564514160 46.4558296203613281
  7.6037015914916992 14.9707632064819336 46.4558296203613281
 16.6365604400634766  5.9393639564514160 46.4558296203613281
 16.6341018676757812 14.9707632064819336 46.4558296203613281
  5.9380125999450684  1.4238001108169553 46.4545211791992188
  5.9355530738830566 10.4551992416381836 46.4545211791992188
 14.9684123992919904  1.4238001108169553 46.4545211791992188
 14.9659538269042951 10.4551992416381836 46.4545211791992188
 -0.0011664569610730  4.5157265663146973 45.3548011779785156
 -0.0036257810425013 13.5471258163452148 45.3548011779785156
  9.0292339324951172  4.5157265663146973 45.3548011779785156
  9.0267744064331037 13.5471258163452148 45.3548011779785156
  4.5152091979980469  0.0000000000000000 45.3536758422851562
  4.5127501487731934  9.0313997268676740 45.3536758422851562
 13.5456094741821289  0.0000000000000000 45.3536758422851562
 13.5431499481201172  9.0313997268676740 45.3536758422851562
 14.4493551254272443  9.1869812011718750 32.1623725891113281
 15.8731708526611328  9.0430250167846680 33.1988105773925781
 13.7696609497070312 11.2461366653442383 33.2490425109863281
 13.7470388412475586 11.3039245605468750 35.0035667419433594
 12.3923072814941406  8.0955448150634766 34.4089965820312500
 12.1007165908813477  9.7627315521240217 34.8838768005371165
 14.3988199234008771  7.7185978889465332 35.4312667846679759
 15.6505308151245117  8.9708738327026367 35.5610198974609446
 15.4888553619384766  6.7860474586486816 33.7020492553711009
 13.7761955261230451  6.8171796798706055 33.3125228881836009
 14.1293430328369141  6.9011430740356445 30.9723911285400391
 15.8047485351562482  7.3762984275817871 31.1189479827880895
 16.2222919464111328 11.1808128356933594 33.1645545959472656
 16.3491134643554688 10.9405584335327148 34.9203834533691406
 15.6910905838012678 12.4573211669921875 34.2734756469726562
 10.8387889862060547  9.2973251342773438 32.8931274414062571
 12.2798814773559570  8.7881412506103516 31.9539680480957031
 12.0496358871459961 10.4936017990112305 32.4484024047851562
 12.7933397293090803  9.1532993316650391 36.7330017089843821
 14.0576896667480469 10.3911361694335938 36.9223022460937500
 14.2708644866943359  8.7681102752685547 37.6028518676757812
 14.8474121093750000  4.6228246688842773 32.0680503845214844
 15.2502994537353516  4.9654173851013184 30.4024810791015625
 16.6962490081787109  2.8879141807556152 31.1525726318359411
 17.5650939941406250  6.9358792304992667 32.3586196899414062
  1.0082721710205089  2.2871208190917969 31.4797267913818395
  1.8287754058837880  6.3565344810485840 32.6756782531738281
  2.6461906433105469  4.0257368087768555 32.2234535217285156
 18.0287971496582031  4.2769918441772461 34.9860191345214844
  0.4944477081298831 13.9852705001831055 35.0365333557128977
  9.4188232421875000  4.9625916481018066 34.9735412597656250
  8.8439941406250000 13.7568187713623047 34.7590866088867188
  4.3369107246398926  9.2326545715332031 34.7220993041992188
  4.8109454372897744 18.0579923987388611 34.7334289550781250
 14.0171646336093527 17.9331197440624237 35.0018157958984375
  0.1378064006567001  4.4376363754272461 40.6137390136718750
  0.2943422794342041 13.8257827758789062 40.8864059448242188
  9.1792030334472656  4.5459918975830078 40.4453849792480469
  8.9446849822998047 13.6099052429199219 40.4758415222167969
  4.5763378143310547  9.0491380691528320 40.5658073425292969
  4.5458063343539834 18.0035848356783390 40.4846420288085938
 13.3543596267700195  9.2795667648315430 40.5854034423828125
 13.5757831791415811 18.0204385332763231 40.5788536071777344
  9.0289716720581055  4.5156092643737793 46.4455223083496165
  9.0265130996704102 13.5470085144042969 46.4455223083496165
 18.0593719482421875  4.5156092643737793 46.4455223083496165
 18.0569133758544922 13.5470085144042969 46.4455223083496165
  4.5152091979980469  0.0000180629995157 46.4442062377929759
  4.5127501487731934  9.0314178466796857 46.4442062377929759
 13.5456094741821289  0.0000180629995157 46.4442062377929759
 13.5431499481201172  9.0314178466796857 46.4442062377929759
 16.9319381713867188  4.9585046768188477 31.7076454162597656
 17.3940734863281250  3.6482286453247070 31.4851856231689489
 17.8629703521728516  5.9135074615478516 32.1353950500488352
  0.6832695007324215  3.3173704147338867 31.6514434814453125
  1.1477241516113310  5.5861277580261222 32.3168563842773438
  1.5991897583007804  4.2936444282531738 32.0674552917480469
 14.8306236267089826  8.7401609420776367 33.0807151794433665
 14.2894935607910156 10.8898754119873047 34.1487846374511719
 12.5590877532958967  9.1386032104492170 34.1065521240234375
 14.5664615631103516  8.7944736480712891 35.5288658142089844
 14.7549886703491211  7.2156977653503409 33.0029296875000000
 15.0435428619384766  6.7390713691711426 31.5723762512207031
 15.7253894805908203 11.3686838150024414 34.1266670227050781
 11.9271974563598615  9.4454460144042969 32.7599487304687500
 13.8663196563720685  9.3270244598388672 36.7510337829589844
 15.4750661849975586  5.2820429801940918 31.4337100982666016
  1.1050567626953125  4.6062707901000977 35.5517845153808594
  0.5791645050048814 12.8304557800292969 35.6499404907226562
  9.6723566055297852  3.7078390121459956 35.2852554321289062
  9.9311408996582031 13.1654405593872070 35.1811637878418040
  8.2162733078002930  5.5196704864501953 34.9955558776855540
  7.6222209930419913 13.3952398300170898 35.0930824279785227
 16.8583965301513672  4.6630387306213379 35.4460754394531250
 17.5427837371826172 14.8201313018798828 35.1264572143554688
  4.7357983589172363  8.0604200363159180 35.1558189392089844
  3.5995185375213623  0.3514169752597809 35.0763778686523438
 12.7455667713657022 17.8954106867313385 35.3142509460449219
  5.8834009170532218  0.7376276254653931 34.8966255187988281
  4.9470329284667969 10.3726644515991211 34.9623527526855469
 14.8180093765258789  0.8966932296752930 35.1549682617187571
  1.0231590270996094  3.5912289619445801 41.0668945312500071
  0.9228188991546631 12.6953363418579084 41.0742912292480469
  9.8320837020874006  3.5587711334228516 40.9909248352050852
  9.7609214782714826 12.8578748703002912 41.1741065979003906
  3.9119789600372314  8.1182098388671875 41.2028350830078196
  3.5412897327914834 17.3208945393562317 40.9909439086914062
 12.4962396621704102  8.4353895187377930 41.1169052124023438
 12.7474951008334756 17.1965699791908264 41.1679573059082031
  8.3814430236816406  5.3811092376708984 41.0801696777343750
  8.0751810073852539 14.4634885787963867 40.9602203369140696
 17.3688734769821167  5.1460123062133780 41.3444099426269531
 17.1193618774414062 14.0760498046874982 41.2761878967285156
  5.4210224151611328  0.6587213873863220 41.1580810546875000
  5.3219976425170890  9.9785537719726562 41.1172485351562500
 14.3403444290161133  0.8489758372306824 41.1728897094726634
 14.5645751953125000  9.4980888366699201 41.0175552368164062
  0.8273094892501831  3.6869695186614990 47.0359649658203125
  0.8248501420021057 12.7183685302734375 47.0359649658203125
  9.8577098846435547  3.6869695186614990 47.0359649658203125
  9.8552503585815412 12.7183685302734375 47.0359649658203125
  3.6843190193176270  8.2023353576660156 47.0346527099609375
  3.6818594932556152 17.2337341308593750 47.0346527099609375
 12.7147188186645508  8.2023353576660156 47.0346527099609375
 12.7122592926025391 17.2337341308593750 47.0346527099609375
  8.2006769180297852  5.3445744514465332 47.0360260009765696
  8.1982173919677734 14.3759746551513672 47.0360260009765696
 17.2310771942138672  5.3445744514465332 47.0360260009765696
 17.2286186218261719 14.3759746551513672 47.0360260009765696
  5.3436489105224600  0.8290914893150328 47.0346527099609375
  5.3411893844604483  9.8604917526245117 47.0346527099609375
 14.3740482330322266  0.8290914893150328 47.0346527099609375
 14.3715896606445312  9.8604917526245117 47.0346527099609375
 14.0702600479125977  9.3858957290649396 34.2132110595703125
  9.1971573093906045 17.6374253034591675 34.5319824218750000
  8.4666976928710938  9.1056270599365234 34.5882034301757812
  0.1443791538476944  0.2271366119384766 34.4492835998535156
  0.6001317501068115  8.8965320587158203 34.6527023315429759
  4.6023035049438477  4.3812813758850098 34.6718025207519531
  4.1849842071533203 13.8558969497680646 34.4476776123046875
 13.2958002090454102  4.0683546066284180 34.6870689392089844
 13.1085777282714844 14.3827972412109375 34.6391906738281250
 17.9751560473814607 17.7733104825019836 40.8740577697753977
  0.1012915447354317  9.0734815597534180 40.9592590332031250
  8.9776544570922852  0.0273100733757019 40.9038352966308594
  8.9893016815185547  9.0399093627929688 40.8799591064453196
  4.7658567428588867  4.3369216918945312 40.9614982604980469
  4.4318985939025879 13.6025972366332990 40.8450813293457031
 13.4293518066406250  4.7087116241455078 40.9437789916992188
 13.5546865463256836 13.3357925415039062 40.9043617248535156
  2.4786586761474609  2.0922360420227051 38.0533065795898438
  2.6426694393157955 10.9953870773315430 37.8960647583007812
 11.5733404159545881  1.9762198925018311 38.0500907897949290
 11.1410064697265625 11.3922767639160138 38.0333786010742259
  6.6444654464721671  6.9437890052795410 38.0712471008300781
  6.5812973976135254 16.0091056823730469 37.8421020507812500
 16.0331439971923828  6.5698542594909668 38.2782020568847656
 15.5796928405761719 16.0815334320068359 37.8336944580078125
  2.2826921939849854  6.6807565689086914 38.2010650634765625
  2.1092476844787598 15.7603521347045898 37.8759880065917969
 11.1727685928344727  6.6997127532958984 37.6170158386230469
 11.1200284957885742 15.6312561035156232 38.2523689270019531
  7.1881279945373535  2.5500957965850830 37.7557258605957031
  6.8356637954711905 11.4191045761108398 37.9737243652343821
 15.9277343749999982  2.3939828872680664 38.2999916076660227
 16.3036956787109375 11.7253837585449219 38.1718177795410227
  0.0000000000000000  0.0000000000000000 47.1735610961914062
 -0.0024593239650130  9.0313997268676740 47.1735610961914062
  9.0304002761840803  0.0000000000000000 47.1735610961914062
  9.0279407501220685  9.0313997268676740 47.1735610961914062
  4.5139794349670410  4.5156998634338379 47.1742515563964844
  4.5115203857421875 13.5470991134643537 47.1742515563964844
 13.5443792343139648  4.5156998634338379 47.1742515563964844
 13.5419197082519531 13.5470991134643537 47.1742515563964844
  2.4519233703613277  2.0629522800445557 44.0401268005371165
  2.4494640827178955 11.0943517684936523 44.0401268005371165
 11.4823226928710920  2.0629522800445557 44.0401268005371165
 11.4798641204833984 11.0943517684936523 44.0401268005371165
  6.5760178565979004  6.9684472084045410 44.0401268005371165
  6.5735583305358887 15.9998464584350586 44.0401268005371165
 15.6064186096191406  6.9684472084045410 44.0401268005371165
 15.6039590835571289 15.9998464584350586 44.0401268005371165
  2.0610768795013428  6.5788145065307617 44.0400009155273509
  2.0586175918579102 15.6102142333984375 44.0400009155273509
 11.0914773941040039  6.5788145065307617 44.0400009155273509
 11.0890178680419922 15.6102142333984375 44.0400009155273509
  6.9668641090393066  2.4525938034057613 44.0400657653808665
  6.9644045829772949 11.4839935302734375 44.0400657653808665
 15.9972639083862305  2.4525938034057613 44.0400657653808665
 15.9948053359985352 11.4839935302734375 44.0400657653808665
  2.4316265583038330  2.0832188129425049 50.0684852600097656
  2.4291670322418213 11.1146183013915998 50.0684852600097656
 11.4620265960693359  2.0832188129425049 50.0684852600097656
 11.4595670700073224 11.1146183013915998 50.0684852600097656
  6.5963144302368164  6.9481806755065918 50.0684852600097656
  6.5938549041748047 15.9795799255371076 50.0684852600097656
 15.6267137527465803  6.9481806755065918 50.0684852600097656
 15.6242542266845703 15.9795799255371076 50.0684852600097656
  2.0811281204223633  6.5990090370178223 50.0690460205078125
  2.0786688327789307 15.6304082870483398 50.0690460205078125
 11.1115283966064453  6.5990090370178223 50.0690460205078125
 11.1090688705444336 15.6304082870483398 50.0690460205078125
  6.9468131065368652  2.4323906898498531 50.0690460205078125
  6.9443535804748535 11.4637899398803711 50.0690460205078125
 15.9772129058837891  2.4323906898498531 50.0690460205078125
 15.9747543334960938 11.4637899398803711 50.0690460205078125
 18.0458663040772080  0.1154899150133133 37.7465591430664062
  0.1512052863836288  9.0971174240112305 37.7519454956054688
  9.0671743610873818 17.9596443101763725 37.6730041503906321
  9.0027952194213867  9.0449943542480469 37.6945648193359375
  4.6172847747802725  4.5100817680358887 37.8703536987304688
  4.4185123443603516 13.6682348251342756 37.6947898864746094
 13.5185594558715803  4.5371842384338370 37.8615074157714915
 13.5547561645507812 13.7076768875122070 37.7715950012207102
  0.0000090280000222  0.0000090310004452 44.0429992675781250
 -0.0024502959568053  9.0314083099365234 44.0429992675781250
  9.0304088592529297  0.0000090310004452 44.0429992675781250
  9.0279493331909180  9.0314083099365234 44.0429992675781250
  4.5139703750610352  4.5156903266906738 44.0427513122558594
  4.5115113258361816 13.5470905303955078 44.0427513122558594
 13.5443706512451172  4.5156903266906738 44.0427513122558594
 13.5419111251831037 13.5470905303955078 44.0427513122558594
  0.0000000000000000  0.0000000000000000 50.4472808837890696
 -0.0024593239650130  9.0313997268676740 50.4472808837890696
  9.0304002761840803  0.0000000000000000 50.4472808837890696
  9.0279407501220685  9.0313997268676740 50.4472808837890696
  4.5139703750610352  4.5156998634338379 50.4472808837890696
  4.5115113258361816 13.5470991134643537 50.4472808837890696
 13.5443706512451172  4.5156998634338379 50.4472808837890696
 13.5419111251831055 13.5470991134643537 50.4472808837890696
