 H  C  N  I Pb 
 1.0000000000000000
    18.0608005523681641    0.0000000000000000    0.0000000000000000
    -0.0049186488613486   18.0627994537353516    0.0000000000000000
     0.0000000000000000    0.0000000000000000   62.4874992370605469
 H   C   N   I   Pb 
 143  39  47  72  24
Cartesian
  8.5338487625122070  6.0014410018920898 35.6865081787109375
  8.1375055313110352 15.1339702606201172 35.8323135375976634
 16.6543331146240234  4.3813691139221191 36.2935180664062500
 17.0152435302734375 14.7055349349975568 35.9888801574707102
  5.7422132492065421  1.3004057407379150 35.6466102600097656
  6.0875864028930664 10.2342367172241211 35.6085052490234375
 14.3739843368530256  1.5810565948486326 35.8503875732421875
  1.8875999450683605  4.4644804000854492 34.8346061706543040
  1.5624828338623042 12.1909017562866211 35.7937126159668040
  9.9838447570800781  2.7878789901733398 34.9552383422851562
  8.9340648651123047 11.6635246276855469 35.1468734741210938
  6.6382017135620117  0.1321670114994049 34.7439422607421875
  5.1010818481445312 11.4422559738159162 34.8055000305175852
 15.6795768737792969  0.5800714492797852 35.2490768432617259
  1.0386047363281230  4.4176049232482910 36.3436431884765625
  0.0905456542968762 12.5451507568359375 36.6575813293457031
 10.3643054962158203  4.3525924682617188 35.6676864624023438
  8.1812887191772461 12.6900663375854474 36.3171272277832031
  5.1122388839721680  7.9571514129638672 35.8804473876953196
  3.2749850749969478  1.0439819097518921 35.7062377929687500
 12.0850915908813459  0.5328115820884705 35.8083572387695312
  7.0121583938598624  5.4850993156433105 34.9971847534179759
  9.0746536254882812 15.6919641494750977 34.4957351684570312
 15.8637619018554688  4.2533845901489258 34.7589416503906250
 17.8144721984863281 15.6617937088012695 34.7793312072753906
  3.5473222732543945  7.7150325775146484 35.1954269409179688
  2.5520481327548623 17.8390958309173584 34.7802238464355540
 12.0223955372348428 16.9708738327026367 35.1741981506347727
  7.8212299346923828  3.4070875644683833 34.4398651123046875
  9.7110280990600586 13.4968347549438459 33.8877182006836009
 17.9404201507568359  4.3588538169860840 33.5879478454589915
  1.4785423278808580 14.0778131484985352 34.4971961975097656
  3.3676948547363281  9.8977375030517578 34.4436492919921875
  4.6791872242465615 17.0220496654510498 34.1136741638183594
 14.2734131077304482 16.8834495544433594 34.7369499206543040
  8.3991050720214844  5.5835332870483398 42.0973396301269531
  7.9637641906738281 14.5960865020751935 42.0194931030273438
 17.1315986514091492  4.9984111785888672 42.2474021911621094
 16.6687529087066686 13.4435291290283203 42.0798530578613281
  5.5641951560974121  0.9013755321502684 41.9843635559082031
  5.3100895881652832  9.9269046783447248 42.2567863464355469
 14.2970409393310547  0.9516701698303223 42.1689529418945384
 15.2539196014404297  8.5667133331298828 41.5317573547363281
  1.6627161502838133  3.1405575275421143 40.4669723510742188
  1.9078643321990965 12.7822551727294922 40.7550506591796946
 10.4762411117553711  3.0301468372344971 40.4997558593750071
 10.3851346969604492 12.0980901718139648 40.8128662109375071
  3.3474838733673096  7.3820524215698242 40.4764213562011719
  3.0651094177737832 16.7079956531524658 40.4767608642578125
 11.6505889892578125  8.6352500915527344 41.2335052490234375
 12.2759203175082803 16.4689126014709473 40.4571456909179759
  1.0433490276336670  3.3129589557647705 42.0684471130371094
  0.8205875158309937 12.2150316238403320 41.9718551635742259
 10.2133703231811523  3.7824392318725586 42.0574264526367188
  9.7004709243774414 12.6807556152343750 42.3089027404785156
  3.6796057224273677  7.8955612182617179 42.1034851074218750
  3.6038724640384316 17.2054064273834229 42.0531005859375071
 12.9298181533813477  7.6776685714721680 41.8806114196777415
 12.6200002888217551 17.0079346895217896 42.0740432739257812
  7.6068391799926758  5.8496084213256836 40.5872344970703125
  7.6640100479125977 15.0313863754272461 40.3700485229492259
 16.7154750823974609  5.7833132743835449 40.7374725341796875
 16.4561302661895752 14.7305612564086914 40.9283599853515696
  6.0667443275451660  1.3156937360763548 40.3852577209472727
  5.7945752143859863 10.5611152648925781 40.7126617431640625
 14.8715047836303711  1.4870353937149048 40.6265449523925781
 15.4083824157714844 10.0040807723999023 40.5517425537109375
  0.2538710236549377  4.6705331802368164 39.5189323425293040
  0.4833897948265075 14.4283657073974609 39.9849281311035156
  8.8601770401000977  4.2980437278747559 39.4414482116699219
  9.1505184173583984 13.5179357528686523 39.4861831665039062
  4.5753764370456338 18.0124927200376987 39.3203659057617188
  4.6199316978454590  9.0041141510009766 39.4877624511718750
 13.6644539097324014 17.9920057579874992 39.4299545288085938
 13.1020517349243146 10.1760044097900391 40.2280387878417969
  8.1032123565673828  5.4420318603515616 48.0459518432617259
  8.1007528305053711 14.4734306335449219 48.0459518432617259
 17.1336116790771484  5.4420318603515616 48.0459518432617259
 17.1311531066894531 14.4734306335449219 48.0459518432617259
  5.4410333633422852  0.9265221953392029 48.0449485778808594
  5.4385743141174316  9.9579219818115234 48.0449485778808594
 14.4714326858520490  0.9265221953392029 48.0449485778808594
 14.4689741134643555  9.9579219818115234 48.0449485778808594
  1.4218254089355467  3.0919990539550781 46.4558296203613281
  1.4193661212921143 12.1233978271484375 46.4558296203613281
 10.4522256851196289  3.0919990539550781 46.4558296203613281
 10.4497661590576172 12.1233978271484375 46.4558296203613281
  3.0899283885955806  7.6075901985168457 46.4545211791992188
  3.0874691009521484 16.6389904022216797 46.4545211791992188
 12.1203289031982422  7.6075901985168457 46.4545211791992188
 12.1178693771362305 16.6389904022216797 46.4545211791992188
  0.9247469902038573  3.5893490314483643 48.0459518432617259
  0.9222877025604248 12.6207475662231445 48.0459518432617259
  9.9551477432250977  3.5893490314483643 48.0459518432617259
  9.9526882171630859 12.6207475662231445 48.0459518432617259
  3.5868983268737793  8.1048498153686523 48.0448913574218821
  3.5844390392303462 17.1362495422363281 48.0448913574218821
 12.6172990798950195  8.1048498153686523 48.0448913574218821
 12.6148395538330078 17.1362495422363281 48.0448913574218821
  7.6061611175537109  5.9393639564514160 46.4558296203613281
  7.6037015914916992 14.9707632064819336 46.4558296203613281
 16.6365604400634766  5.9393639564514160 46.4558296203613281
 16.6341018676757812 14.9707632064819336 46.4558296203613281
  5.9380125999450684  1.4238001108169553 46.4545211791992188
  5.9355530738830566 10.4551992416381836 46.4545211791992188
 14.9684123992919904  1.4238001108169553 46.4545211791992188
 14.9659538269042951 10.4551992416381836 46.4545211791992188
 -0.0011664569610730  4.5157265663146973 45.3548011779785156
 -0.0036257810425013 13.5471258163452148 45.3548011779785156
  9.0292339324951172  4.5157265663146973 45.3548011779785156
  9.0267744064331037 13.5471258163452148 45.3548011779785156
  4.5152091979980469  0.0000000000000000 45.3536758422851562
  4.5127501487731934  9.0313997268676740 45.3536758422851562
 13.5456094741821289  0.0000000000000000 45.3536758422851562
 13.5431499481201172  9.0313997268676740 45.3536758422851562
 12.9832878112792969  7.9532327651977539 33.8403549194335938
 13.3099746704101562  8.9078502655029297 32.4128456115722727
 11.9057722091674787  9.9924097061157209 34.9396743774414062
 12.7914676666259766 11.5262155532836914 34.7919692993164062
 15.3172950744628906  9.1376171112060547 35.5988006591796875
 14.2449302673339844 10.3765478134155273 36.2097702026367188
 15.6773443222045898 10.1489791870117188 33.1188201904296875
 14.3588466644287109 11.2827043533325195 32.7748718261718750
 15.6911106109619123  8.3599643707275391 32.4016914367675781
 15.5811471939086914  7.6440744400024414 34.0039710998535227
 15.7141084671020508  5.8766455650329590 32.3865928649902344
 14.1322765350341797  5.8130125999450684 33.1309661865234446
 11.4670953750610352  9.9547624588012695 32.4764709472656250
 12.4130887985229474 11.4708576202392578 32.2699241638183594
 10.9469652175903320 11.4304647445678711 33.2569885253906250
 13.6093034744262695  8.3896265029907227 37.3358116149902344
 13.6376781463623047  7.3898615837097168 35.8852043151855469
 12.3386373519897461  8.5874824523925781 36.1125297546386719
 14.7678442001342756 12.4495143890380859 34.9448699951171875
 16.2858581542968750 12.3352575302124023 34.0185737609863281
 16.0280361175537109 11.2596197128295898 35.3869590759277344
 14.8002376556396484  6.8975782394409180 30.3177356719970739
 14.1301298141479492  5.2974596023559570 30.7086200714111328
 11.9589796066284180  5.6170845031738272 32.5132522583007812
 13.1686296463012695  8.3329944610595703 29.3706588745117223
  9.6896982192993164  6.6115822792053223 32.4917411804199219
 10.8716049194335920  9.2929592132568359 29.3344745635986328
  9.1305894851684570  8.4420738220214844 30.9130325317382812
 17.9008178710937500  4.3783149719238281 34.6862220764160156
  0.6435985565185564 13.8959474563598633 35.1887474060058594
  8.4966812133789062  4.1344151496887207 34.8952026367187500
  9.0784130096435547 13.6738586425781250 34.7579269409179688
  4.2895588874816895  9.5823183059692383 34.9299621582031250
  4.6036738613620400 17.9308441281318665 34.7094268798828196
 13.8493856647983193 17.7947384417057037 35.1577186584472656
  0.1534878462553024  4.4721574783325195 40.5772628784179759
  0.1567973792552948 13.7851781845092773 40.8071594238281250
  9.0400199890136719  4.4484004974365234 40.4969444274902344
  9.0199155807495117 13.5640792846679688 40.5691833496093750
  4.5813689231872550  8.9619722366333008 40.5747604370117259
  4.5687402943149209 18.0468966923654079 40.4069938659667969
 13.5019979476928711  9.3512220382690430 40.8294143676757812
 13.5801786640658975 18.0095144100487232 40.5146446228027344
  9.0289716720581055  4.5156092643737793 46.4455223083496165
  9.0265130996704102 13.5470085144042969 46.4455223083496165
 18.0593719482421875  4.5156092643737793 46.4455223083496165
 18.0569133758544922 13.5470085144042969 46.4455223083496165
  4.5152091979980469  0.0000180629995157 46.4442062377929759
  4.5127501487731934  9.0314178466796857 46.4442062377929759
 13.5456094741821289  0.0000180629995157 46.4442062377929759
 13.5431499481201172  9.0314178466796857 46.4442062377929759
 12.7295608520507812  6.9048347473144522 30.9450359344482422
 11.7282505035400391  6.4220170974731436 31.8116855621337891
 12.3956909179687500  7.9346504211425781 30.0528392791748047
 10.4501705169677734  6.9612226486206055 31.7936382293701172
 11.1037817001342756  8.4751024246215820 30.0316658020019567
 10.1399927139282227  7.9951229095458984 30.9095363616943395
 13.7422142028808594  8.5744113922119141 33.3500671386718750
 12.5603380203247070 10.5783367156982422 34.2804527282714844
 14.2735567092895508  9.4527072906494141 35.6262168884277344
 14.9040441513061506 10.7685461044311523 33.5791244506835938
 15.0213365554809570  7.7899818420410156 33.0700950622558665
 14.7530384063720703  6.4129877090454093 32.4525260925293040
 11.8417959213256836 10.8564758300781250 32.9771156311035156
 13.4033813476562500  8.3913812637329102 36.2576828002929688
 15.5205411911010724 11.7518634796142560 34.5501174926757812
 14.1372356414794922  6.3595304489135742 31.0381107330322301
  0.9823493957519538  4.3766126632690430 35.3231887817382812
  0.7537937164306646 12.8103313446044922 35.9158363342285227
  9.7311811447143555  3.7642948627471924 35.1164665222167969
  8.7535257339477539 12.6264228820800763 35.4722442626953196
  8.0056133270263672  5.3178286552429199 35.1564903259277344
  8.7124948501586914 14.8997879028320312 35.0118522644042969
 16.7341918945312500  4.4111680984497070 35.2733688354492188
 17.7036285400390625 14.7464017868041992 35.2378082275390696
  4.3451957702636719  8.3349390029907227 35.3339958190917969
  3.4100639820098873  0.2756314277648926 35.0583572387695384
 12.5512651661410928 17.8316400647163391 35.3342247009277344
  5.7109889984130859  0.4994029998779297 35.0185470581054688
  5.2536640167236319 10.4574680328369123 35.0820083618164062
 14.6755275726318359  0.7074977755546570 35.4474487304687500
  0.9934689998626709  3.5861089229583740 41.0822677612304688
  1.0098391771316528 12.8555660247802734 41.2071647644042969
  9.9800786972045898  3.7107050418853760 41.0677566528320312
  9.7379713058471680 12.7322359085082990 41.2901878356933665
  3.8447945117950439  8.0180568695068359 41.1042747497558594
  3.6900626877322793 17.2833096981048584 41.0332260131835938
 12.6542053222656250  8.4782333374023438 41.3203468322753906
 12.7843403080478311 17.1110486984252930 41.0655250549316406
  8.3201389312744141  5.3458256721496582 41.1024818420410156
  8.1718482971191406 14.4408397674560547 41.0270996093750000
 17.2921456098556519  5.1222715377807617 41.2511444091796946
 17.0439672470092773 14.0154056549072248 41.3340148925781321
  5.4435968399047852  0.7688095569610595 40.9711380004882812
  5.2704191207885733  9.8594007492065430 41.2372207641601562
 14.2830104827880859  0.8405585289001464 41.1504020690918040
 14.7953062057495117  9.3068847656250000 40.9892044067382812
  0.8273094892501831  3.6869695186614990 47.0359649658203125
  0.8248501420021057 12.7183685302734375 47.0359649658203125
  9.8577098846435547  3.6869695186614990 47.0359649658203125
  9.8552503585815412 12.7183685302734375 47.0359649658203125
  3.6843190193176270  8.2023353576660156 47.0346527099609375
  3.6818594932556152 17.2337341308593750 47.0346527099609375
 12.7147188186645508  8.2023353576660156 47.0346527099609375
 12.7122592926025391 17.2337341308593750 47.0346527099609375
  8.2006769180297852  5.3445744514465332 47.0360260009765696
  8.1982173919677734 14.3759746551513672 47.0360260009765696
 17.2310771942138672  5.3445744514465332 47.0360260009765696
 17.2286186218261719 14.3759746551513672 47.0360260009765696
  5.3436489105224600  0.8290914893150328 47.0346527099609375
  5.3411893844604483  9.8604917526245117 47.0346527099609375
 14.3740482330322266  0.8290914893150328 47.0346527099609375
 14.3715896606445312  9.8604917526245117 47.0346527099609375
 13.8928251266479492  9.8220319747924805 34.2058830261230469
  9.1907949447631836  0.2641921043395996 34.4275741577148509
  8.7169523239135742  9.1732378005981445 34.6573371887207031
 17.9989793784916401  0.1434705853462219 34.4862289428711009
  0.5744481682777405  9.1472282409667969 34.6826667785644531
  4.5033869743347168  4.4783744812011719 34.5654220581054688
  4.3453021049499512 13.8415508270263672 34.5285606384277344
 13.2167253494262678  3.8053214550018311 34.7419433593750000
 12.6563892364501953 14.3619737625122070 34.6101913452148509
 18.0409226072952151 17.8993204832077026 40.9003372192382812
  0.3003910779953003  8.9399166107177734 40.9732666015625000
  9.0680274963378906  0.0818449482321739 40.8754653930664134
  9.1104354858398420  8.9506368637084961 40.9426231384277344
  4.6407752037048340  4.3810181617736816 40.9326515197753906
  4.5385570526123038 13.6806116104125977 40.8992042541503977
 13.4837198257446289  4.8524818420410147 40.9523124694824219
 13.4796762466430664 13.4380817413330060 40.8516845703125000
  2.3999350070953369  2.1487193107604980 37.9712448120117188
  2.7105150222778320 10.9671754837036133 38.1343040466308594
 11.5548477172851562  2.0597531795501709 38.1179962158203125
 11.3222484588623047 11.2362995147705078 38.1734466552734375
  6.5656723976135245  7.0025696754455566 38.0214843750000000
  6.7381758689880371 15.9361352920532227 37.8891563415527344
 16.0155467987060547  6.6980566978454590 38.1563606262207031
 15.6535997390747053 15.8846302032470703 37.9731788635253906
  2.2143936157226562  6.5938749313354492 38.0245170593261719
  2.2218897342681885 15.8436269760131818 37.9660148620605540
 10.7045183181762695  6.2429876327514648 37.6788749694824290
 11.0952882766723633 15.6405992507934553 38.2341346740722656
  6.9366903305053711  2.3852875232696533 37.8448028564453125
  6.8855652809143066 11.4215478897094727 38.2428779602050781
 15.9630813598632795  2.4950723648071289 38.2553405761718821
 16.3664455413818359 11.6592159271240234 38.4817771911621094
  0.0000000000000000  0.0000000000000000 47.1735610961914062
 -0.0024593239650130  9.0313997268676740 47.1735610961914062
  9.0304002761840803  0.0000000000000000 47.1735610961914062
  9.0279407501220685  9.0313997268676740 47.1735610961914062
  4.5139794349670410  4.5156998634338379 47.1742515563964844
  4.5115203857421875 13.5470991134643537 47.1742515563964844
 13.5443792343139648  4.5156998634338379 47.1742515563964844
 13.5419197082519531 13.5470991134643537 47.1742515563964844
  2.4519233703613277  2.0629522800445557 44.0401268005371165
  2.4494640827178955 11.0943517684936523 44.0401268005371165
 11.4823226928710920  2.0629522800445557 44.0401268005371165
 11.4798641204833984 11.0943517684936523 44.0401268005371165
  6.5760178565979004  6.9684472084045410 44.0401268005371165
  6.5735583305358887 15.9998464584350586 44.0401268005371165
 15.6064186096191406  6.9684472084045410 44.0401268005371165
 15.6039590835571289 15.9998464584350586 44.0401268005371165
  2.0610768795013428  6.5788145065307617 44.0400009155273509
  2.0586175918579102 15.6102142333984375 44.0400009155273509
 11.0914773941040039  6.5788145065307617 44.0400009155273509
 11.0890178680419922 15.6102142333984375 44.0400009155273509
  6.9668641090393066  2.4525938034057613 44.0400657653808665
  6.9644045829772949 11.4839935302734375 44.0400657653808665
 15.9972639083862305  2.4525938034057613 44.0400657653808665
 15.9948053359985352 11.4839935302734375 44.0400657653808665
  2.4316265583038330  2.0832188129425049 50.0684852600097656
  2.4291670322418213 11.1146183013915998 50.0684852600097656
 11.4620265960693359  2.0832188129425049 50.0684852600097656
 11.4595670700073224 11.1146183013915998 50.0684852600097656
  6.5963144302368164  6.9481806755065918 50.0684852600097656
  6.5938549041748047 15.9795799255371076 50.0684852600097656
 15.6267137527465803  6.9481806755065918 50.0684852600097656
 15.6242542266845703 15.9795799255371076 50.0684852600097656
  2.0811281204223633  6.5990090370178223 50.0690460205078125
  2.0786688327789307 15.6304082870483398 50.0690460205078125
 11.1115283966064453  6.5990090370178223 50.0690460205078125
 11.1090688705444336 15.6304082870483398 50.0690460205078125
  6.9468131065368652  2.4323906898498531 50.0690460205078125
  6.9443535804748535 11.4637899398803711 50.0690460205078125
 15.9772129058837891  2.4323906898498531 50.0690460205078125
 15.9747543334960938 11.4637899398803711 50.0690460205078125
 18.0009372383356094  0.0529206320643425 37.8078880310058594
  0.1185203194618225  9.1390266418457013 37.8057861328125000
  9.0649938583374023  0.1007722541689873 37.7527084350585938
  9.0537786483764648  9.0529842376708984 37.7928810119628977
  4.5307879447937012  4.6009445190429688 37.7726745605468750
  4.4556007385253906 13.6021947860717773 37.7339744567871094
 13.4659690856933576  4.6350069046020508 37.8243446350097727
 13.3832235336303711 13.6800327301025391 37.6626739501953125
  0.0000090280000222  0.0000090310004452 44.0429992675781250
 -0.0024502959568053  9.0314083099365234 44.0429992675781250
  9.0304088592529297  0.0000090310004452 44.0429992675781250
  9.0279493331909180  9.0314083099365234 44.0429992675781250
  4.5139703750610352  4.5156903266906738 44.0427513122558594
  4.5115113258361816 13.5470905303955078 44.0427513122558594
 13.5443706512451172  4.5156903266906738 44.0427513122558594
 13.5419111251831037 13.5470905303955078 44.0427513122558594
  0.0000000000000000  0.0000000000000000 50.4472808837890696
 -0.0024593239650130  9.0313997268676740 50.4472808837890696
  9.0304002761840803  0.0000000000000000 50.4472808837890696
  9.0279407501220685  9.0313997268676740 50.4472808837890696
  4.5139703750610352  4.5156998634338379 50.4472808837890696
  4.5115113258361816 13.5470991134643537 50.4472808837890696
 13.5443706512451172  4.5156998634338379 50.4472808837890696
 13.5419111251831055 13.5470991134643537 50.4472808837890696
