 H  C  N  I Pb 
 1.0000000000000000
    18.0608005523681641    0.0000000000000000    0.0000000000000000
    -0.0049186488613486   18.0627994537353516    0.0000000000000000
     0.0000000000000000    0.0000000000000000   62.4874992370605469
 H   C   N   I   Pb 
 143  39  47  72  24
Cartesian
  8.1741886138916016  6.0650215148925772 35.2645530700683594
  7.8261713981628418 14.9880514144897461 35.6225547790527415
 17.3575839996337891  5.9353871345520020 35.9861640930175781
 17.0598144531250000 14.7551250457763672 35.8095321655273438
  6.0173072079196563 17.2526395916938782 35.7565345764160227
  6.3297986984252930  9.9460601806640625 34.8667144775390625
 14.5573816299438477  1.5892561674118042 35.2630615234375000
  0.1937541961669924  2.5900580883026123 34.9583396911621094
  1.2866916656494152 11.9551324844360334 35.6193428039550852
  9.9638204574584961  2.8848435878753662 34.8766937255859375
  8.9642353057861328 11.6289987564086896 34.9378585815429688
  6.5788474082946777  0.5217911005020142 34.7833633422851562
  5.3084297180175772 11.3586750030517578 34.5496253967285156
 15.8700675964355451  0.4812966585159302 34.8080596923828125
 17.2386550903320312  3.4774587154388428 36.0858917236328125
 17.8995304107666016 12.4725790023803693 36.4291954040527415
 10.2278518676757812  4.5279164314270020 35.4458999633789062
  7.8701338768005371 12.5296831130981445 35.9335060119628906
  5.0706152915954590  7.9375329017639151 35.7605895996093750
  3.6253554085269570 16.7600642442703247 35.7799491882324219
 12.3227157592773420  0.5594968795776367 35.6132049560546875
  6.7299480438232413  5.2640690803527832 34.6738281250000000
  9.0244464874267578 15.6998176574707031 34.5761260986328125
  0.3369102478027382  6.6551203727722168 34.7945137023925852
 17.9566631317138672 15.6420297622680646 34.6272544860839844
  3.3297994136810303  8.0112924575805664 35.5705566406250000
  2.5434669712558384 17.8921983838081360 34.9963035583496094
 12.2023033360019326 16.9025177955627441 35.2176895141601562
  7.7813167572021475  3.2534229755401611 34.2926788330078196
  9.8725547790527344 13.5830316543579102 33.9616699218750000
  1.1301612854003922  4.5482535362243643 34.0703620910644531
  1.5041656494140609 13.9307184219360352 34.3876419067382884
  3.3271632194519043 10.1519784927368164 34.7942237854003906
  4.3561406135559082  1.1687167882919309 34.2388496398925852
 14.4125427464023232 16.7155575752258301 34.6824417114257884
  8.7845392227172852  6.1379008293151855 41.2857322692871094
  8.1082315444946289 14.6456575393676740 42.0908126831054688
 17.4211496710777318  5.1379728317260742 42.2510223388671875
 16.8072504997253418 13.0807552337646484 42.0408706665039062
  5.5766572952270508  1.0325258970260620 41.8320999145507884
  5.3784217834472656  9.9103469848632812 42.1838493347168040
 14.4624147415161133  1.0171986818313599 42.1333961486816406
 13.7753305435180664 10.7891025543212891 41.0249061584472727
  1.5613424777984619  2.9513032436370850 40.2895317077636719
  2.1102595329284668 13.0299034118652344 40.6905288696289062
 10.2688007354736328  2.8360917568206787 40.8105316162109375
 10.1996955871582031 12.0018129348754865 40.6388511657714844
  3.1928360462188716  7.4904561042785645 40.4754753112793040
  3.1091782310977578 16.6095635890960693 40.6828689575195312
 12.5981912612915039  7.3429450988769531 41.2099647521972656
 12.1718878010287881 16.6146509647369385 40.6499099731445384
  1.1415568590164182  3.2946422100067139 41.9508552551269602
  1.0817494392395020 12.2175388336181641 41.8253974914550781
 10.7190685272216797  4.4613771438598633 41.2164878845214844
  9.6440610885620117 12.5483789443969727 42.2051506042480540
  3.5879333019256587  8.0072803497314453 42.0990295410156321
  3.7358705261722207 17.2592774033546448 42.1704139709472656
 12.0058174133300781  8.9829463958740234 41.3142814636230469
 12.5911668995395303 17.2793920040130615 42.2055931091308665
  7.1996684074401855  5.4334845542907706 41.0246543884277415
  7.8479957580566406 15.2496566772460938 40.4853897094726562
 16.9085698127746582  5.8733968734741211 40.7632217407226562
 16.3457705974578893 14.3556365966796875 40.9551811218261719
  5.9361109733581543  1.3589526414871216 40.1575317382812500
  5.9341378211975089 10.4298782348632812 40.6219596862792969
 15.0525217056274414  1.3648574352264404 40.5249633789062500
 15.3822212219238263 10.2151832580566388 40.7157897949218750
  0.1604059189558029  4.5670776367187500 39.4259262084960938
  0.4093472659587860 14.4767074584960938 39.9770965576171875
  8.0151834487915039  3.3083431720733643 40.6367187500000000
  9.1318330764770508 13.6432847976684553 39.4610519409179759
  4.4263381222262979 17.9041749835014343 39.3282966613769531
  4.6420474052429199  8.9403715133666992 39.4472122192382812
 13.6803955296054482 17.8906454741954803 39.4808921813964844
 14.7839784622192383  7.9722914695739746 40.7945632934570312
  8.1032123565673828  5.4420318603515616 48.0459518432617259
  8.1007528305053711 14.4734306335449219 48.0459518432617259
 17.1336116790771484  5.4420318603515616 48.0459518432617259
 17.1311531066894531 14.4734306335449219 48.0459518432617259
  5.4410333633422852  0.9265221953392029 48.0449485778808594
  5.4385743141174316  9.9579219818115234 48.0449485778808594
 14.4714326858520490  0.9265221953392029 48.0449485778808594
 14.4689741134643555  9.9579219818115234 48.0449485778808594
  1.4218254089355467  3.0919990539550781 46.4558296203613281
  1.4193661212921143 12.1233978271484375 46.4558296203613281
 10.4522256851196289  3.0919990539550781 46.4558296203613281
 10.4497661590576172 12.1233978271484375 46.4558296203613281
  3.0899283885955806  7.6075901985168457 46.4545211791992188
  3.0874691009521484 16.6389904022216797 46.4545211791992188
 12.1203289031982422  7.6075901985168457 46.4545211791992188
 12.1178693771362305 16.6389904022216797 46.4545211791992188
  0.9247469902038573  3.5893490314483643 48.0459518432617259
  0.9222877025604248 12.6207475662231445 48.0459518432617259
  9.9551477432250977  3.5893490314483643 48.0459518432617259
  9.9526882171630859 12.6207475662231445 48.0459518432617259
  3.5868983268737793  8.1048498153686523 48.0448913574218821
  3.5844390392303462 17.1362495422363281 48.0448913574218821
 12.6172990798950195  8.1048498153686523 48.0448913574218821
 12.6148395538330078 17.1362495422363281 48.0448913574218821
  7.6061611175537109  5.9393639564514160 46.4558296203613281
  7.6037015914916992 14.9707632064819336 46.4558296203613281
 16.6365604400634766  5.9393639564514160 46.4558296203613281
 16.6341018676757812 14.9707632064819336 46.4558296203613281
  5.9380125999450684  1.4238001108169553 46.4545211791992188
  5.9355530738830566 10.4551992416381836 46.4545211791992188
 14.9684123992919904  1.4238001108169553 46.4545211791992188
 14.9659538269042951 10.4551992416381836 46.4545211791992188
 -0.0011664569610730  4.5157265663146973 45.3548011779785156
 -0.0036257810425013 13.5471258163452148 45.3548011779785156
  9.0292339324951172  4.5157265663146973 45.3548011779785156
  9.0267744064331037 13.5471258163452148 45.3548011779785156
  4.5152091979980469  0.0000000000000000 45.3536758422851562
  4.5127501487731934  9.0313997268676740 45.3536758422851562
 13.5456094741821289  0.0000000000000000 45.3536758422851562
 13.5431499481201172  9.0313997268676740 45.3536758422851562
 14.0142221450805646 10.0575971603393555 32.4532508850097656
 12.9871959686279297  8.6517868041992188 32.7825546264648438
 15.6803693771362305  9.0534563064575195 33.6405830383300781
 15.5212163925170898  8.7082185745239258 35.3595581054687500
 13.4444808959960938 11.5869274139404297 34.9904670715332031
 14.6835680007934570 10.7879104614257812 35.9714546203613352
 12.0380792617797852  9.8823356628417969 35.5457382202148438
 12.2991590499877930  8.2051868438720703 35.0054359436035156
 11.1429119110107404 10.0968980789184570 33.5626640319824219
 12.1678495407104492 11.5448026657104492 33.4167938232421875
 10.9485769271850586 11.6627693176269531 31.4623279571533203
 12.4039115905761719 10.8831310272216797 30.8709564208984411
 14.2112255096435529  7.0322456359863281 33.1041450500488281
 14.0476446151733398  6.7200751304626465 34.8405189514160156
 15.6281785964965820  6.6302161216735840 34.0695686340332031
 15.5875501632690430 12.5792102813720703 34.5412483215332031
 15.1627616882324201 11.6914072036743164 33.0792999267578125
 16.3749599456787109 11.0107078552246094 34.2070045471191477
 13.9153852462768555  9.5421485900878888 37.2791748046875000
 13.9703559875488281  7.8342623710632324 36.7983818054199219
 12.5000886917114258  8.5223770141601562 37.4896392822265625
  9.7096815109252912  9.5433244705200195 31.5355129241943359
 10.3674869537353516  9.8597764968872070 29.9202041625976562
 12.6885538101196289  8.6800298690795898 29.3598709106445312
 10.0523004531860352  7.4880790710449219 32.5367660522460938
 13.8192739486694336  6.4732928276062003 29.4697723388671875
 11.1968965530395508  5.2773518562316886 32.6669387817382884
 13.1005392074584961  4.7756891250610352 31.1557579040527344
  0.3391056060791030  4.6095662117004395 34.8223953247070312
  0.6440620422363289 13.7922267913818359 35.0456428527832031
  8.3578681945800781  4.0902891159057617 34.6914367675781250
  9.0377492904663086 13.6562728881835938 34.6630363464355540
  4.2942671775817871  9.6713104248046875 34.9864616394042969
  4.5443935394287100  0.2593807578086853 34.8243980407714915
 14.0394291142001748 17.6965078115463257 34.9956054687500000
  0.1966790109872818  4.4179348945617676 40.5066032409667969
  0.2038598358631134 13.7420845031738281 40.7639083862304688
  8.7096452713012695  4.1111435890197754 40.8981781005859446
  9.0261163711547852 13.6260404586791992 40.5372581481933594
  4.5699124336242667  8.9539966583251953 40.5362968444824219
  4.5230626324191689 18.0163842812180519 40.4084205627441406
 14.0235090255737305  8.7445278167724609 40.9455680847167969
 13.6205724934116006 18.0125887840986252 40.5639724731445312
  9.0289716720581055  4.5156092643737793 46.4455223083496165
  9.0265130996704102 13.5470085144042969 46.4455223083496165
 18.0593719482421875  4.5156092643737793 46.4455223083496165
 18.0569133758544922 13.5470085144042969 46.4455223083496165
  4.5152091979980469  0.0000180629995157 46.4442062377929759
  4.5127501487731934  9.0314178466796857 46.4442062377929759
 13.5456094741821289  0.0000180629995157 46.4442062377929759
 13.5431499481201172  9.0314178466796857 46.4442062377929759
 11.3004112243652344  8.2397947311401367 30.9654407501220739
 12.3568868637084961  7.9314246177673340 30.0995731353759801
 10.8793516159057617  7.2613945007324219 31.8664093017578089
 12.9943103790283203  6.6946320533752441 30.1523437500000000
 11.5191793441772461  6.0215353965759277 31.9379425048828161
 12.5871591567993164  5.7335124015808105 31.0870971679687536
 13.2133855819702148  9.6741933822631836 33.0905647277832031
 15.0083990097045898  8.6290950775146484 34.3926429748535227
 14.3224277496337891 10.9303331375122070 34.9495582580566406
 12.7796325683593750  9.0799427032470703 35.4613533020019602
 11.9643869400024414 10.5438776016235352 32.9808158874511719
 11.5272588729858398 10.7310380935668928 31.5175437927246094
 14.6842899322509766  7.1863188743591309 34.0808143615722727
 15.4299860000610352 11.5678873062133771 34.1328506469726562
 13.3406629562377930  8.7344865798950195 36.8164520263671875
 10.6480998992919922  9.6015129089355469 30.9527664184570312
 17.9414501190185547  3.4910273551940918 35.3259124755859375
  0.5821990966796866 12.6806707382202148 35.7345504760742259
  9.6240186691284180  3.8518733978271484 34.9553031921386719
  8.5684394836425781 12.5425519943237305 35.1805191040039062
  7.7410192489624023  5.2344980239868164 34.8399467468261719
  8.5641212463378906 14.8537826538085938 34.9244384765625000
 17.9778156280517578  5.8000464439392081 35.1743240356445384
 17.7883224487304688 14.7387685775756836 35.0844383239746094
  4.2476687431335449  8.4191656112670898 35.3797492980957102
  3.5129913548007607 17.5982795357704163 35.2047348022460938
 12.7551845768466574 17.7710436582565308 35.2524452209472656
  5.7812484959140420 18.0211993902921677 35.1198081970214844
  5.3958768844604492 10.3576393127441388 34.7890052795410156
 14.8872823715209961  0.6360346674919128 35.0791358947753906
  1.0111229419708252  3.4871671199798584 40.9632492065429688
  1.1776134967803955 12.9075908660888654 41.0810127258300852
  9.9844894409179688  3.7933816909790035 40.9925003051757812
  9.6465597152709961 12.6664619445800781 41.1860961914062500
  3.7270328998565669  8.1104173660278320 41.0858764648437500
  3.7463621357455845 17.2604802846908569 41.1505699157714844
 12.7836284637451172  8.3433380126953125 41.1328163146972727
 12.7508472660556436 17.2592929601669312 41.1982307434082102
  8.2131805419921875  5.3070130348205566 41.0796546936035227
  8.2945365905761719 14.5643815994262695 41.0907440185546875
 17.4836906194686890  5.1826953887939453 41.2381401062011719
 17.0713239312171936 13.7339801788330078 41.3023872375488281
  5.4019436836242676  0.8238657116889954 40.8432197570800781
  5.3405609130859366  9.8056192398071289 41.1718635559082102
 14.4201440811157227  0.8311719894409180 41.1211166381835938
 14.4105472564697248  9.9945983886718750 40.9359893798828196
  0.8273094892501831  3.6869695186614990 47.0359649658203125
  0.8248501420021057 12.7183685302734375 47.0359649658203125
  9.8577098846435547  3.6869695186614990 47.0359649658203125
  9.8552503585815412 12.7183685302734375 47.0359649658203125
  3.6843190193176270  8.2023353576660156 47.0346527099609375
  3.6818594932556152 17.2337341308593750 47.0346527099609375
 12.7147188186645508  8.2023353576660156 47.0346527099609375
 12.7122592926025391 17.2337341308593750 47.0346527099609375
  8.2006769180297852  5.3445744514465332 47.0360260009765696
  8.1982173919677734 14.3759746551513672 47.0360260009765696
 17.2310771942138672  5.3445744514465332 47.0360260009765696
 17.2286186218261719 14.3759746551513672 47.0360260009765696
  5.3436489105224600  0.8290914893150328 47.0346527099609375
  5.3411893844604483  9.8604917526245117 47.0346527099609375
 14.3740482330322266  0.8290914893150328 47.0346527099609375
 14.3715896606445312  9.8604917526245117 47.0346527099609375
 13.8224792480468750  9.5741653442382812 34.4722442626953125
  9.2768392562866211  0.3162898123264313 34.4898338317871094
  8.6963167190551758  8.9371461868286133 34.6607017517089844
  0.1985013633966446  0.0997427478432655 34.2654571533203125
  0.6828155517578125  9.1610918045043945 34.5746040344238281
  4.2807145118713379  4.3643460273742676 34.4976119995117259
  4.6253242492675781 13.8284187316894531 34.5954742431640625
 13.3268775939941406  3.6828932762145992 34.6535530090332031
 12.6604089736938459 14.3031940460205078 34.6364440917968750
  0.0280433269217610 17.7503326237201691 40.8275604248046875
 18.0042149648070371  9.1442461013793928 40.9193916320800781
  8.9895000457763672  0.2200039923191071 40.8755683898925781
  9.1806297302246094  8.8522272109985352 40.9240226745605540
  4.6976227760314941  4.4424123764038086 40.8857612609863281
  4.6677451133728027 13.6243171691894531 40.9106788635253977
 13.4897403717041016  4.8071627616882315 40.8966369628906250
 13.4759588241577148 13.5351114273071289 40.8914489746093821
  2.4465067386627197  2.0269360542297363 37.9386177062988352
  2.7128868103027344 10.9295988082885724 37.9958763122558594
 11.6969776153564453  1.8900544643402100 38.0837211608886719
 11.1257448196411133 11.3476457595825195 38.0607566833496094
  6.4813385009765616  6.9958586692810059 37.7790336608886790
  6.7702121734619141 15.8933181762695312 37.8895912170410156
 16.0760002136230469  6.5888719558715820 38.0702857971191477
 15.6934299468994141 15.8401489257812500 37.7749443054199219
  2.2090106010437012  6.6480698585510254 38.1011962890625071
  2.2365474700927734 15.6372356414794922 37.9516830444335938
 10.7102880477905273  6.1100802421569824 37.5658073425293040
 11.1374006271362287 15.7435216903686506 38.2925148010253906
  6.9821534156799316  2.4314901828765869 37.7748985290527344
  6.9500241279602051 11.3507909774780273 38.1767311096191406
 16.0195732116699219  2.4057006835937500 38.1397361755371165
 16.1713142395019531 11.6617059707641602 38.1342430114746094
  0.0000000000000000  0.0000000000000000 47.1735610961914062
 -0.0024593239650130  9.0313997268676740 47.1735610961914062
  9.0304002761840803  0.0000000000000000 47.1735610961914062
  9.0279407501220685  9.0313997268676740 47.1735610961914062
  4.5139794349670410  4.5156998634338379 47.1742515563964844
  4.5115203857421875 13.5470991134643537 47.1742515563964844
 13.5443792343139648  4.5156998634338379 47.1742515563964844
 13.5419197082519531 13.5470991134643537 47.1742515563964844
  2.4519233703613277  2.0629522800445557 44.0401268005371165
  2.4494640827178955 11.0943517684936523 44.0401268005371165
 11.4823226928710920  2.0629522800445557 44.0401268005371165
 11.4798641204833984 11.0943517684936523 44.0401268005371165
  6.5760178565979004  6.9684472084045410 44.0401268005371165
  6.5735583305358887 15.9998464584350586 44.0401268005371165
 15.6064186096191406  6.9684472084045410 44.0401268005371165
 15.6039590835571289 15.9998464584350586 44.0401268005371165
  2.0610768795013428  6.5788145065307617 44.0400009155273509
  2.0586175918579102 15.6102142333984375 44.0400009155273509
 11.0914773941040039  6.5788145065307617 44.0400009155273509
 11.0890178680419922 15.6102142333984375 44.0400009155273509
  6.9668641090393066  2.4525938034057613 44.0400657653808665
  6.9644045829772949 11.4839935302734375 44.0400657653808665
 15.9972639083862305  2.4525938034057613 44.0400657653808665
 15.9948053359985352 11.4839935302734375 44.0400657653808665
  2.4316265583038330  2.0832188129425049 50.0684852600097656
  2.4291670322418213 11.1146183013915998 50.0684852600097656
 11.4620265960693359  2.0832188129425049 50.0684852600097656
 11.4595670700073224 11.1146183013915998 50.0684852600097656
  6.5963144302368164  6.9481806755065918 50.0684852600097656
  6.5938549041748047 15.9795799255371076 50.0684852600097656
 15.6267137527465803  6.9481806755065918 50.0684852600097656
 15.6242542266845703 15.9795799255371076 50.0684852600097656
  2.0811281204223633  6.5990090370178223 50.0690460205078125
  2.0786688327789307 15.6304082870483398 50.0690460205078125
 11.1115283966064453  6.5990090370178223 50.0690460205078125
 11.1090688705444336 15.6304082870483398 50.0690460205078125
  6.9468131065368652  2.4323906898498531 50.0690460205078125
  6.9443535804748535 11.4637899398803711 50.0690460205078125
 15.9772129058837891  2.4323906898498531 50.0690460205078125
 15.9747543334960938 11.4637899398803711 50.0690460205078125
 -0.0039593193796463 18.0361832194030285 37.7775497436523438
  0.1219852343201637  9.1112403869628906 37.7841339111328125
  9.1254768371582031  0.1160880252718925 37.7231063842773438
  9.0108222961425781  8.8907785415649414 37.7863044738769531
  4.4838299751281738  4.4570016860961914 37.6401710510253906
  4.5658226013183585 13.4571657180786133 37.7371330261230469
 13.4361886978149414  4.4421954154968262 37.6553421020507884
 13.3238458633422852 13.6357736587524396 37.6833457946777344
  0.0000090280000222  0.0000090310004452 44.0429992675781250
 -0.0024502959568053  9.0314083099365234 44.0429992675781250
  9.0304088592529297  0.0000090310004452 44.0429992675781250
  9.0279493331909180  9.0314083099365234 44.0429992675781250
  4.5139703750610352  4.5156903266906738 44.0427513122558594
  4.5115113258361816 13.5470905303955078 44.0427513122558594
 13.5443706512451172  4.5156903266906738 44.0427513122558594
 13.5419111251831037 13.5470905303955078 44.0427513122558594
  0.0000000000000000  0.0000000000000000 50.4472808837890696
 -0.0024593239650130  9.0313997268676740 50.4472808837890696
  9.0304002761840803  0.0000000000000000 50.4472808837890696
  9.0279407501220685  9.0313997268676740 50.4472808837890696
  4.5139703750610352  4.5156998634338379 50.4472808837890696
  4.5115113258361816 13.5470991134643537 50.4472808837890696
 13.5443706512451172  4.5156998634338379 50.4472808837890696
 13.5419111251831055 13.5470991134643537 50.4472808837890696
