 H  C  N  I Pb 
 1.0000000000000000
    18.0608005523681641    0.0000000000000000    0.0000000000000000
    -0.0049186488613486   18.0627994537353516    0.0000000000000000
     0.0000000000000000    0.0000000000000000   62.4874992370605469
 H   C   N   I   Pb 
 143  39  47  72  24
Cartesian
  7.7458353042602530  4.7518997192382812 36.4078598022461009
  7.5756759643554688 13.5789289474487305 36.2065658569335938
 16.9203014373779297  5.2710132598876953 36.3996009826660227
 17.1259136199951172 14.5712757110595685 36.2873992919921946
  5.5884127616882315  0.9982625246047973 36.3050651550292969
  5.4729027748107910 10.3646697998046875 36.0085906982421875
 14.1153612136840803  1.2926094532012939 36.3801345825195312
  1.8055839538574248  3.4330639839172363 35.2009353637695312
  1.5460472106933594 12.2415752410888672 35.1340484619140625
 10.7965288162231428  3.4660592079162598 35.1557655334472656
 11.0154848098754883 13.3296298980712891 35.1500778198242259
  6.6434917449951163  0.4390150606632233 35.0326309204101562
  5.0836606025695801 10.9708843231201154 34.4476509094238281
 15.2877159118652344  1.1774821281433105 35.1189804077148438
  1.2824001312255842  4.2955331802368164 36.5751686096191406
  0.3346900939941401 12.4867858886718750 36.3700141906738281
  9.7145032882690412  3.2933607101440430 36.4567146301269531
  9.9573144912719727 12.6982145309448242 36.3467521667480540
  4.6223683357238770  8.0216197967529297 36.5066871643066477
  3.2201194763183594  0.1703386604785919 36.2107467651367259
 12.2972187260165811 17.6292550563812256 36.3419609069824219
  7.5280570983886719  5.7953839302062988 35.0378913879394602
  7.2020707130432129 14.6327180862426758 34.8929634094238352
 16.1305522918701172  4.8405156135559082 34.9278678894042969
 17.4719657897949219 15.6593914031982422 34.9616470336914062
  3.7277507781982417  7.2625241279602042 35.2431068420410156
  2.8225218513980503 17.2137167453765869 34.8620529174804688
 12.4084743717685342 16.4333243370056152 35.0566024780273509
  9.4539804458618164  5.0427379608154297 34.0631904602050781
  9.3677282333374023 14.5417108535766602 34.0499267578125000
 17.9074497222900391  3.7074038982391357 34.0423202514648509
  1.0514316558837931 14.2589368820190430 34.0842323303222727
  3.9326820373535152  9.0537252426147443 33.7960395812988281
  4.9519132832065225 17.2882246971130407 33.9778633117675781
 14.2962688663974404 17.3883236646652222 34.1434097290039134
  7.8934898376464844  5.2195305824279785 42.1679725646972727
  7.8234672546386719 14.8297281265258771 41.9645042419433594
 17.4482717514038086  5.0317382812500000 42.5522994995117188
 16.9207158088684118 14.3832387924194336 42.2440605163574219
  5.4209094047546387  0.8737701177597046 42.2840728759765625
  5.3871302604675293  9.9890012741088849 42.2482681274414062
 14.4921131134033185  0.9934220314025878 42.1861457824707031
 14.5927333831787109 10.0041627883911133 42.2058639526367259
  1.5165911912918091  3.0721430778503418 40.3030357360839915
  1.6556484699249268 12.3913822174072266 40.8408622741699219
 10.4540014266967773  3.1361420154571533 40.5663108825683594
 10.1357126235961914 12.1191387176513672 41.1249313354492188
  3.2918262481689449  7.4539694786071777 40.6317939758300781
  3.1036526421085000 16.6813530921936035 40.4781608581542969
 12.0770425796508789  7.6462392807006836 40.8999366760253906
 12.0325922230258584 16.7963798046112096 40.6749877929687500
  1.2614679336547852  3.2960348129272456 42.0096626281738281
  0.7243151068687439 12.5115785598754883 42.2871665954589844
  9.6831626892089844  3.3310260772705078 42.1094856262207031
  9.4717655181884748 12.9313220977783185 42.5115432739257812
  3.7856392860412598  7.9606685638427725 42.2177047729492259
  3.4707817295566201 17.1700912117958069 42.1003837585449219
 12.7990560531616193  8.0914058685302734 42.4148674011230469
 12.5056509235873801 17.4044424295425415 42.2346076965332102
  7.6332974433898926  6.0505213737487793 40.6595611572265696
  7.6002588272094727 15.1456127166748047 40.2691688537597656
 16.7050031423568726  5.7612037658691406 41.1415214538574290
 16.8587729930877721 15.2541017532348633 40.7635993957519531
  6.0958762168884277  1.3331080675125122 40.7603988647461009
  5.7916598320007324 10.6402997970581055 40.6921272277832031
 15.1595487594604492  1.3240208625793457 40.6081275939941406
 14.7521209716796875 10.6289224624633789 40.6242446899414062
 17.9343545138835907  4.6305389404296875 39.6849594116210938
  0.5448464155197144 14.1505250930786133 39.7779121398925781
  9.2480497360229492  4.8498244285583496 39.5392456054687500
  9.0372905731201172 13.4847335815429688 39.6055068969726634
  4.7292260387912393 18.0396857727319002 39.5116844177246165
  4.5166482925415039  9.1387395858764648 39.5469779968261790
 13.7030462482944131 17.9932834655046463 39.5358467102050781
 13.2162046432495117  9.1923799514770508 39.6848602294921875
  8.1032123565673828  5.4420318603515616 48.0459518432617259
  8.1007528305053711 14.4734306335449219 48.0459518432617259
 17.1336116790771484  5.4420318603515616 48.0459518432617259
 17.1311531066894531 14.4734306335449219 48.0459518432617259
  5.4410333633422852  0.9265221953392029 48.0449485778808594
  5.4385743141174316  9.9579219818115234 48.0449485778808594
 14.4714326858520490  0.9265221953392029 48.0449485778808594
 14.4689741134643555  9.9579219818115234 48.0449485778808594
  1.4218254089355467  3.0919990539550781 46.4558296203613281
  1.4193661212921143 12.1233978271484375 46.4558296203613281
 10.4522256851196289  3.0919990539550781 46.4558296203613281
 10.4497661590576172 12.1233978271484375 46.4558296203613281
  3.0899283885955806  7.6075901985168457 46.4545211791992188
  3.0874691009521484 16.6389904022216797 46.4545211791992188
 12.1203289031982422  7.6075901985168457 46.4545211791992188
 12.1178693771362305 16.6389904022216797 46.4545211791992188
  0.9247469902038573  3.5893490314483643 48.0459518432617259
  0.9222877025604248 12.6207475662231445 48.0459518432617259
  9.9551477432250977  3.5893490314483643 48.0459518432617259
  9.9526882171630859 12.6207475662231445 48.0459518432617259
  3.5868983268737793  8.1048498153686523 48.0448913574218821
  3.5844390392303462 17.1362495422363281 48.0448913574218821
 12.6172990798950195  8.1048498153686523 48.0448913574218821
 12.6148395538330078 17.1362495422363281 48.0448913574218821
  7.6061611175537109  5.9393639564514160 46.4558296203613281
  7.6037015914916992 14.9707632064819336 46.4558296203613281
 16.6365604400634766  5.9393639564514160 46.4558296203613281
 16.6341018676757812 14.9707632064819336 46.4558296203613281
  5.9380125999450684  1.4238001108169553 46.4545211791992188
  5.9355530738830566 10.4551992416381836 46.4545211791992188
 14.9684123992919904  1.4238001108169553 46.4545211791992188
 14.9659538269042951 10.4551992416381836 46.4545211791992188
 -0.0011664569610730  4.5157265663146973 45.3548011779785156
 -0.0036257810425013 13.5471258163452148 45.3548011779785156
  9.0292339324951172  4.5157265663146973 45.3548011779785156
  9.0267744064331037 13.5471258163452148 45.3548011779785156
  4.5152091979980469  0.0000000000000000 45.3536758422851562
  4.5127501487731934  9.0313997268676740 45.3536758422851562
 13.5456094741821289  0.0000000000000000 45.3536758422851562
 13.5431499481201172  9.0313997268676740 45.3536758422851562
 14.1238164901733398  9.1873884201049805 32.4996032714843750
 15.6921348571777344  9.1930646896362287 33.3114128112793040
 13.6805047988891602 11.3730440139770508 33.7367553710937500
 13.8583240509033185 11.3786106109619141 35.4674758911132812
 12.2563457489013672  8.2783613204956055 34.9490966796875000
 12.1714229583740234  9.9751720428466797 35.3282051086425781
 14.5147094726562500  7.7649607658386230 35.7610359191894531
 15.7495613098144531  9.0429039001464844 35.7957649230957031
 15.5443620681762695  6.9486460685729972 33.9319725036621165
 13.7808837890625000  6.8556771278381348 33.7147178649902344
 13.9617700576782227  6.9591021537780762 31.2968235015869176
 15.5683116912841779  7.6131176948547363 31.3718357086181676
 16.0962505340576172 11.1647291183471662 33.3442955017089844
 16.4396820068359375 11.0402708053588867 35.0606536865234446
 15.6982173919677734 12.5240039825439453 34.3650932312011719
 10.7376785278320312  9.4949464797973633 33.4765167236328125
 11.9970512390136719  8.7164735794067383 32.5389213562011719
 12.1047697067260724 10.4831523895263672 32.8403129577636790
 13.1744470596313477  8.6771774291992188 37.3924789428711009
 13.5613813400268555 10.3335962295532227 37.0642089843750000
 14.7466945648193359  9.3456516265869141 37.8738746643066406
 15.0807514190673828  4.8330330848693848 32.4060592651367188
 15.2283363342285156  5.0682845115661621 30.6834354400634801
 16.9473152160644531  3.2185049057006836 31.4515628814697266
 17.6212596893310547  7.4614171981811523 32.1146163940429688
  1.3105792999267574  2.8251619338989258 31.4740238189697266
  1.9258213043212862  7.0490794181823730 32.2161712646484375
  2.8831844329833989  4.7606282234191895 31.9274845123291051
 17.9829597473144531  4.1027569770812988 35.0349884033203125
  0.4985218048095710 13.9582920074462891 34.9998321533203125
  9.1515502929687500  4.6045346260070801 35.0153770446777344
  9.1244173049926758 13.9521589279174805 34.9355201721191477
  4.3773293495178223  9.1069726943969727 34.7837181091308594
  4.7357954243198037 17.8290746212005651 34.8946113586425781
 13.8535970905795676 17.8333356231451035 35.0280761718750000
  0.0889143869280815  4.4155154228210449 40.7322349548339844
  0.2382619082927704 13.8114500045776349 40.7824211120605469
  9.0450162887573224  4.5881338119506836 40.6038551330566406
  8.8904371261596680 13.6250782012939453 40.6780014038086009
  4.5319476127624512  9.0329523086547852 40.6402320861816406
  4.5898265102878213 18.0374739561229944 40.6110572814941406
 13.4205131530761719  9.1466875076293945 40.7511787414550781
 13.5904417037963867  0.0147099681198597 40.6294746398925852
  9.0289716720581055  4.5156092643737793 46.4455223083496165
  9.0265130996704102 13.5470085144042969 46.4455223083496165
 18.0593719482421875  4.5156092643737793 46.4455223083496165
 18.0569133758544922 13.5470085144042969 46.4455223083496165
  4.5152091979980469  0.0000180629995157 46.4442062377929759
  4.5127501487731934  9.0314178466796857 46.4442062377929759
 13.5456094741821289  0.0000180629995157 46.4442062377929759
 13.5431499481201172  9.0314178466796857 46.4442062377929759
 17.0785484313964844  5.3532085418701172 31.7461566925048828
 17.6221218109130859  4.0810122489929199 31.5828704833984375
 17.9612960815429688  6.4329457283020020 31.9686412811279297
  0.9314765930175800  3.8371801376342773 31.6363487243652344
  1.2689762115478507  6.2069535255432129 31.9986248016357457
  1.8062858581542987  4.9085259437561035 31.8383769989013707
 14.6751108169555664  8.8430299758911133 33.3632278442382812
 14.2854061126708967 10.9624052047729492 34.5398216247558665
 12.5190467834472656  9.2599058151245117 34.5810661315918040
 14.6669960021972656  8.8406372070312500 35.8402175903320312
 14.7051324844360352  7.2889451980590820 33.2981605529785156
 14.9212331771850586  6.9007353782653809 31.8448467254638707
 15.7183694839477539 11.4226312637329102 34.3308181762695312
 11.8258209228515625  9.5140142440795898 33.2649192810058594
 14.0030784606933594  9.3447542190551758 37.0964622497558665
 15.5381727218627930  5.4797043800354004 31.6550674438476562
  1.0554275512695312  3.9274983406066895 35.6651153564453196
  0.8145275115966808 12.7963647842407227 35.5331306457519602
  9.9128665924072266  3.6927285194396973 35.5418663024902415
 10.0484619140624982 13.2171802520751953 35.4664649963378977
  8.0488557815551758  5.0843129158020020 35.5384483337402415
  7.8794441223144531 14.0607585906982422 35.3789138793945312
 16.9679317474365234  4.7870745658874503 35.5010375976562500
 17.6152629852294922 14.7698869705200178 35.4277458190917969
  4.2058625221252441  8.0813598632812500 35.5504150390625071
  3.5062784412875772 17.7292505502700806 35.3400535583496165
 12.7532257298007607 17.2791593074798584 35.4765090942382812
  5.7175669670104980  0.4595528244972229 35.4241142272949219
  5.0053410530090332 10.2343645095825195 35.0889854431152344
 14.4830579757690430  0.8013756275177002 35.5416145324707102
  0.9852168560028076  3.5565485954284668 41.0444831848144602
  0.8877548575401305 12.8623094558715820 41.3494949340820384
  9.7555351257324219  3.6516554355621338 41.1323318481445312
  9.5308694839477539 12.8468112945556641 41.4924468994140696
  3.8330647945404053  8.0985660552978516 41.2175788879394531
  3.6657242039218545 17.2516815662384069 41.1133918762207031
 12.7100782394409180  8.2340869903564453 41.3948593139648438
 12.6604799488559365 17.3869760036468506 41.2358169555664062
  8.1229248046875000  5.3312616348266602 41.2089309692382884
  8.0491685867309570 14.5973901748657227 41.0125350952148438
 17.3682702779769897  5.1284985542297363 41.5583381652832031
 17.3072455525398290 14.5077314376831055 41.2915153503417969
  5.4080977439880371  0.7655521035194397 41.2758178710937571
  5.2867770195007315  9.9478988647460938 41.2531166076660156
 14.4757957458496094  0.8263773918151854 41.2010040283203125
 14.2840061187744141  9.9587144851684570 41.2374992370605540
  0.8273094892501831  3.6869695186614990 47.0359649658203125
  0.8248501420021057 12.7183685302734375 47.0359649658203125
  9.8577098846435547  3.6869695186614990 47.0359649658203125
  9.8552503585815412 12.7183685302734375 47.0359649658203125
  3.6843190193176270  8.2023353576660156 47.0346527099609375
  3.6818594932556152 17.2337341308593750 47.0346527099609375
 12.7147188186645508  8.2023353576660156 47.0346527099609375
 12.7122592926025391 17.2337341308593750 47.0346527099609375
  8.2006769180297852  5.3445744514465332 47.0360260009765696
  8.1982173919677734 14.3759746551513672 47.0360260009765696
 17.2310771942138672  5.3445744514465332 47.0360260009765696
 17.2286186218261719 14.3759746551513672 47.0360260009765696
  5.3436489105224600  0.8290914893150328 47.0346527099609375
  5.3411893844604483  9.8604917526245117 47.0346527099609375
 14.3740482330322266  0.8290914893150328 47.0346527099609375
 14.3715896606445312  9.8604917526245117 47.0346527099609375
 14.0400285720825195  9.4347562789916992 34.5841484069824219
  9.0720571735873818 18.0186801068484783 34.5239372253417969
  8.3218517303466797  8.6310873031616211 34.7033081054687500
 17.8725034594535828  0.1856128573417664 34.4447402954101562
  0.5793441534042358  8.8709106445312500 34.9082984924316477
  4.5036416053771973  4.4457254409790039 34.6612968444824290
  4.4012937545776367 13.8198871612548828 34.4767074584960938
 13.3733081817626935  4.1047039031982422 34.6819839477539134
 12.9459857940673828 14.1826171875000000 34.0539703369140696
  0.0650672921910882 18.0086494274437428 40.8512535095214844
 18.0343351047486067  9.1401653289794904 41.0480079650878906
  8.9616607883945107 18.0489802081137896 40.9434242248535156
  8.9331235885620117  8.9714126586914062 40.9281387329101634
  4.5794906616210938  4.3938078880310059 40.9716415405273438
  4.5974769592285156 13.5552854537963867 40.8720512390136719
 13.4443988800048828  4.4381213188171387 40.9269256591796875
 13.6591520309448242 13.6940917968750000 40.8483581542968750
  2.7144556045532227  1.8695955276489258 38.0350494384765625
  2.7463688850402832 10.9738883972167969 38.0170478820800781
 11.6212539672851562  1.9335308074951172 38.0915260314941477
 11.0409889221191406 11.5483169555664045 38.4388084411621094
  6.5430903434753418  7.0206689834594727 38.2766799926757812
  6.5379881858825684 16.1285724639892578 38.0196418762207031
 16.0356540679931641  6.5774784088134757 38.4774017333984375
 15.5276880264282227 16.1494350433349609 37.9469451904296946
  2.0892720222473145  6.4477915763854972 38.1442871093750000
  2.0012435913085938 15.6676445007324201 37.9557228088378906
 11.1439924240112305  6.6415982246398926 37.9497680664062500
 11.0945138931274414 15.6478853225708008 38.1668701171875000
  7.1815466880798340  2.5817401409149170 38.0873031616211009
  6.9713582992553711 11.6121902465820312 37.9214553833007812
 16.0058403015136719  2.4579343795776367 38.2776527404785156
 16.5111217498779297 12.0116977691650391 38.3959846496582031
  0.0000000000000000  0.0000000000000000 47.1735610961914062
 -0.0024593239650130  9.0313997268676740 47.1735610961914062
  9.0304002761840803  0.0000000000000000 47.1735610961914062
  9.0279407501220685  9.0313997268676740 47.1735610961914062
  4.5139794349670410  4.5156998634338379 47.1742515563964844
  4.5115203857421875 13.5470991134643537 47.1742515563964844
 13.5443792343139648  4.5156998634338379 47.1742515563964844
 13.5419197082519531 13.5470991134643537 47.1742515563964844
  2.4519233703613277  2.0629522800445557 44.0401268005371165
  2.4494640827178955 11.0943517684936523 44.0401268005371165
 11.4823226928710920  2.0629522800445557 44.0401268005371165
 11.4798641204833984 11.0943517684936523 44.0401268005371165
  6.5760178565979004  6.9684472084045410 44.0401268005371165
  6.5735583305358887 15.9998464584350586 44.0401268005371165
 15.6064186096191406  6.9684472084045410 44.0401268005371165
 15.6039590835571289 15.9998464584350586 44.0401268005371165
  2.0610768795013428  6.5788145065307617 44.0400009155273509
  2.0586175918579102 15.6102142333984375 44.0400009155273509
 11.0914773941040039  6.5788145065307617 44.0400009155273509
 11.0890178680419922 15.6102142333984375 44.0400009155273509
  6.9668641090393066  2.4525938034057613 44.0400657653808665
  6.9644045829772949 11.4839935302734375 44.0400657653808665
 15.9972639083862305  2.4525938034057613 44.0400657653808665
 15.9948053359985352 11.4839935302734375 44.0400657653808665
  2.4316265583038330  2.0832188129425049 50.0684852600097656
  2.4291670322418213 11.1146183013915998 50.0684852600097656
 11.4620265960693359  2.0832188129425049 50.0684852600097656
 11.4595670700073224 11.1146183013915998 50.0684852600097656
  6.5963144302368164  6.9481806755065918 50.0684852600097656
  6.5938549041748047 15.9795799255371076 50.0684852600097656
 15.6267137527465803  6.9481806755065918 50.0684852600097656
 15.6242542266845703 15.9795799255371076 50.0684852600097656
  2.0811281204223633  6.5990090370178223 50.0690460205078125
  2.0786688327789307 15.6304082870483398 50.0690460205078125
 11.1115283966064453  6.5990090370178223 50.0690460205078125
 11.1090688705444336 15.6304082870483398 50.0690460205078125
  6.9468131065368652  2.4323906898498531 50.0690460205078125
  6.9443535804748535 11.4637899398803711 50.0690460205078125
 15.9772129058837891  2.4323906898498531 50.0690460205078125
 15.9747543334960938 11.4637899398803711 50.0690460205078125
 18.0115050375461578  0.0709046572446823 37.6757049560546875
  0.1643532812595367  9.1326131820678711 37.9574203491211009
  9.0343250492587686 17.9969504550099373 37.6524276733398509
  8.9515314102172852  9.0236492156982422 37.7239151000976562
  4.5564527511596680  4.4984169006347656 37.7895927429199219
  4.4388575553894043 13.6407184600830078 37.6647300720214844
 13.5638332366943359  4.5172944068908691 37.7995796203613281
 13.5494394302368164 13.6346302032470703 37.7754211425781250
  0.0000090280000222  0.0000090310004452 44.0429992675781250
 -0.0024502959568053  9.0314083099365234 44.0429992675781250
  9.0304088592529297  0.0000090310004452 44.0429992675781250
  9.0279493331909180  9.0314083099365234 44.0429992675781250
  4.5139703750610352  4.5156903266906738 44.0427513122558594
  4.5115113258361816 13.5470905303955078 44.0427513122558594
 13.5443706512451172  4.5156903266906738 44.0427513122558594
 13.5419111251831037 13.5470905303955078 44.0427513122558594
  0.0000000000000000  0.0000000000000000 50.4472808837890696
 -0.0024593239650130  9.0313997268676740 50.4472808837890696
  9.0304002761840803  0.0000000000000000 50.4472808837890696
  9.0279407501220685  9.0313997268676740 50.4472808837890696
  4.5139703750610352  4.5156998634338379 50.4472808837890696
  4.5115113258361816 13.5470991134643537 50.4472808837890696
 13.5443706512451172  4.5156998634338379 50.4472808837890696
 13.5419111251831055 13.5470991134643537 50.4472808837890696
