 H  C  N  I Pb 
 1.0000000000000000
    18.0608005523681641    0.0000000000000000    0.0000000000000000
    -0.0049186488613486   18.0627994537353516    0.0000000000000000
     0.0000000000000000    0.0000000000000000   62.4874992370605469
 H   C   N   I   Pb 
 143  39  47  72  24
Cartesian
  7.6102738380432129  4.6405439376831055 36.1545104980468750
  7.4120802879333496 13.1157712936401367 35.9536361694335938
 16.7407569885253906  5.1195192337036133 36.3140678405761790
 16.9848232269287109 14.7225646972656232 36.0858573913574219
  5.7172365188598633  1.2339463233947754 35.9561157226562571
  5.5334916114807120 10.5086879730224592 35.8586463928222656
 14.3750219345092773  1.3888835906982422 36.1779556274414062
  1.9452991485595692  3.9006729125976562 35.3170204162597656
  1.4652233123779312 12.1680564880371094 35.5125541687011790
 10.9935684204101562  3.6190595626831055 35.2846641540527344
 10.9126291275024396 13.4689035415649414 35.1289062500000000
  6.7509312629699707  0.2125869393348694 34.9916687011718750
  4.6683058738708496 11.2007808685302734 34.5071144104003906
 15.6995668411254883  0.7256053090095520 35.2375221252441477
  1.1282329559326167  4.8775959014892578 36.5337944030761719
  0.0134620666503938 12.4669151306152344 36.4417610168457031
  9.5803928375244123  3.1686620712280273 36.2789154052734446
  9.7905921936035156 12.4969034194946289 36.1697921752929688
  5.1378798484802246  8.0920038223266602 36.3402862548828125
  3.2808063030242920  0.7767135500907897 35.8422737121582031
 12.2204914093017578  0.2451210469007492 36.0432472229003977
  7.7441220283508301  6.0450801849365234 35.0924682617187500
  7.0176749229431152 14.3896694183349609 34.8190498352050781
 15.9675569534301740  4.2874245643615723 34.9679183959961009
 17.7691974639892578 15.7594175338745117 34.9333610534667969
  3.9635250568389893  7.2698864936828613 35.3527107238769531
  2.7399770477786660 17.5870274901390076 34.7483024597167969
 12.1785940388217568 16.8211398124694824 35.0840148925781321
  9.8899383544921875  5.4238820075988761 34.3349533081054759
  9.2938375473022461 14.6681222915649414 34.1882438659667969
 18.0126991271972656  3.5013775825500488 34.1483306884765696
  1.3729438781738312 14.2061996459960920 34.4200096130371165
  3.5331108570098877  9.1858472824096680 34.0630722045898438
  4.9594158390536904 17.0718793869018555 34.1033859252929688
 14.3611082294955850 17.0166790485382080 34.4366569519042969
  7.9268317222595215  5.0835919380187988 42.2443389892578196
  7.7785053253173828 14.8375959396362305 41.9899635314941477
 17.5947883725166321  4.9416408538818359 42.6505622863769531
 16.8071621656417847 13.9703598022460920 42.1161117553710938
  5.2999677658081046  0.8284912109375000 42.2836380004882884
  5.4453430175781250  9.9817428588867188 42.1157646179199219
 14.3294153213500977  1.0423867702484131 42.2203903198242188
 14.6487922668457031  9.8718452453613281 42.2567825317382884
  1.5303227901458740  2.9889292716979980 40.2617263793945384
  1.8224846124649048 12.4716138839721680 40.8552589416503906
 10.5036430358886719  3.1435706615447994 40.5113067626953196
 10.1450481414794922 12.2249612808227539 40.9414100646972656
  3.2727744579315186  7.3517556190490723 40.7262535095214844
  3.0575448730960488 16.6730962991714478 40.3865890502929759
 12.0368833541870117  7.8227796554565430 40.6513481140136790
 12.0741399982944131 16.6612434387207031 40.6294212341308594
  1.3319971561431885  3.1576342582702637 41.9889106750488281
  0.6702693700790405 12.2334814071655273 42.1385498046875071
  9.7105054855346680  3.2160065174102783 42.0442199707031321
  9.4787597656250000 12.9339952468872070 42.3907623291015625
  3.8722252845764156  7.8966436386108398 42.2597999572753906
  3.3462213734164834 17.1553397178649902 42.0315093994140696
 12.8008279800415039  8.0158252716064453 42.1876449584961009
 12.4400991657748818 17.2948867678642273 42.2038002014160156
  7.7486290931701660  6.0393013954162589 40.8027648925781250
  7.5130634307861319 15.1753120422363281 40.2981681823730469
 16.8503620624542236  5.7237386703491211 41.2900238037109375
 16.8922110795974731 15.1265668869018555 40.8135299682617259
  6.0817117691040039  1.2268455028533936 40.8033409118652415
  5.6318583488464355 10.5834083557128906 40.5151290893554688
 14.9900465011596662  1.3477859497070310 40.6526489257812500
 14.8737030029296875 10.7246837615966797 40.7425155639648509
 18.0430327355861664  4.5632905960082999 39.6897964477539062
  0.7543399930000305 14.2432088851928711 39.9157714843750071
  9.3336019515991211  4.9086899757385254 39.6096611022949219
  8.9749689102172852 13.5695381164550763 39.5228652954101562
  4.7199877956882110 17.9465688169002533 39.5133819580078125
  4.3035326004028320  8.9675121307373047 39.5159759521484375
 13.6196922520175576 17.9077607542276382 39.5441589355468750
 13.2358207702636719  9.5172948837280273 39.6165351867675781
  8.1032123565673828  5.4420318603515616 48.0459518432617259
  8.1007528305053711 14.4734306335449219 48.0459518432617259
 17.1336116790771484  5.4420318603515616 48.0459518432617259
 17.1311531066894531 14.4734306335449219 48.0459518432617259
  5.4410333633422852  0.9265221953392029 48.0449485778808594
  5.4385743141174316  9.9579219818115234 48.0449485778808594
 14.4714326858520490  0.9265221953392029 48.0449485778808594
 14.4689741134643555  9.9579219818115234 48.0449485778808594
  1.4218254089355467  3.0919990539550781 46.4558296203613281
  1.4193661212921143 12.1233978271484375 46.4558296203613281
 10.4522256851196289  3.0919990539550781 46.4558296203613281
 10.4497661590576172 12.1233978271484375 46.4558296203613281
  3.0899283885955806  7.6075901985168457 46.4545211791992188
  3.0874691009521484 16.6389904022216797 46.4545211791992188
 12.1203289031982422  7.6075901985168457 46.4545211791992188
 12.1178693771362305 16.6389904022216797 46.4545211791992188
  0.9247469902038573  3.5893490314483643 48.0459518432617259
  0.9222877025604248 12.6207475662231445 48.0459518432617259
  9.9551477432250977  3.5893490314483643 48.0459518432617259
  9.9526882171630859 12.6207475662231445 48.0459518432617259
  3.5868983268737793  8.1048498153686523 48.0448913574218821
  3.5844390392303462 17.1362495422363281 48.0448913574218821
 12.6172990798950195  8.1048498153686523 48.0448913574218821
 12.6148395538330078 17.1362495422363281 48.0448913574218821
  7.6061611175537109  5.9393639564514160 46.4558296203613281
  7.6037015914916992 14.9707632064819336 46.4558296203613281
 16.6365604400634766  5.9393639564514160 46.4558296203613281
 16.6341018676757812 14.9707632064819336 46.4558296203613281
  5.9380125999450684  1.4238001108169553 46.4545211791992188
  5.9355530738830566 10.4551992416381836 46.4545211791992188
 14.9684123992919904  1.4238001108169553 46.4545211791992188
 14.9659538269042951 10.4551992416381836 46.4545211791992188
 -0.0011664569610730  4.5157265663146973 45.3548011779785156
 -0.0036257810425013 13.5471258163452148 45.3548011779785156
  9.0292339324951172  4.5157265663146973 45.3548011779785156
  9.0267744064331037 13.5471258163452148 45.3548011779785156
  4.5152091979980469  0.0000000000000000 45.3536758422851562
  4.5127501487731934  9.0313997268676740 45.3536758422851562
 13.5456094741821289  0.0000000000000000 45.3536758422851562
 13.5431499481201172  9.0313997268676740 45.3536758422851562
 14.2709035873413086  9.1926250457763672 32.3178596496582031
 15.7508363723754883  9.1211147308349609 33.2644309997558594
 13.6008605957031232 11.3161430358886701 33.5788917541503906
 13.8562040328979492 11.2798404693603516 35.3100471496582031
 12.3064517974853516  8.1899900436401367 34.6900253295898438
 12.0791969299316388  9.8811607360839844 35.1155242919921946
 14.4142103195190430  7.7648606300354004 35.6056556701660156
 15.6041460037231428  9.0411062240600586 35.6534271240234375
 15.5510759353637678  6.8513293266296378 33.7864303588867188
 13.8352594375610352  6.7596073150634766 33.4788589477539062
 14.0626506805419922  6.8360204696655273 31.1698379516601562
 15.6843824386596680  7.5422711372375488 31.1646804809570348
 16.1431407928466797 11.0507736206054688 33.2596626281738281
 16.2798118591308594 11.0183162689208967 35.0419654846191406
 15.6799106597900373 12.4506874084472638 34.2198295593261719
 10.7534637451171875  9.4147987365722656 33.1366539001464844
 12.1462469100952148  8.7609443664550781 32.2376289367675781
 12.0298461914062500 10.4840221405029297 32.6462593078613281
 12.9509124755859375  8.7679367065429688 37.2123413085937500
 13.6737174987792969 10.3978776931762695 36.9971771240234446
 14.5913391113281250  9.1097450256347656 37.7996292114257812
 15.0344457626342756  4.7215809822082520 32.2453041076660156
 15.3211984634399396  5.0273795127868652 30.5664672851562500
 16.8947505950927734  3.0810816287994385 31.3171558380126953
 17.5855960845947266  7.2326617240905753 32.2103919982910156
  1.2676200866699221  2.6544706821441650 31.4821853637695312
  1.9574069976806652  6.7969651222229004 32.3739547729492188
  2.8370571136474609  4.5209040641784668 32.0084991455078125
 17.9972476959228516  4.1021146774291992 35.0657501220703196
  0.5895977020263685 13.9423227310180646 35.1047325134277415
  9.3569650650024414  4.8148903846740723 35.0678825378417969
  8.9852838516235352 13.9069614410400391 34.9033164978027344
  4.2657122611999512  9.2396373748779297 34.8801956176757812
  4.7564706066623330 17.8984390944242513 34.8089714050292969
 13.9342092731967568 17.7897271513938904 35.0988693237304688
  0.1477387845516205  4.3683671951293945 40.7508621215820312
  0.3122189044952392 13.8040914535522461 40.8001365661621094
  9.1282596588134766  4.6126942634582520 40.6148796081542969
  8.8286275863647461 13.7127151489257812 40.5864372253417969
  4.4617295265197754  8.9783115386962891 40.5845375061035156
  4.5688533047214150 17.9800980687141418 40.5710792541503906
 13.4451303482055664  9.2722845077514648 40.6755485534668040
 13.5488218525424600 18.0401952415704727 40.6145820617675852
  9.0289716720581055  4.5156092643737793 46.4455223083496165
  9.0265130996704102 13.5470085144042969 46.4455223083496165
 18.0593719482421875  4.5156092643737793 46.4455223083496165
 18.0569133758544922 13.5470085144042969 46.4455223083496165
  4.5152091979980469  0.0000180629995157 46.4442062377929759
  4.5127501487731934  9.0314178466796857 46.4442062377929759
 13.5456094741821289  0.0000180629995157 46.4442062377929759
 13.5431499481201172  9.0314178466796857 46.4442062377929759
 17.0491008758544922  5.2161345481872559 31.7482833862304723
 17.5877094268798828  3.9056680202484126 31.5603561401367188
 17.9377880096435547  6.2262868881225586 32.0524711608886719
  0.8954620361328148  3.6628949642181396 31.6221714019775426
  1.2635269165039054  5.9799003601074219 32.1565589904785156
  1.7676124572753931  4.7065339088439941 31.9235801696777344
 14.7270097732543945  8.7475662231445312 33.2275848388671875
 14.2501697540283203 10.9171848297119141 34.3518218994140625
 12.4828939437866193  9.2107334136962891 34.3459739685058594
 14.5266189575195312  8.8489933013916016 35.6903495788574219
 14.7597932815551740  7.2513461112976074 33.1485404968261719
 15.0261659622192383  6.8033509254455566 31.7117042541503906
 15.6805505752563459 11.3565635681152344 34.1953010559082031
 11.8389272689819318  9.4728784561157227 33.0076828002929688
 13.8817548751831055  9.3219051361083984 36.9825248718261719
 15.5672969818115234  5.3948369026184082 31.5672893524169922
  1.0718631744384788  4.2416100502014160 35.7166557312011719
  0.6852893829345741 12.7769784927368164 35.7067298889160156
  9.9960441589355469  3.7512228488922119 35.5328025817871094
  9.9439201354980469 13.1504735946655273 35.3734207153320312
  8.1612443923950195  5.1789498329162598 35.4389305114746094
  7.7389030456542969 13.8269510269165039 35.2540588378906250
 16.8330821990966797  4.5774712562561035 35.4499969482421875
 17.6962509155273438 14.8224649429321289 35.3365707397461009
  4.4580235481262207  8.1469068527221680 35.5949287414550781
  3.5164055824279785  0.0606893524527550 35.1704292297363352
 12.6592640141025186 17.6804632544517517 35.3902664184570312
  5.7905879020690909  0.5114074349403381 35.2598686218261719
  4.8637790679931641 10.3719224929809570 35.1044578552246094
 14.7099170684814453  0.6891690492630005 35.5432472229003906
  1.0592685937881470  3.4448189735412598 41.0290679931640696
  0.9752241373062133 12.7613105773925781 41.3155784606933594
  9.8230552673339844  3.5879662036895752 41.0937995910644531
  9.5371942520141602 12.9307975769042969 41.3629035949707031
  3.8334562778472900  8.0154390335083008 41.2364883422851634
  3.6021141270175576 17.2327480316162109 41.0357627868652415
 12.7430067062377930  8.3309917449951172 41.2270240783691406
 12.6371568897739053 17.2821138501167297 41.1922569274902344
  8.2215213775634766  5.2722020149230948 41.2605361938476562
  8.0053672790527344 14.6237268447875977 40.9951438903808594
 17.5212270021438634  5.0419178009033194 41.6343002319335938
 17.2658770084381139 14.3040742874145508 41.2834472656250071
  5.3717265129089347  0.7019667625427245 41.2710685729980540
  5.2144637107849121  9.8839864730834961 41.1074256896972656
 14.3283958435058594  0.8218323588371277 41.2040138244628906
 14.3806734085082990  9.9862918853759766 41.2712211608886719
  0.8273094892501831  3.6869695186614990 47.0359649658203125
  0.8248501420021057 12.7183685302734375 47.0359649658203125
  9.8577098846435547  3.6869695186614990 47.0359649658203125
  9.8552503585815412 12.7183685302734375 47.0359649658203125
  3.6843190193176270  8.2023353576660156 47.0346527099609375
  3.6818594932556152 17.2337341308593750 47.0346527099609375
 12.7147188186645508  8.2023353576660156 47.0346527099609375
 12.7122592926025391 17.2337341308593750 47.0346527099609375
  8.2006769180297852  5.3445744514465332 47.0360260009765696
  8.1982173919677734 14.3759746551513672 47.0360260009765696
 17.2310771942138672  5.3445744514465332 47.0360260009765696
 17.2286186218261719 14.3759746551513672 47.0360260009765696
  5.3436489105224600  0.8290914893150328 47.0346527099609375
  5.3411893844604483  9.8604917526245117 47.0346527099609375
 14.3740482330322266  0.8290914893150328 47.0346527099609375
 14.3715896606445312  9.8604917526245117 47.0346527099609375
 13.9948482513427734  9.4260559082031250 34.3979034423828125
  9.0868934849277139 17.7046727240085602 34.6502151489257812
  8.2139472961425781  8.6702699661254883 34.6386985778808594
  0.0041139642708004  0.2401257902383804 34.5143165588378906
  0.6677982807159424  8.8890218734741211 34.7980766296386790
  4.4395337104797363  4.4434695243835449 34.7567329406738281
  4.2034950256347656 13.9035415649414062 34.4754905700683594
 13.4479780197143555  4.0589160919189453 34.6675682067871094
 12.9128818511962891 14.3208084106445295 34.1416320800781250
  0.0123025896027684 17.9616923183202744 40.9274520874023438
  0.0647679716348648  9.0825576782226545 40.9874305725097656
  8.9859228134155273  0.1305475234985352 40.9272079467773438
  9.0093574523925781  9.0646944046020508 40.9056053161621094
  4.6315779685974121  4.3148360252380371 41.0005111694335938
  4.4698777198791504 13.5626153945922852 40.8915138244628977
 13.3915042877197266  4.6108107566833496 40.9718246459960938
 13.6183948516845703 13.6078987121582031 40.8539199829101562
  2.5877656936645508  1.9111649990081787 38.0912475585937500
  2.6263217926025391 10.9787139892578125 38.1236419677734446
 11.6744842529296875  1.9197368621826172 38.1086578369140625
 11.0235090255737305 11.5463132858276367 38.3805961608886719
  6.5494370460510254  6.9916067123413086 38.3116455078125000
  6.5254540443420410 16.0203838348388672 37.9433441162109375
 16.0833511352539062  6.5144262313842773 38.4977226257324290
 15.6048736572265625 16.0321006774902344 38.0065536499023438
  2.1292326450347900  6.5611786842346183 38.3519668579101634
  2.1356647014617920 15.8161249160766602 38.0075340270996094
 11.1296977996826154  6.6729474067687988 37.8965225219726562
 11.2096433639526367 15.6671276092529297 38.3008880615234375
  7.1455440521240234  2.5431721210479736 37.9319267272949219
  6.8568916320800772 11.5004634857177734 37.9042434692382884
 16.0235595703125000  2.4726240634918213 38.3359336853027415
 16.5064907073974609 11.9790782928466797 38.3637199401855469
  0.0000000000000000  0.0000000000000000 47.1735610961914062
 -0.0024593239650130  9.0313997268676740 47.1735610961914062
  9.0304002761840803  0.0000000000000000 47.1735610961914062
  9.0279407501220685  9.0313997268676740 47.1735610961914062
  4.5139794349670410  4.5156998634338379 47.1742515563964844
  4.5115203857421875 13.5470991134643537 47.1742515563964844
 13.5443792343139648  4.5156998634338379 47.1742515563964844
 13.5419197082519531 13.5470991134643537 47.1742515563964844
  2.4519233703613277  2.0629522800445557 44.0401268005371165
  2.4494640827178955 11.0943517684936523 44.0401268005371165
 11.4823226928710920  2.0629522800445557 44.0401268005371165
 11.4798641204833984 11.0943517684936523 44.0401268005371165
  6.5760178565979004  6.9684472084045410 44.0401268005371165
  6.5735583305358887 15.9998464584350586 44.0401268005371165
 15.6064186096191406  6.9684472084045410 44.0401268005371165
 15.6039590835571289 15.9998464584350586 44.0401268005371165
  2.0610768795013428  6.5788145065307617 44.0400009155273509
  2.0586175918579102 15.6102142333984375 44.0400009155273509
 11.0914773941040039  6.5788145065307617 44.0400009155273509
 11.0890178680419922 15.6102142333984375 44.0400009155273509
  6.9668641090393066  2.4525938034057613 44.0400657653808665
  6.9644045829772949 11.4839935302734375 44.0400657653808665
 15.9972639083862305  2.4525938034057613 44.0400657653808665
 15.9948053359985352 11.4839935302734375 44.0400657653808665
  2.4316265583038330  2.0832188129425049 50.0684852600097656
  2.4291670322418213 11.1146183013915998 50.0684852600097656
 11.4620265960693359  2.0832188129425049 50.0684852600097656
 11.4595670700073224 11.1146183013915998 50.0684852600097656
  6.5963144302368164  6.9481806755065918 50.0684852600097656
  6.5938549041748047 15.9795799255371076 50.0684852600097656
 15.6267137527465803  6.9481806755065918 50.0684852600097656
 15.6242542266845703 15.9795799255371076 50.0684852600097656
  2.0811281204223633  6.5990090370178223 50.0690460205078125
  2.0786688327789307 15.6304082870483398 50.0690460205078125
 11.1115283966064453  6.5990090370178223 50.0690460205078125
 11.1090688705444336 15.6304082870483398 50.0690460205078125
  6.9468131065368652  2.4323906898498531 50.0690460205078125
  6.9443535804748535 11.4637899398803711 50.0690460205078125
 15.9772129058837891  2.4323906898498531 50.0690460205078125
 15.9747543334960938 11.4637899398803711 50.0690460205078125
 18.0029072202742100  0.1350207924842834 37.8044776916503906
  0.1518192291259766  9.1048250198364258 37.8508186340332031
  9.1124462345615029 17.9670770615339279 37.7881813049316477
  8.9295244216918945  9.0290956497192383 37.6720314025878906
  4.5667667388916016  4.4967503547668457 37.8725814819335938
  4.3704600334167480 13.6851348876953125 37.7212371826171875
 13.5608978271484357  4.6266994476318359 37.8828582763671946
 13.5223112106323242 13.6445913314819318 37.7964019775390625
  0.0000090280000222  0.0000090310004452 44.0429992675781250
 -0.0024502959568053  9.0314083099365234 44.0429992675781250
  9.0304088592529297  0.0000090310004452 44.0429992675781250
  9.0279493331909180  9.0314083099365234 44.0429992675781250
  4.5139703750610352  4.5156903266906738 44.0427513122558594
  4.5115113258361816 13.5470905303955078 44.0427513122558594
 13.5443706512451172  4.5156903266906738 44.0427513122558594
 13.5419111251831037 13.5470905303955078 44.0427513122558594
  0.0000000000000000  0.0000000000000000 50.4472808837890696
 -0.0024593239650130  9.0313997268676740 50.4472808837890696
  9.0304002761840803  0.0000000000000000 50.4472808837890696
  9.0279407501220685  9.0313997268676740 50.4472808837890696
  4.5139703750610352  4.5156998634338379 50.4472808837890696
  4.5115113258361816 13.5470991134643537 50.4472808837890696
 13.5443706512451172  4.5156998634338379 50.4472808837890696
 13.5419111251831055 13.5470991134643537 50.4472808837890696
