 H  C  N  I Pb 
 1.0000000000000000
    18.0608005523681641    0.0000000000000000    0.0000000000000000
    -0.0049186488613486   18.0627994537353516    0.0000000000000000
     0.0000000000000000    0.0000000000000000   62.4874992370605469
 H   C   N   I   Pb 
 143  39  47  72  24
Cartesian
  7.8687658309936523  5.0882573127746582 36.4842948913574219
  7.7710614204406729 14.0768442153930664 36.3106803894043040
 17.0116729736328125  5.3311600685119620 36.4985923767089844
 17.1747512817382812 14.5518360137939453 36.3424148559570384
  5.4958200454711914  0.9044697880744934 36.3744392395019531
  5.5344133377075195 10.2262773513793945 36.1294708251953125
 14.0620117187500000  1.1938738822937012 36.3622207641601562
  1.6019878387451205  3.1537718772888184 34.9725379943847656
  1.5917530059814493 12.2721881866455078 34.8651351928710938
 10.7753152847290021  3.3421056270599361 34.9242439270019531
 10.9525613784790039 12.8335227966308594 34.8977737426757884
  6.4308490753173828  0.8998897075653076 34.8740768432617188
  5.5953369140625000 10.7608757019042969 34.4526634216308594
 14.9404621124267578  1.4916837215423584 34.8642768859863281
  1.1521072387695341  3.9084246158599854 36.5384216308593821
  0.7143630981445318 12.5293712615966797 36.3343811035156250
  9.8746881484985352  3.4531285762786865 36.4561042785644602
  9.9660148620605469 12.7835569381713867 36.3631896972656250
  4.2155761718750000  8.0613451004028320 36.5313720703125000
  3.3054970959201455 17.6480720639228856 36.3327102661132812
 12.4862770298495889 17.2390357255935669 36.3523788452148438
  7.4930605888366690  5.7872896194458008 34.9170913696289062
  7.4158287048339844 14.8904285430908203 34.8081283569336009
 16.2564678192138672  5.3422360420227051 34.8883934020996094
 17.0755558013916016 15.4287090301513672 34.8454933166503906
  3.5122761726379395  7.2879729270935059 35.1115722656250000
  2.8992561558261514 16.8654321432113647 34.8009681701660156
 12.4475893238559365 16.2918825149536133 34.8527641296386719
  9.2950611114501953  4.7087731361389151 33.7801017761230469
  9.4038343429565430 14.1424655914306641 33.7631072998046875
 17.7591342926025391  3.9155147075653076 33.8963890075683594
  0.6658153533935567 14.1391935348510742 33.7724113464355469
  4.3439383506774902  8.9531097412109375 33.6566772460937500
  4.8638114193454385 17.6380794644355774 33.7527160644531250
 13.9836725452914834 17.6938661932945251 33.7849464416503906
  7.9172873497009268  5.3271074295043945 42.0782203674316406
  7.9464554786682129 14.5902671813964844 42.0797691345214915
 17.1025648117065430  5.3950233459472647 42.1979026794433665
 17.0249185562133789 14.4139852523803711 42.2608757019042969
  5.4342408180236816  1.0177748203277588 42.0946235656738281
  5.4383072853088379 10.0299577713012695 42.1509399414062500
 14.6438617706298828  0.8841576576232910 42.1429176330566477
 14.5174217224121094 10.0091085433959961 42.1200637817382884
  1.4686989784240723  3.0725340843200684 40.5424423217773509
  1.5984772443771362 12.3943099975585938 40.6981925964355469
 10.4729280471801740  3.1347410678863525 40.4946403503418040
 10.3579626083374023 12.0216073989868164 40.9004783630371094
  3.0834078788757324  7.5704059600830078 40.6611213684082031
  3.1339725712314248 16.5488036870956421 40.6446647644042969
 12.0209760665893555  7.4663867950439453 41.0505065917968750
 11.9609398106113076 16.8473532199859619 40.6289253234863281
  0.9551039934158325  3.5190978050231934 42.1459617614746094
  0.9039076566696167 12.6837730407714844 42.2769355773925781
  9.7680530548095703  3.4467511177062984 42.0698852539062500
  9.7508659362792951 12.6883678436279297 42.3905754089355469
  3.5769066810607910  8.1454305648803711 42.2452354431152344
  3.5956713417544961 17.1749765276908910 42.2190246582031250
 12.7012901306152344  8.0866661071777344 42.5326194763183665
 12.5671552876010537 17.2878830432891846 42.2159423828125000
  7.6351971626281738  6.0018014907836914 40.5123405456542969
  7.6432218551635742 15.0072803497314453 40.4103317260742259
 16.6261308193206823  5.8833808898925772 40.6147613525390625
 16.6565606594085729 15.0651245117187500 40.6927108764648438
  5.9356055259704590  1.4139143228530884 40.4533195495605469
  5.9166321754455566 10.4573898315429688 40.5307464599609446
 15.1235866546630859  1.3372334241867065 40.5089988708496165
 14.6847219467163086 10.4385242462158203 40.4265632629394531
  0.0196954365819693  4.5094399452209473 39.4702377319335938
  0.2542434334754944 13.8628301620483398 39.6027793884277344
  9.2089414596557617  4.7075695991516113 39.4001693725585938
  9.1593236923217773 13.4059572219848633 39.5540122985839844
  4.5285648563876748 17.8891950696706772 39.4536552429199219
  4.4526996612548828  8.9381055831909180 39.4815406799316406
 13.4770698547363281  0.0078435279428959 39.4620170593261790
 13.1757831573486328  8.9073572158813477 39.6594161987304759
  8.1032123565673828  5.4420318603515616 48.0459518432617259
  8.1007528305053711 14.4734306335449219 48.0459518432617259
 17.1336116790771484  5.4420318603515616 48.0459518432617259
 17.1311531066894531 14.4734306335449219 48.0459518432617259
  5.4410333633422852  0.9265221953392029 48.0449485778808594
  5.4385743141174316  9.9579219818115234 48.0449485778808594
 14.4714326858520490  0.9265221953392029 48.0449485778808594
 14.4689741134643555  9.9579219818115234 48.0449485778808594
  1.4218254089355467  3.0919990539550781 46.4558296203613281
  1.4193661212921143 12.1233978271484375 46.4558296203613281
 10.4522256851196289  3.0919990539550781 46.4558296203613281
 10.4497661590576172 12.1233978271484375 46.4558296203613281
  3.0899283885955806  7.6075901985168457 46.4545211791992188
  3.0874691009521484 16.6389904022216797 46.4545211791992188
 12.1203289031982422  7.6075901985168457 46.4545211791992188
 12.1178693771362305 16.6389904022216797 46.4545211791992188
  0.9247469902038573  3.5893490314483643 48.0459518432617259
  0.9222877025604248 12.6207475662231445 48.0459518432617259
  9.9551477432250977  3.5893490314483643 48.0459518432617259
  9.9526882171630859 12.6207475662231445 48.0459518432617259
  3.5868983268737793  8.1048498153686523 48.0448913574218821
  3.5844390392303462 17.1362495422363281 48.0448913574218821
 12.6172990798950195  8.1048498153686523 48.0448913574218821
 12.6148395538330078 17.1362495422363281 48.0448913574218821
  7.6061611175537109  5.9393639564514160 46.4558296203613281
  7.6037015914916992 14.9707632064819336 46.4558296203613281
 16.6365604400634766  5.9393639564514160 46.4558296203613281
 16.6341018676757812 14.9707632064819336 46.4558296203613281
  5.9380125999450684  1.4238001108169553 46.4545211791992188
  5.9355530738830566 10.4551992416381836 46.4545211791992188
 14.9684123992919904  1.4238001108169553 46.4545211791992188
 14.9659538269042951 10.4551992416381836 46.4545211791992188
 -0.0011664569610730  4.5157265663146973 45.3548011779785156
 -0.0036257810425013 13.5471258163452148 45.3548011779785156
  9.0292339324951172  4.5157265663146973 45.3548011779785156
  9.0267744064331037 13.5471258163452148 45.3548011779785156
  4.5152091979980469  0.0000000000000000 45.3536758422851562
  4.5127501487731934  9.0313997268676740 45.3536758422851562
 13.5456094741821289  0.0000000000000000 45.3536758422851562
 13.5431499481201172  9.0313997268676740 45.3536758422851562
 14.0199174880981445  9.4008989334106445 32.7093086242675852
 15.7255964279174805  9.3420877456665039 33.4507522583007812
 13.8501777648925763 11.3768272399902344 33.7991027832031321
 13.9451589584350586 11.4899148941040039 35.5479927062988352
 12.3354501724243164  8.4357671737670898 35.2061653137207031
 12.1949262619018555 10.1821126937866211 35.5657348632812571
 14.6121940612792969  7.7913079261779785 35.8589706420898438
 15.7505521774291992  9.1525344848632812 35.9780349731445312
 15.4840879440307617  7.1026892662048340 34.1566963195800781
 13.7313508987426740  7.0060825347900391 33.8032531738281250
 14.0119304656982422  7.1286659240722647 31.4997291564941406
 15.6537609100341797  7.8265256881713867 31.5889415740966797
 16.2199344635009766 11.4690990447998047 33.5142593383789062
 16.6193294525146484 11.0232172012329102 35.1944274902343750
 15.8195028305053693 12.5949621200561506 34.8356628417968750
 10.8035688400268555  9.7485713958740234 33.6473159790039134
 12.0840463638305646  8.8759059906005859 32.7728080749511790
 12.1251001358032227 10.6595535278320295 32.9330635070800781
 13.2023534774780256  8.6785812377929688 37.6005172729492259
 13.5544614791870117 10.3486223220825195 37.0363731384277344
 14.6899051666259748  9.5656003952026367 38.1281967163085938
 15.1458482742309570  4.9222040176391602 32.5803833007812500
 15.1972837448120099  5.2725286483764648 30.8282165527343786
 16.9814186096191406  3.3583576679229736 31.4661121368408203
 17.4845390319824219  7.5842256546020508 32.2900161743164062
  1.3770885467529319  3.0679643154144283 31.6156215667724645
  1.8059406280517594  7.2819008827209473 32.4709930419921875
  2.8627395629882812  5.0015850067138672 32.1098175048828196
 17.9250106811523438  4.2298183441162109 34.9678878784179759
  0.3280391693115234 13.8680076599121094 34.7749443054199219
  9.1206264495849592  4.5528945922851562 34.8451499938964844
  9.1629934310913086 13.8519992828369123 34.7898826599121094
  4.5543217658996582  9.0326585769653303 34.7350120544433594
  4.6597251156345010 17.9176522046327591 34.7940139770507812
 13.6853088596835732 17.9257608503103256 34.8161010742187500
  0.0046419911086559  4.4972672462463379 40.5574836730957031
  0.0790550857782364 13.7543210983276367 40.6627769470214915
  9.0487184524536133  4.5795063972473136 40.4556541442871094
  9.0053234100341797 13.5397644042968750 40.6254539489746165
  4.5166358947753906  9.0276918411254883 40.5560035705566477
  4.5351480701938272 18.0262602865695953 40.5225181579589844
 13.3431339263915998  8.9383726119995117 40.7360839843750000
 13.5599002838134766  0.0588686689734459 40.5366096496582031
  9.0289716720581055  4.5156092643737793 46.4455223083496165
  9.0265130996704102 13.5470085144042969 46.4455223083496165
 18.0593719482421875  4.5156092643737793 46.4455223083496165
 18.0569133758544922 13.5470085144042969 46.4455223083496165
  4.5152091979980469  0.0000180629995157 46.4442062377929759
  4.5127501487731934  9.0314178466796857 46.4442062377929759
 13.5456094741821289  0.0000180629995157 46.4442062377929759
 13.5431499481201172  9.0314178466796857 46.4442062377929759
 17.0189037322998047  5.5069217681884766 31.8529891967773438
 17.6203498840332031  4.2336578369140625 31.6475105285644567
 17.8915977478027344  6.5969023704528800 32.0544509887695384
  0.9446849822998051  4.0789446830749512 31.7061901092529297
  1.2139358520507810  6.4094400405883789 32.1863021850585938
  1.7975177764892589  5.1678867340087891 32.0381126403808594
 14.6869897842407227  8.9455852508544922 33.5012550354003906
 14.4237928390502912 11.0493373870849609 34.6763153076171946
 12.5512819290161133  9.4592790603637695 34.8099937438964915
 14.6878623962402344  8.8941278457641602 35.9895515441894531
 14.6721410751342773  7.4610977172851562 33.4766960144042969
 14.9897317886352539  7.0205564498901367 32.0278701782226562
 15.8710126876831055 11.5226240158081055 34.5480880737304688
 11.8940715789794904  9.7046251296997070 33.4622116088867188
 13.9823169708251953  9.3477830886840820 37.2751350402832102
 15.5545635223388654  5.6526527404785156 31.8051643371582031
  0.9283943176269523  3.7219123840332027 35.5548248291015625
  0.9027614593505854 12.8543920516967773 35.3569984436035156
  9.9429035186767560  3.7100198268890376 35.4563636779785156
 10.0762519836425781 13.0703363418579102 35.3879127502441406
  8.1140890121459961  5.1681656837463379 35.4342079162597727
  8.0480136871337891 14.2906064987182617 35.3163909912109446
 17.0050315856933594  5.0086841583251953 35.5138702392578196
 17.5084152221679688 14.6384363174438477 35.3501167297363281
  4.0711622238159180  8.0841274261474609 35.5378456115722727
  3.5694293240085240 17.4613863825798035 35.3791046142578125
 12.8205599049106240 17.1403042674064636 35.4079208374023509
  5.5570373535156250  0.5929211378097533 35.4182815551757812
  5.2524495124816895 10.0461263656616211 35.1708374023437500
 14.2510643005371094  0.8981999754905701 35.4183807373046946
  0.8780581951141357  3.6329269409179688 41.1165084838867188
  0.9226586818695067 12.8757123947143555 41.2650680541992188
  9.8228549957275391  3.6460068225860596 41.0470581054687500
  9.7312488555908203 12.7206516265869123 41.3819084167480540
  3.6826999187469482  8.2025241851806641 41.2061729431152344
  3.7087177494540811 17.2108821272850037 41.1805419921875000
 12.6772327423095685  8.1506567001342773 41.5157775878906321
 12.6430563190951943 17.3779428005218506 41.1790695190429688
  8.1660070419311523  5.3243732452392578 41.0478248596191477
  8.1539573669433594 14.4184579849243164 41.0592269897460938
 17.2566149234771764  5.2634501457214347 41.1852607727050781
 17.2198820114135778 14.4481058120727539 41.2577857971191406
  5.3384585380554199  0.8494970202445984 41.0685310363769531
  5.3260507583618164  9.8783159255981445 41.1112365722656250
 14.4849958419799787  0.7780510187149048 41.0975990295410227
 14.2545566558837891  9.8670072555541992 41.1339683532714844
  0.8273094892501831  3.6869695186614990 47.0359649658203125
  0.8248501420021057 12.7183685302734375 47.0359649658203125
  9.8577098846435547  3.6869695186614990 47.0359649658203125
  9.8552503585815412 12.7183685302734375 47.0359649658203125
  3.6843190193176270  8.2023353576660156 47.0346527099609375
  3.6818594932556152 17.2337341308593750 47.0346527099609375
 12.7147188186645508  8.2023353576660156 47.0346527099609375
 12.7122592926025391 17.2337341308593750 47.0346527099609375
  8.2006769180297852  5.3445744514465332 47.0360260009765696
  8.1982173919677734 14.3759746551513672 47.0360260009765696
 17.2310771942138672  5.3445744514465332 47.0360260009765696
 17.2286186218261719 14.3759746551513672 47.0360260009765696
  5.3436489105224600  0.8290914893150328 47.0346527099609375
  5.3411893844604483  9.8604917526245117 47.0346527099609375
 14.3740482330322266  0.8290914893150328 47.0346527099609375
 14.3715896606445312  9.8604917526245117 47.0346527099609375
 14.1140756607055664  9.5823125839233398 34.7541122436523438
  8.9400253295898438  0.0211716573685408 34.5114822387695312
  8.5663242340087891  8.6955404281616211 34.6957778930664062
 17.9977764189243317  0.0460983403027058 34.4303932189941477
  0.4020646214485168  8.9713964462280273 34.8682479858398438
  4.6987390518188477  4.4312577247619629 34.6250991821289134
  4.4533443450927734 13.7076520919799787 34.4605293273925781
 13.2870836257934570  4.1532630920410156 34.7092056274414134
 13.1180896759033203 13.9717321395874006 34.1719970703125000
  0.0617448315024376  0.0756027251482010 40.8672714233398438
  0.1043699383735657  9.0456457138061523 41.0267333984375000
  9.1313867568969727  0.0873460024595261 40.8925743103027415
  9.0576972961425781  9.0297241210937500 40.9678764343261719
  4.4617562294006348  4.4710221290588379 40.9558563232421875
  4.4517273902893066 13.5908689498901367 40.8963623046875000
 13.3918800354003906  4.4977469444274902 40.9951667785644602
 13.5003309249877930 13.6830263137817383 40.8337631225585938
  2.6320466995239258  1.8742659091949461 38.0751342773437500
  2.6891825199127193 10.9406147003173828 38.0693206787109446
 11.5980386734008771  1.9157471656799314 38.0877761840820384
 11.1925411224365217 11.4003782272338849 38.3580093383789062
  6.4326968193054190  7.0432548522949210 38.1736640930175781
  6.4255509376525870 16.1109180450439453 38.0416069030761790
 15.8955593109130859  6.7171425819396973 38.3451614379882884
 15.4469928741455078 16.1807880401611328 37.9996757507324219
  2.0087802410125732  6.3829078674316406 38.1109580993652344
  1.9401835203170776 15.4830722808837891 38.0111808776855469
 11.1123294830322266  6.5725946426391593 37.9115028381347656
 10.9774513244628906 15.5657997131347656 38.1289062500000000
  7.1163659095764151  2.5329239368438721 38.1149826049804759
  7.0239429473876953 11.6504058837890625 37.9050674438476634
 16.0948657989501953  2.4667620658874507 38.0908660888671875
 16.4393539428710938 11.9421262741088867 38.3209533691406250
  0.0000000000000000  0.0000000000000000 47.1735610961914062
 -0.0024593239650130  9.0313997268676740 47.1735610961914062
  9.0304002761840803  0.0000000000000000 47.1735610961914062
  9.0279407501220685  9.0313997268676740 47.1735610961914062
  4.5139794349670410  4.5156998634338379 47.1742515563964844
  4.5115203857421875 13.5470991134643537 47.1742515563964844
 13.5443792343139648  4.5156998634338379 47.1742515563964844
 13.5419197082519531 13.5470991134643537 47.1742515563964844
  2.4519233703613277  2.0629522800445557 44.0401268005371165
  2.4494640827178955 11.0943517684936523 44.0401268005371165
 11.4823226928710920  2.0629522800445557 44.0401268005371165
 11.4798641204833984 11.0943517684936523 44.0401268005371165
  6.5760178565979004  6.9684472084045410 44.0401268005371165
  6.5735583305358887 15.9998464584350586 44.0401268005371165
 15.6064186096191406  6.9684472084045410 44.0401268005371165
 15.6039590835571289 15.9998464584350586 44.0401268005371165
  2.0610768795013428  6.5788145065307617 44.0400009155273509
  2.0586175918579102 15.6102142333984375 44.0400009155273509
 11.0914773941040039  6.5788145065307617 44.0400009155273509
 11.0890178680419922 15.6102142333984375 44.0400009155273509
  6.9668641090393066  2.4525938034057613 44.0400657653808665
  6.9644045829772949 11.4839935302734375 44.0400657653808665
 15.9972639083862305  2.4525938034057613 44.0400657653808665
 15.9948053359985352 11.4839935302734375 44.0400657653808665
  2.4316265583038330  2.0832188129425049 50.0684852600097656
  2.4291670322418213 11.1146183013915998 50.0684852600097656
 11.4620265960693359  2.0832188129425049 50.0684852600097656
 11.4595670700073224 11.1146183013915998 50.0684852600097656
  6.5963144302368164  6.9481806755065918 50.0684852600097656
  6.5938549041748047 15.9795799255371076 50.0684852600097656
 15.6267137527465803  6.9481806755065918 50.0684852600097656
 15.6242542266845703 15.9795799255371076 50.0684852600097656
  2.0811281204223633  6.5990090370178223 50.0690460205078125
  2.0786688327789307 15.6304082870483398 50.0690460205078125
 11.1115283966064453  6.5990090370178223 50.0690460205078125
 11.1090688705444336 15.6304082870483398 50.0690460205078125
  6.9468131065368652  2.4323906898498531 50.0690460205078125
  6.9443535804748535 11.4637899398803711 50.0690460205078125
 15.9772129058837891  2.4323906898498531 50.0690460205078125
 15.9747543334960938 11.4637899398803711 50.0690460205078125
 18.0508593255654013  0.0294739305973053 37.6767959594726562
  0.1882679760456085  9.0759038925170898 37.9169006347656250
  9.0161066055297852  0.0293900649994612 37.6273574829101634
  9.0290851593017578  8.9853076934814453 37.7128753662109446
  4.6080799102783194  4.4658074378967285 37.7769355773925781
  4.5071821212768555 13.6403074264526367 37.7045516967773438
 13.5291833877563477  4.5405611991882324 37.8662948608398438
 13.5348911285400391 13.7022991180419922 37.7852516174316477
  0.0000090280000222  0.0000090310004452 44.0429992675781250
 -0.0024502959568053  9.0314083099365234 44.0429992675781250
  9.0304088592529297  0.0000090310004452 44.0429992675781250
  9.0279493331909180  9.0314083099365234 44.0429992675781250
  4.5139703750610352  4.5156903266906738 44.0427513122558594
  4.5115113258361816 13.5470905303955078 44.0427513122558594
 13.5443706512451172  4.5156903266906738 44.0427513122558594
 13.5419111251831037 13.5470905303955078 44.0427513122558594
  0.0000000000000000  0.0000000000000000 50.4472808837890696
 -0.0024593239650130  9.0313997268676740 50.4472808837890696
  9.0304002761840803  0.0000000000000000 50.4472808837890696
  9.0279407501220685  9.0313997268676740 50.4472808837890696
  4.5139703750610352  4.5156998634338379 50.4472808837890696
  4.5115113258361816 13.5470991134643537 50.4472808837890696
 13.5443706512451172  4.5156998634338379 50.4472808837890696
 13.5419111251831055 13.5470991134643537 50.4472808837890696
