b                                       
    1.000000000000000     
    18.0608005523999999    0.0000000000000000    0.0000000000000000
    -0.0049186487000000   18.0627987840000017    0.0000000000000000
     0.0000000000000000    0.0000000000000000   62.4874992371000033
   H    C    N    I    Pb
   115    23    46    72    24
Selective dynamics
Direct
  0.4505695761331358  0.2999877690116418  0.5818307537468496   T   T   T
  0.4505744608895173  0.7989956447810249  0.5818203176362687   T   T   T
  0.9490754847734511  0.3005044831147736  0.5817584725684171   T   T   T
  0.9495593975436658  0.7990044461631309  0.5818308420341218   T   T   T
  0.2995248646621991  0.0495619032255217  0.5818906772208163   T   T   T
  0.2997004898014494  0.5493206619910467  0.5819197532858623   T   T   T
  0.7992844047578844  0.0497351063847380  0.5819186269313329   T   T   T
  0.0792245482310884  0.1717278956875211  0.5570035473901725   T   T   T
  0.0784468628949367  0.6699941875160365  0.5569789436120003   T   T   T
  0.5809891092984772  0.1725106010687457  0.5569798426357786   T   T   T
  0.5802184264320206  0.6706885936064024  0.5568380332384744   T   T   T
  0.3292456417662706  0.0792579835764692  0.5570677215508204   T   T   T
  0.3310270268510245  0.5774127227451371  0.5571140497941204   T   T   T
  0.8274022394351604  0.0810367651491471  0.5571129110553927   T   T   T
  0.0494233855012213  0.2009745675225816  0.5818208506906236   T   T   T
  0.0494061099918616  0.7000056915315680  0.5818243840630157   T   T   T
  0.5504128679250162  0.2009927041755236  0.5818226213961813   T   T   T
  0.5508992623841783  0.6994920452546958  0.5817488210116454   T   T   T
  0.2002670511469326  0.4506638288253950  0.5819171063021827   T   T   T
  0.2004421178315579  0.9504227442518419  0.5818883422977387   T   T   T
  0.7006822430927589  0.9502511944724609  0.5819158543521109   T   T   T
  0.4215129897652473  0.3300027638568481  0.5569783484303464   T   T   T
  0.4207561431563979  0.8282523371633552  0.5569978437082144   T   T   T
  0.9197672640741772  0.3292821130975805  0.5568414341022017   T   T   T
  0.9189709496179579  0.8274835840973029  0.5569809752030519   T   T   T
  0.1689389381137626  0.4225727005938558  0.5571117406815640   T   T   T
  0.1707197815687082  0.9207273030170602  0.5570659520346097   T   T   T
  0.6725629959396150  0.9189508334357308  0.5571104228874250   T   T   T
  0.5010256794014293  0.2510351061405923  0.5384384440013887   T   T   T
  0.5004216435118172  0.7495426565722104  0.5384034888230068   T   T   T
  0.9995556457267175  0.2504268157796262  0.5384096836254513   T   T   T
  0.9989308513556254  0.7489563166759822  0.5384400837792511   T   T   T
  0.2499853681894592  0.4999984932226825  0.5384646892489826   T   T   T
  0.2499849595651553 -0.0000019084286506  0.5384227956319937   T   T   T
  0.7499857037879957 -0.0000009496993394  0.5384633382062637   T   T   T
  0.4489771601760780  0.3009946669072625  0.6739728232520824   T   T   T
  0.4492209907496928  0.8008054749110589  0.6739821932608815   T   T   T
  0.9487188037603216  0.3013121060751806  0.6738848129597709   T   T   T
  0.9490325904350506  0.8010534100838982  0.6739727540108302   T   T   T
  0.3010309208306756  0.0510496135471676  0.6739687584931355   T   T   T
  0.3010631953915743  0.5509887648986482  0.6739367210461451   T   T   T
  0.8009689903885480  0.0510844159596314  0.6739368508998943   T   T   T
  0.8006251376754763  0.5506458411276661  0.6735443389511498   T   T   T
  0.0786866460096914  0.1712084279451525  0.6486957655850157   T   T   T
  0.0784381872779090  0.6707150686397523  0.6486652825425756   T   T   T
  0.5791827321514649  0.1714574140479713  0.6486650533521036   T   T   T
  0.5789011216359478  0.6710103133915138  0.6484379369179456   T   T   T
  0.1708980827637871  0.4212747982088748  0.6486194413169725   T   T   T
  0.1710847137909410  0.9210882251047582  0.6486584691082725   T   T   T
  0.6710143991082027  0.4210025704656358  0.6482995041649147   T   T   T
  0.6712789356034534  0.9208954485516524  0.6486195232667967   T   T   T
  0.0507724778424618  0.1991681323706687  0.6739861406885558   T   T   T
  0.0509954437695407  0.6989972309187337  0.6739725869953437   T   T   T
  0.5509401007406196  0.1989394806930769  0.6739724075650294   T   T   T
  0.5512629394662819  0.6986755681820574  0.6738830944787234   T   T   T
  0.1989035624005067  0.4489980370464112  0.6739363873820566   T   T   T
  0.1989387263817979  0.9489356087081505  0.6739688568841096   T   T   T
  0.6993499084089477  0.4493436825126715  0.6735438305298724   T   T   T
  0.6990021101765582  0.9489005013995363  0.6739362172824540   T   T   T
  0.4215332117611366  0.3292751757380311  0.6486640938792414   T   T   T
  0.4213093631053694  0.8287609118307928  0.6486903298812686   T   T   T
  0.9211022498725735  0.3289559431727966  0.6484355368341300   T   T   T
  0.9207902229170104  0.8285339666336771  0.6486637257105954   T   T   T
  0.3288855696466785  0.0789029934910526  0.6486588186241524   T   T   T
  0.3290719312993539  0.5787181807062711  0.6486193947520492   T   T   T
  0.8286957103240045  0.0790957686018546  0.6486196278608213   T   T   T
  0.8289644067228280  0.5789916418407578  0.6483002186699153   T   T   T
 -0.0002428140690421  0.2502205152197624  0.6308080309217829   T   T   T
  0.9995940689017679  0.7496022024091035  0.6308332935369882   T   T   T
  0.5003764999528937  0.2503842416940512  0.6308330775145120   T   T   T
  0.5002392301707125  0.7497444336000181  0.6308036161522422   T   T   T
  0.2499822844786005 -0.0000022255208890  0.6308364601859255   T   T   T
  0.2499809743666687  0.4999977542863849  0.6308062715529112   T   T   T
  0.7499855549308355 -0.0000041062833504  0.6308062495105294   T   T   T
  0.7499928408997854  0.4999941879429560  0.6302889606435715   T   T   T
  0.4487450123026875  0.3012839853932547  0.7688890099553589   F   F   F
  0.4487450122585699  0.8012839555529183  0.7688890099553589   F   F   F
  0.9487449526597018  0.3012839853932547  0.7688890099553589   F   F   F
  0.9487450123028651  0.8012839555529183  0.7688890099553589   F   F   F
  0.3012759983606372  0.0512944981605372  0.7688729763004289   F   F   F
  0.3012759983266733  0.5512945055790937  0.7688729763004289   F   F   F
  0.8012759685612991  0.0512944981605372  0.7688729763004289   F   F   F
  0.8012759685273281  0.5512945055790937  0.7688729763004289   F   F   F
  0.0787710025712300  0.1711805015919765  0.7434419989625454   F   F   F
  0.0787710025865564  0.6711804866994839  0.7434419989625454   F   F   F
  0.5787709951407791  0.1711805015919765  0.7434419989625454   F   F   F
  0.5787709951560984  0.6711804866994839  0.7434419989625454   F   F   F
  0.1711995005657982  0.4211744964317958  0.7434210181261207   F   F   F
  0.1711995005379165  0.9211745262167668  0.7434210181261207   F   F   F
  0.6711995005547209  0.4211744964317958  0.7434210181261207   F   F   F
  0.6711995005822118  0.9211745262167668  0.7434210181261207   F   F   F
  0.0512560010060099  0.1987150013639862  0.7688890099553589   F   F   F
  0.0512560010172578  0.6987149715236498  0.7688890099553589   F   F   F
  0.5512560009949325  0.1987150013639862  0.7688890099553589   F   F   F
  0.5512560010061875  0.6987149715236498  0.7688890099553589   F   F   F
  0.1987234949972319  0.4487039745014059  0.7688720226216859   F   F   F
  0.1987234950247228  0.9487040042863839  0.7688720226216859   F   F   F
  0.6987234949861616  0.4487039745014059  0.7688720226216859   F   F   F
  0.6987234950136525  0.9487040042863839  0.7688720226216859   F   F   F
  0.4212315082396927  0.3288174867596396  0.7434419989625454   F   F   F
  0.4212315082590763  0.8288174867596396  0.7434419989625454   F   F   F
  0.9212314486520796  0.3288174867596396  0.7434419989625454   F   F   F
  0.9212315082479989  0.8288174867596396  0.7434419989625454   F   F   F
  0.3288004994152729  0.0788249969468282  0.7434210181261207   F   F   F
  0.3288004994346494  0.5788249969468282  0.7434210181261207   F   F   F
  0.8288004994595681  0.0788249969468282  0.7434210181261207   F   F   F
  0.8288004994235791  0.5788249969468282  0.7434210181261207   F   F   F
  0.0000034999835279  0.2500014901345224  0.7258219718940495   F   F   F
  0.0000035000029044  0.7500014901345224  0.7258219718940495   F   F   F
  0.5000035166937522  0.2500014901345224  0.7258219718940495   F   F   F
  0.5000035166577632  0.7500014901345224  0.7258219718940495   F   F   F
  0.2500005066165230  0.0000000000000000  0.7258039712857141   F   F   F
  0.2500005066359066  0.5000000000000000  0.7258039712857141   F   F   F
  0.7500004768171777  0.0000000000000000  0.7258039712857141   F   F   F
  0.7500004768365613  0.5000000000000000  0.7258039712857141   F   F   F
 -0.0005776120365576  0.2505576365445928  0.5558622257269973   T   T   T
 -0.0008269350761641  0.7491903011180582  0.5558898558843890   T   T   T
  0.5008056026871294  0.2507907686457399  0.5558880007418033   T   T   T
  0.5005643878428160  0.7494099822094644  0.5558546451090719   T   T   T
  0.2499821602130595  0.4999962008210772  0.5559184951152963   T   T   T
  0.2499819684490206 -0.0000039456418670  0.5558815907740171   T   T   T
  0.7499831500381587 -0.0000036891599518  0.5559169580117627   T   T   T
 -0.0001821478904837  0.2501607315345376  0.6482491242771135   T   T   T
 -0.0000917318311746  0.7499165416240681  0.6482680161600666   T   T   T
  0.5000690524583330  0.2500759429099274  0.6482679597509300   T   T   T
  0.5001817104597978  0.7498029722320168  0.6482447875677712   T   T   T
  0.2499855509175372  0.4999936477328599  0.6482412106962195   T   T   T
  0.2499877707476834 -0.0000034977004283  0.6482736292332825   T   T   T
  0.7499912253432480  0.4999925572964070  0.6477518726738326   T   T   T
  0.7499895547254468 -0.0000085928239017  0.6482411309444772   T   T   T
  0.4999889731548066  0.2499949931900858  0.7432770133073987   F   F   F
  0.4999890327507259  0.7499949931900858  0.7432770133073987   F   F   F
  0.9999889731437364  0.2499949931900858  0.7432770133073987   F   F   F
  0.9999890327396557  0.7499949931900858  0.7432770133073987   F   F   F
  0.2500005066120252  0.0000010000111388  0.7432559728590533   F   F   F
  0.2500005066350184  0.5000010132981174  0.7432559728590533   F   F   F
  0.7500004768126800  0.0000010000111388  0.7432559728590533   F   F   F
  0.7500004768356803  0.5000010132981174  0.7432559728590533   F   F   F
  0.0451820568689661  0.2052178588775995  0.5655750181628098   T   T   T
  0.0451941181132682  0.7041604349585677  0.5655729870139449   T   T   T
  0.5462613378794372  0.2051916489930420  0.5655703280235500   T   T   T
  0.5463206257859923  0.7040770391521192  0.5654811302064453   T   T   T
  0.4547773066627472  0.2958300904858861  0.5655657607865207   T   T   T
  0.4548035248434554  0.7947563780531547  0.5655612835877537   T   T   T
  0.9536604505951597  0.2959062256302660  0.5654811605350127   T   T   T
  0.9537078188367036  0.7948002688342994  0.5655663372746370   T   T   T
  0.2048863844604159  0.4541394753212065  0.5656511000342368   T   T   T
  0.2045100060091647  0.9545116460416238  0.5656134784566305   T   T   T
  0.7041384731485825  0.9548884931864119  0.5656500504004178   T   T   T
  0.2954580212332401  0.0454795380329428  0.5656104571036238   T   T   T
  0.2950824401181968  0.5458516209169724  0.5656483559483155   T   T   T
  0.7958317747869503  0.0451025874024004  0.5656472333341116   T   T   T
  0.0456108627029072  0.2043269762976769  0.6577789357808368   T   T   T
  0.0457332743580753  0.7041253987745629  0.6577809617872634   T   T   T
  0.5458094917092139  0.2042002854554356  0.6577808846966998   T   T   T
  0.5459806775230575  0.7039548530021227  0.6577090187392356   T   T   T
  0.2042400682554869  0.4540743314935912  0.6577432033258304   T   T   T
  0.2041630817891306  0.9541639740115796  0.6577753102021997   T   T   T
  0.7042355800668185  0.4542263731148680  0.6573253062089797   T   T   T
  0.7040742923525605  0.9542415621795461  0.6577433494013417   T   T   T
  0.4542416108005379  0.2958604284388826  0.6577790060390052   T   T   T
  0.4543824955049097  0.7956413262690927  0.6577728249587697   T   T   T
  0.9540108492820041  0.2960181509787854  0.6577095566275676   T   T   T
  0.9541666836824760  0.7957868904402611  0.6577789308409808   T   T   T
  0.2958101702945417  0.0458344598805751  0.6577781342123988   T   T   T
  0.2957245858853109  0.5459165891859447  0.6577452409117649   T   T   T
  0.7958969914525371  0.0457460173643146  0.6577450956268683   T   T   T
  0.7957462404463498  0.5457559589653749  0.6573263275374288   T   T   T
  0.0458624996011352  0.2041195035215679  0.7527260184237576   F   F   F
  0.0458624996205117  0.7041195035215679  0.7527260184237576   F   F   F
  0.5458624958803711  0.2041195035215679  0.7527260184237576   F   F   F
  0.5458624958997476  0.7041195035215679  0.7527260184237576   F   F   F
  0.2041189968698021  0.4541010260417480  0.7527049779914137   F   F   F
  0.2041189968729569  0.9541009664717990  0.7527049779914137   F   F   F
  0.7041189670704568  0.4541010260417480  0.7527049779914137   F   F   F
  0.7041189670736117  0.9541009664717990  0.7527049779914137   F   F   F
  0.4541400075181912  0.2958885133423621  0.7527269721025078   F   F   F
  0.4541400074903166  0.7958885431273401  0.7527269721025078   F   F   F
  0.9541400075071209  0.2958885133423621  0.7527269721025078   F   F   F
  0.9541400671111475  0.7958885431273401  0.7527269721025078   F   F   F
  0.2958824932447897  0.0459005012963090  0.7527049779914137   F   F   F
  0.2958824932702626  0.5459005236627235  0.7527049779914137   F   F   F
  0.7958824634454515  0.0459005012963090  0.7527049779914137   F   F   F
  0.7958824634709174  0.5459005236627235  0.7527049779914137   F   F   F
  0.4988295974061472 -0.0001413701357331  0.5531579842026911   T   T   T
  0.4909951534379482  0.5037774421975181  0.5532199056667166   T   T   T
  0.0011337050864344  0.0001248350923196  0.5531549624319881   T   T   T
  0.0089837554072431  0.4962033066499806  0.5532232493239854   T   T   T
  0.2498241612683672  0.2488479048081125  0.5531655384813098   T   T   T
  0.2501315181047031  0.7511374548607278  0.5531668535663831   T   T   T
  0.7537013477243232  0.2409808234732198  0.5532141018629678   T   T   T
  0.7462724044373098  0.7590086292678379  0.5532139354535208   T   T   T
  0.0008825178800594 -0.0000250396132472  0.6551113985099334   T   T   T
  0.0015014337241137  0.5002250141580079  0.6551229336708398   T   T   T
  0.4990954586979020  0.0000353416705769  0.6551142199124438   T   T   T
  0.4984700063614340  0.4997570000673970  0.6551231500424832   T   T   T
  0.2500349828288111  0.2491284617041086  0.6551033526937209   T   T   T
  0.2499446977507215  0.7508924787443628  0.6551019671101583   T   T   T
  0.7497628116110745  0.2484873075420097  0.6551198512955444   T   T   T
  0.7502128542262021  0.7514950013981929  0.6551176553306755   T   T   T
  0.1428965303774881  0.1070648460138970  0.6073688408339476   T   T   T
  0.1417611818293603  0.6067870839484807  0.6075741397337022   T   T   T
  0.6432367176367230  0.1082220243890583  0.6075753691514947   T   T   T
  0.6364318456880738  0.6135692645833052  0.6089843214179330   T   T   T
  0.3582078064911079  0.3932011312967127  0.6075736544443747   T   T   T
  0.3570750764227074  0.8929315641148003  0.6073691834752190   T   T   T
  0.8635426714970084  0.3864266046840388  0.6089850530285170   T   T   T
  0.8567435842239769  0.8917644336617463  0.6075749987556748   T   T   T
  0.1075690912452346  0.3587055844958102  0.6077222100036160   T   T   T
  0.1077085849891043  0.8577173873409893  0.6075269805987269   T   T   T
  0.6049787697190101  0.3549696664000219  0.6072564395897462   T   T   T
  0.6086756961602146  0.8576062451984344  0.6077132581252394   T   T   T
  0.3922841797916091  0.1422847204787024  0.6075287810185772   T   T   T
  0.3924045242281744  0.6412896567966093  0.6077213593224147   T   T   T
  0.8913001158594701  0.1423885335281206  0.6077143684468171   T   T   T
  0.8949974027924690  0.6450097981943930  0.6072566435031658   T   T   T
  0.0000000000000000  0.0000000000000000  0.7549279928135135   F   F   F
  0.0000000000193765  0.5000000000000000  0.7549279928135135   F   F   F
  0.4999999999889297  0.0000000000000000  0.7549279928135135   F   F   F
  0.5000000000083062  0.5000000000000000  0.7549279928135135   F   F   F
  0.2500005066262148  0.2500000000000000  0.7549390196750210   F   F   F
  0.2500005066455913  0.7500000000000000  0.7549390196750210   F   F   F
  0.7500004768268695  0.2500000000000000  0.7549390196750210   F   F   F
  0.7500004768462460  0.7500000000000000  0.7549390196750210   F   F   F
  0.1357904970913637  0.1142100020970958  0.7047830224073479   F   F   F
  0.1357904970574069  0.6142100095710177  0.7047830224073479   F   F   F
  0.6357904672366530  0.1142100020970958  0.7047830224073479   F   F   F
  0.6357904672580617  0.6142100095710177  0.7047830224073479   F   F   F
  0.3642095029149104  0.3857899904289823  0.7047830224073479   F   F   F
  0.3642095029342869  0.8857899904289823  0.7047830224073479   F   F   F
  0.8642095327474735  0.3857899904289823  0.7047830224073479   F   F   F
  0.8642095327114845  0.8857899904289823  0.7047830224073479   F   F   F
  0.1142179891403217  0.3642190098927216  0.7047809958420075   F   F   F
  0.1142179891596982  0.8642190098927216  0.7047809958420075   F   F   F
  0.6142179966039976  0.3642190098927216  0.7047809958420075   F   F   F
  0.6142179965680086  0.8642190098927216  0.7047809958420075   F   F   F
  0.3857820034204806  0.1357814967840127  0.7047820091166770   F   F   F
  0.3857820033926060  0.6357815265689908  0.7047820091166770   F   F   F
  0.8857820034094104  0.1357814967840127  0.7047820091166770   F   F   F
  0.8857820033815287  0.6357815265689908  0.7047820091166770   F   F   F
  0.1346669942216394  0.1153320073988340  0.8012560009966521   F   F   F
  0.1346669941856504  0.6153320073988340  0.8012560009966521   F   F   F
  0.6346669793164352  0.1153320073988340  0.8012560009966521   F   F   F
  0.6346669793358117  0.6153320073988340  0.8012560009966521   F   F   F
  0.3653329908925258  0.3846679926011660  0.8012560009966521   F   F   F
  0.3653329908565368  0.8846679926011589  0.8012560009966521   F   F   F
  0.8653329610931877  0.3846679926011660  0.8012560009966521   F   F   F
  0.8653329610571987  0.8846679926011589  0.8012560009966521   F   F   F
  0.1153285056432978  0.3653370142087482  0.8012650012928191   F   F   F
  0.1153285056073088  0.8653370142087482  0.8012650012928191   F   F   F
  0.6153284907380936  0.3653370142087482  0.8012650012928191   F   F   F
  0.6153284907574701  0.8653370142087482  0.8012650012928191   F   F   F
  0.3846715092631925  0.1346630006837373  0.8012650012928191   F   F   F
  0.3846715092785189  0.6346629857912518  0.8012650012928191   F   F   F
  0.8846715092521222  0.1346630006837373  0.8012650012928191   F   F   F
  0.8846715092674415  0.6346629857912518  0.8012650012928191   F   F   F
 -0.0016749996453029  0.0003276293960640  0.6028535448762864   T   T   T
 -0.0027447022250115  0.5011428915841396  0.6021312016014644   T   T   T
  0.5016385664599875 -0.0003382253983279  0.6028559298114562   T   T   T
  0.5027174117292081  0.4988430782728370  0.6021319876090375   T   T   T
  0.2496490470904584  0.2516311183748939  0.6028905462157572   T   T   T
  0.2503420448149806  0.7483599215140861  0.6028925993381447   T   T   T
  0.7488539075069378  0.2527178623716186  0.6021571281350703   T   T   T
  0.7511174175706327  0.7472755385015850  0.6021567612986393   T   T   T
  0.0000005000032601  0.0000004999778866  0.7048289775829417   F   F   F
  0.0000005000163412  0.5000004768364050  0.7048289775829417   F   F   F
  0.5000004768481432  0.0000004999778866  0.7048289775829417   F   F   F
  0.5000004768612172  0.5000004768364050  0.7048289775829417   F   F   F
  0.2499999999728644  0.2499994784861386  0.7048249840801901   F   F   F
  0.2500000000044054  0.7499995231635950  0.7048249840801901   F   F   F
  0.7500000000171596  0.2499994784861386  0.7048249840801901   F   F   F
  0.7499999999933351  0.7499995231635950  0.7048249840801901   F   F   F
  0.0000000000000000  0.0000000000000000  0.8073179721848831   F   F   F
  0.0000000000193765  0.5000000000000000  0.8073179721848831   F   F   F
  0.4999999999889297  0.0000000000000000  0.8073179721848831   F   F   F
  0.5000000000083062  0.5000000000000000  0.8073179721848831   F   F   F
  0.2500000000041496  0.2500000000000000  0.8073179721848831   F   F   F
  0.2500000000235332  0.7500000000000000  0.8073179721848831   F   F   F
  0.7499999999930793  0.2500000000000000  0.8073179721848831   F   F   F
  0.7500000000124558  0.7500000000000000  0.8073179721848831   F   F   F
 
  0.00000000E+00  0.00000000E+00  0.00000000E+00
  0.00000000E+00  0.00000000E+00  0.00000000E+00
  0.00000000E+00  0.00000000E+00  0.00000000E+00
  0.00000000E+00  0.00000000E+00  0.00000000E+00
  0.00000000E+00  0.00000000E+00  0.00000000E+00
  0.00000000E+00  0.00000000E+00  0.00000000E+00
  0.00000000E+00  0.00000000E+00  0.00000000E+00
  0.00000000E+00  0.00000000E+00  0.00000000E+00
  0.00000000E+00  0.00000000E+00  0.00000000E+00
  0.00000000E+00  0.00000000E+00  0.00000000E+00
  0.00000000E+00  0.00000000E+00  0.00000000E+00
  0.00000000E+00  0.00000000E+00  0.00000000E+00
  0.00000000E+00  0.00000000E+00  0.00000000E+00
  0.00000000E+00  0.00000000E+00  0.00000000E+00
  0.00000000E+00  0.00000000E+00  0.00000000E+00
  0.00000000E+00  0.00000000E+00  0.00000000E+00
  0.00000000E+00  0.00000000E+00  0.00000000E+00
  0.00000000E+00  0.00000000E+00  0.00000000E+00
  0.00000000E+00  0.00000000E+00  0.00000000E+00
  0.00000000E+00  0.00000000E+00  0.00000000E+00
  0.00000000E+00  0.00000000E+00  0.00000000E+00
  0.00000000E+00  0.00000000E+00  0.00000000E+00
  0.00000000E+00  0.00000000E+00  0.00000000E+00
  0.00000000E+00  0.00000000E+00  0.00000000E+00
  0.00000000E+00  0.00000000E+00  0.00000000E+00
  0.00000000E+00  0.00000000E+00  0.00000000E+00
  0.00000000E+00  0.00000000E+00  0.00000000E+00
  0.00000000E+00  0.00000000E+00  0.00000000E+00
  0.00000000E+00  0.00000000E+00  0.00000000E+00
  0.00000000E+00  0.00000000E+00  0.00000000E+00
  0.00000000E+00  0.00000000E+00  0.00000000E+00
  0.00000000E+00  0.00000000E+00  0.00000000E+00
  0.00000000E+00  0.00000000E+00  0.00000000E+00
  0.00000000E+00  0.00000000E+00  0.00000000E+00
  0.00000000E+00  0.00000000E+00  0.00000000E+00
  0.00000000E+00  0.00000000E+00  0.00000000E+00
  0.00000000E+00  0.00000000E+00  0.00000000E+00
  0.00000000E+00  0.00000000E+00  0.00000000E+00
  0.00000000E+00  0.00000000E+00  0.00000000E+00
  0.00000000E+00  0.00000000E+00  0.00000000E+00
  0.00000000E+00  0.00000000E+00  0.00000000E+00
  0.00000000E+00  0.00000000E+00  0.00000000E+00
  0.00000000E+00  0.00000000E+00  0.00000000E+00
  0.00000000E+00  0.00000000E+00  0.00000000E+00
  0.00000000E+00  0.00000000E+00  0.00000000E+00
  0.00000000E+00  0.00000000E+00  0.00000000E+00
  0.00000000E+00  0.00000000E+00  0.00000000E+00
  0.00000000E+00  0.00000000E+00  0.00000000E+00
  0.00000000E+00  0.00000000E+00  0.00000000E+00
  0.00000000E+00  0.00000000E+00  0.00000000E+00
  0.00000000E+00  0.00000000E+00  0.00000000E+00
  0.00000000E+00  0.00000000E+00  0.00000000E+00
  0.00000000E+00  0.00000000E+00  0.00000000E+00
  0.00000000E+00  0.00000000E+00  0.00000000E+00
  0.00000000E+00  0.00000000E+00  0.00000000E+00
  0.00000000E+00  0.00000000E+00  0.00000000E+00
  0.00000000E+00  0.00000000E+00  0.00000000E+00
  0.00000000E+00  0.00000000E+00  0.00000000E+00
  0.00000000E+00  0.00000000E+00  0.00000000E+00
  0.00000000E+00  0.00000000E+00  0.00000000E+00
  0.00000000E+00  0.00000000E+00  0.00000000E+00
  0.00000000E+00  0.00000000E+00  0.00000000E+00
  0.00000000E+00  0.00000000E+00  0.00000000E+00
  0.00000000E+00  0.00000000E+00  0.00000000E+00
  0.00000000E+00  0.00000000E+00  0.00000000E+00
  0.00000000E+00  0.00000000E+00  0.00000000E+00
  0.00000000E+00  0.00000000E+00  0.00000000E+00
  0.00000000E+00  0.00000000E+00  0.00000000E+00
  0.00000000E+00  0.00000000E+00  0.00000000E+00
  0.00000000E+00  0.00000000E+00  0.00000000E+00
  0.00000000E+00  0.00000000E+00  0.00000000E+00
  0.00000000E+00  0.00000000E+00  0.00000000E+00
  0.00000000E+00  0.00000000E+00  0.00000000E+00
  0.00000000E+00  0.00000000E+00  0.00000000E+00
  0.00000000E+00  0.00000000E+00  0.00000000E+00
  0.00000000E+00  0.00000000E+00  0.00000000E+00
  0.00000000E+00  0.00000000E+00  0.00000000E+00
  0.00000000E+00  0.00000000E+00  0.00000000E+00
  0.00000000E+00  0.00000000E+00  0.00000000E+00
  0.00000000E+00  0.00000000E+00  0.00000000E+00
  0.00000000E+00  0.00000000E+00  0.00000000E+00
  0.00000000E+00  0.00000000E+00  0.00000000E+00
  0.00000000E+00  0.00000000E+00  0.00000000E+00
  0.00000000E+00  0.00000000E+00  0.00000000E+00
  0.00000000E+00  0.00000000E+00  0.00000000E+00
  0.00000000E+00  0.00000000E+00  0.00000000E+00
  0.00000000E+00  0.00000000E+00  0.00000000E+00
  0.00000000E+00  0.00000000E+00  0.00000000E+00
  0.00000000E+00  0.00000000E+00  0.00000000E+00
  0.00000000E+00  0.00000000E+00  0.00000000E+00
  0.00000000E+00  0.00000000E+00  0.00000000E+00
  0.00000000E+00  0.00000000E+00  0.00000000E+00
  0.00000000E+00  0.00000000E+00  0.00000000E+00
  0.00000000E+00  0.00000000E+00  0.00000000E+00
  0.00000000E+00  0.00000000E+00  0.00000000E+00
  0.00000000E+00  0.00000000E+00  0.00000000E+00
  0.00000000E+00  0.00000000E+00  0.00000000E+00
  0.00000000E+00  0.00000000E+00  0.00000000E+00
  0.00000000E+00  0.00000000E+00  0.00000000E+00
  0.00000000E+00  0.00000000E+00  0.00000000E+00
  0.00000000E+00  0.00000000E+00  0.00000000E+00
  0.00000000E+00  0.00000000E+00  0.00000000E+00
  0.00000000E+00  0.00000000E+00  0.00000000E+00
  0.00000000E+00  0.00000000E+00  0.00000000E+00
  0.00000000E+00  0.00000000E+00  0.00000000E+00
  0.00000000E+00  0.00000000E+00  0.00000000E+00
  0.00000000E+00  0.00000000E+00  0.00000000E+00
  0.00000000E+00  0.00000000E+00  0.00000000E+00
  0.00000000E+00  0.00000000E+00  0.00000000E+00
  0.00000000E+00  0.00000000E+00  0.00000000E+00
  0.00000000E+00  0.00000000E+00  0.00000000E+00
  0.00000000E+00  0.00000000E+00  0.00000000E+00
  0.00000000E+00  0.00000000E+00  0.00000000E+00
  0.00000000E+00  0.00000000E+00  0.00000000E+00
  0.00000000E+00  0.00000000E+00  0.00000000E+00
  0.00000000E+00  0.00000000E+00  0.00000000E+00
  0.00000000E+00  0.00000000E+00  0.00000000E+00
  0.00000000E+00  0.00000000E+00  0.00000000E+00
  0.00000000E+00  0.00000000E+00  0.00000000E+00
  0.00000000E+00  0.00000000E+00  0.00000000E+00
  0.00000000E+00  0.00000000E+00  0.00000000E+00
  0.00000000E+00  0.00000000E+00  0.00000000E+00
  0.00000000E+00  0.00000000E+00  0.00000000E+00
  0.00000000E+00  0.00000000E+00  0.00000000E+00
  0.00000000E+00  0.00000000E+00  0.00000000E+00
  0.00000000E+00  0.00000000E+00  0.00000000E+00
  0.00000000E+00  0.00000000E+00  0.00000000E+00
  0.00000000E+00  0.00000000E+00  0.00000000E+00
  0.00000000E+00  0.00000000E+00  0.00000000E+00
  0.00000000E+00  0.00000000E+00  0.00000000E+00
  0.00000000E+00  0.00000000E+00  0.00000000E+00
  0.00000000E+00  0.00000000E+00  0.00000000E+00
  0.00000000E+00  0.00000000E+00  0.00000000E+00
  0.00000000E+00  0.00000000E+00  0.00000000E+00
  0.00000000E+00  0.00000000E+00  0.00000000E+00
  0.00000000E+00  0.00000000E+00  0.00000000E+00
  0.00000000E+00  0.00000000E+00  0.00000000E+00
  0.00000000E+00  0.00000000E+00  0.00000000E+00
  0.00000000E+00  0.00000000E+00  0.00000000E+00
  0.00000000E+00  0.00000000E+00  0.00000000E+00
  0.00000000E+00  0.00000000E+00  0.00000000E+00
  0.00000000E+00  0.00000000E+00  0.00000000E+00
  0.00000000E+00  0.00000000E+00  0.00000000E+00
  0.00000000E+00  0.00000000E+00  0.00000000E+00
  0.00000000E+00  0.00000000E+00  0.00000000E+00
  0.00000000E+00  0.00000000E+00  0.00000000E+00
  0.00000000E+00  0.00000000E+00  0.00000000E+00
  0.00000000E+00  0.00000000E+00  0.00000000E+00
  0.00000000E+00  0.00000000E+00  0.00000000E+00
  0.00000000E+00  0.00000000E+00  0.00000000E+00
  0.00000000E+00  0.00000000E+00  0.00000000E+00
  0.00000000E+00  0.00000000E+00  0.00000000E+00
  0.00000000E+00  0.00000000E+00  0.00000000E+00
  0.00000000E+00  0.00000000E+00  0.00000000E+00
  0.00000000E+00  0.00000000E+00  0.00000000E+00
  0.00000000E+00  0.00000000E+00  0.00000000E+00
  0.00000000E+00  0.00000000E+00  0.00000000E+00
  0.00000000E+00  0.00000000E+00  0.00000000E+00
  0.00000000E+00  0.00000000E+00  0.00000000E+00
  0.00000000E+00  0.00000000E+00  0.00000000E+00
  0.00000000E+00  0.00000000E+00  0.00000000E+00
  0.00000000E+00  0.00000000E+00  0.00000000E+00
  0.00000000E+00  0.00000000E+00  0.00000000E+00
  0.00000000E+00  0.00000000E+00  0.00000000E+00
  0.00000000E+00  0.00000000E+00  0.00000000E+00
  0.00000000E+00  0.00000000E+00  0.00000000E+00
  0.00000000E+00  0.00000000E+00  0.00000000E+00
  0.00000000E+00  0.00000000E+00  0.00000000E+00
  0.00000000E+00  0.00000000E+00  0.00000000E+00
  0.00000000E+00  0.00000000E+00  0.00000000E+00
  0.00000000E+00  0.00000000E+00  0.00000000E+00
  0.00000000E+00  0.00000000E+00  0.00000000E+00
  0.00000000E+00  0.00000000E+00  0.00000000E+00
  0.00000000E+00  0.00000000E+00  0.00000000E+00
  0.00000000E+00  0.00000000E+00  0.00000000E+00
  0.00000000E+00  0.00000000E+00  0.00000000E+00
  0.00000000E+00  0.00000000E+00  0.00000000E+00
  0.00000000E+00  0.00000000E+00  0.00000000E+00
  0.00000000E+00  0.00000000E+00  0.00000000E+00
  0.00000000E+00  0.00000000E+00  0.00000000E+00
  0.00000000E+00  0.00000000E+00  0.00000000E+00
  0.00000000E+00  0.00000000E+00  0.00000000E+00
  0.00000000E+00  0.00000000E+00  0.00000000E+00
  0.00000000E+00  0.00000000E+00  0.00000000E+00
  0.00000000E+00  0.00000000E+00  0.00000000E+00
  0.00000000E+00  0.00000000E+00  0.00000000E+00
  0.00000000E+00  0.00000000E+00  0.00000000E+00