Li 
 1.0000000000000000
    14.0000000000000000    0.0000000000000000    0.0000000000000000
     0.0000000000000000   14.0000000000000000    0.0000000000000000
     0.0000000000000000    0.0000000000000000   14.0000000000000000
 Li 
   5
Cartesian
  5.2000000000000002  5.2000000000000002  5.2000000000000002
  7.7999999999999998  7.7999999999999998  7.7999999999999998
  7.7999999999999998  5.2000000000000002  5.2000000000000002
  5.2000000000000002  7.7999999999999998  5.2000000000000002
  5.2000000000000002  7.7999999999999998  7.7999999999999998
