 H  C  N  I Pb 
 1.0000000000000000
    18.0608005523681641    0.0000000000000000    0.0000000000000000
    -0.0049186488613486   18.0627994537353516    0.0000000000000000
     0.0000000000000000    0.0000000000000000   62.4874992370605469
 H   C   N   I   Pb 
 143  39  47  72  24
Cartesian
  7.3163342475891113  5.1449398994445801 34.9178314208984375
  7.5430197715759277 12.6070575714111328 35.6536064147949219
 16.6664104461669922  5.2834835052490225 36.1400299072265696
 16.6690769195556641 14.6765041351318359 35.8077964782714844
  5.7941150665283203  1.6469887495040894 35.1091499328613281
  5.9070429801940918 10.2448387145996094 35.3968467712402344
 14.2973785400390625  1.9338011741638184 35.1939849853515625
  1.9389972686767567  4.3435506820678711 35.0774726867675781
  1.4215774536132795 12.3893213272094727 35.5157165527343750
 10.4700555801391602  3.3466641902923580 35.2961883544921875
 10.8195352554321289 13.9774074554443359 34.9874191284179759
  6.8714046478271484  0.3462703227996826 34.6581306457519602
  4.6429791450500488 11.1935806274414062 34.6589393615722727
 15.7454328536987287  1.0236394405364990 34.7662582397460938
  1.0971527099609393  5.2557806968688965 36.3008880615234375
 17.9119453430175781 12.5269098281860352 36.2720565795898438
  8.7602872848510742  3.1176583766937256 35.5553970336914062
 10.0070514678955060 12.7069740295410156 35.8488731384277344
  5.4688472747802734  7.8173089027404785 35.7125854492187500
  3.4139566421508785  1.0902618169784546 35.5031967163085938
 12.2915487289428711  0.4979884922504425 35.8269844055175781
  8.2306652069091797  6.6110014915466309 34.5931892395019531
  6.7583341598510742 13.7287378311157227 34.5855712890625000
 15.9427852630615234  4.4226179122924805 34.8028335571289062
 17.4635314941406250 15.7913618087768555 34.7357406616210938
  4.0383720397949219  7.1849637031555176 34.9801597595214844
  2.9145056465640660 17.5360504388809204 35.1427574157714844
 12.4584144810214639 16.8641947507858276 35.4323577880859446
 10.2730369567871094  5.5394811630249023 34.6758766174316406
  8.8129816055297852 14.7808399200439453 34.0428962707519531
 18.0339603424072266  3.6907031536102295 34.0055007934570312
  1.2147407531738272 14.3862457275390625 34.3650436401367188
  3.3029389381408691  9.2950582504272461 34.2676239013671946
  5.0828870991244912 16.8453320264816284 34.5893554687500000
 14.6436018208041787 17.0479712486267090 34.7845535278320312
  8.2349138259887695  5.4696412086486816 42.0584907531738281
  7.9244890213012695 14.7057542800903303 41.9097061157226562
 17.2516303658485413  5.1177473068237305 42.2503356933593750
 16.4446485042572021 13.4758386611938477 41.2026367187500000
  5.3205318450927734  0.7622030973434447 42.1791534423828125
  5.4462885856628418 10.1622800827026367 42.0159759521484375
 14.4241285324096680  0.9565434455871582 42.1297111511230469
 15.0561466217041016  8.4172859191894531 41.4799079895019531
  1.6264175176620483  3.0731401443481445 40.4275169372558665
  1.9309371709823606 12.6154317855834961 40.9624328613281250
 10.3948745727539045  3.0217504501342773 40.3959693908691406
 10.3916301727294922 12.2621574401855469 40.7058334350585938
  3.3414165973663330  7.4468045234680176 40.7262573242187500
  2.9429334858432412 16.8457994461059570 40.2076454162597727
 11.4562377929687500  8.7428331375122070 41.0006637573242188
 12.1415609577670693 16.5615949630737305 40.6028633117675781
  1.1298949718475342  3.3991866111755371 42.0670280456543040
  0.3711256384849548 11.8459196090698242 41.0717658996582031
  9.9258985519409162  3.5278773307800293 41.9973487854003906
  9.8353404998779297 12.9510517120361328 42.1980133056640696
  3.8279898166656494  8.1550579071044922 42.2437744140625000
  3.2969753006473184 17.2475930452346802 41.8713912963867188
 12.6354675292968750  7.7196469306945792 41.7739753723144531
 12.6786054829135537 17.0922151803970337 42.1850051879882884
  7.7987504005432129  6.0977797508239746 40.4982147216796875
  7.4679985046386719 14.9755687713623047 40.2484741210937500
 16.6831289529800451  5.7195858955383301 40.7075767517089844
 16.8783351182937658 15.1651487350463867 41.0295486450195312
  6.1686968803405762  1.1535286903381348 40.7218437194824290
  5.8254981040954590 10.5923223495483398 40.3699760437011719
 14.8345394134521484  1.4903070926666260 40.5168151855468821
 15.3465948104858398  9.7877063751220703 40.4664421081542969
  0.1019400656223297  4.4970893859863281 39.4769325256347656
  1.0709691047668457 14.7565813064575195 40.8508186340332031
  9.1172418594360352  4.6167430877685547 39.3257141113281321
  8.9400262832641602 13.4429073333740234 39.3874893188476562
  4.7055620411410928 18.0359465107321739 39.3481979370117188
  4.5521011352539062  8.9224805831909180 39.4433860778808594
 13.4546179035678506 18.0607602214440703 39.4616928100585938
 13.0683803558349609 10.1397352218627912 40.0622520446777344
  8.1032123565673828  5.4420318603515616 48.0459518432617259
  8.1007528305053711 14.4734306335449219 48.0459518432617259
 17.1336116790771484  5.4420318603515616 48.0459518432617259
 17.1311531066894531 14.4734306335449219 48.0459518432617259
  5.4410333633422852  0.9265221953392029 48.0449485778808594
  5.4385743141174316  9.9579219818115234 48.0449485778808594
 14.4714326858520490  0.9265221953392029 48.0449485778808594
 14.4689741134643555  9.9579219818115234 48.0449485778808594
  1.4218254089355467  3.0919990539550781 46.4558296203613281
  1.4193661212921143 12.1233978271484375 46.4558296203613281
 10.4522256851196289  3.0919990539550781 46.4558296203613281
 10.4497661590576172 12.1233978271484375 46.4558296203613281
  3.0899283885955806  7.6075901985168457 46.4545211791992188
  3.0874691009521484 16.6389904022216797 46.4545211791992188
 12.1203289031982422  7.6075901985168457 46.4545211791992188
 12.1178693771362305 16.6389904022216797 46.4545211791992188
  0.9247469902038573  3.5893490314483643 48.0459518432617259
  0.9222877025604248 12.6207475662231445 48.0459518432617259
  9.9551477432250977  3.5893490314483643 48.0459518432617259
  9.9526882171630859 12.6207475662231445 48.0459518432617259
  3.5868983268737793  8.1048498153686523 48.0448913574218821
  3.5844390392303462 17.1362495422363281 48.0448913574218821
 12.6172990798950195  8.1048498153686523 48.0448913574218821
 12.6148395538330078 17.1362495422363281 48.0448913574218821
  7.6061611175537109  5.9393639564514160 46.4558296203613281
  7.6037015914916992 14.9707632064819336 46.4558296203613281
 16.6365604400634766  5.9393639564514160 46.4558296203613281
 16.6341018676757812 14.9707632064819336 46.4558296203613281
  5.9380125999450684  1.4238001108169553 46.4545211791992188
  5.9355530738830566 10.4551992416381836 46.4545211791992188
 14.9684123992919904  1.4238001108169553 46.4545211791992188
 14.9659538269042951 10.4551992416381836 46.4545211791992188
 -0.0011664569610730  4.5157265663146973 45.3548011779785156
 -0.0036257810425013 13.5471258163452148 45.3548011779785156
  9.0292339324951172  4.5157265663146973 45.3548011779785156
  9.0267744064331037 13.5471258163452148 45.3548011779785156
  4.5152091979980469  0.0000000000000000 45.3536758422851562
  4.5127501487731934  9.0313997268676740 45.3536758422851562
 13.5456094741821289  0.0000000000000000 45.3536758422851562
 13.5431499481201172  9.0313997268676740 45.3536758422851562
 14.4634389877319336  9.1526985168457013 32.0650138854980469
 15.8645486831665039  9.0193357467651367 33.1584053039550781
 13.6642942428588867 11.1488494873046875 33.2196388244628906
 13.5551700592041016 11.1330738067626953 34.9741935729980469
 12.3831853866577148  7.8867692947387695 34.2129974365234375
 11.9896297454833984  9.5398731231689453 34.6866416931152344
 14.3298549652099609  7.5626335144042969 35.3055992126464844
 15.5570087432861328  8.8414754867553711 35.4890594482421875
 15.5373125076293945  6.7394142150878906 33.5675926208496094
 13.8392648696899414  6.7430191040039062 33.1216125488281321
 14.2792673110961914  6.9376559257507324 30.7919616699218750
 15.9539804458618164  7.3967480659484863 31.0379447937011754
 16.1689014434814453 11.0686931610107422 33.3114013671875000
 16.1116065979003906 10.9361953735351562 35.0835647583007812
 15.4917602539062500 12.3870553970336914 34.2764244079589915
 10.8698740005493164  9.0481739044189453 32.6197319030761719
 12.3634557723999006  8.5513372421264648 31.7829704284667969
 12.0884399414062500 10.2639560699462891 32.2295532226562500
 12.6796026229858398  8.9175643920898438 36.6104202270507884
 13.8839368820190430 10.2223262786865234 36.8199234008789062
 14.1649913787841797  8.6243104934692383 37.5042610168457031
 14.9019517898559570  4.6573181152343750 31.9233665466308629
 15.3697862625122070  4.9530029296874991 30.2558727264404297
 16.7257480621337891  2.8378005027770992 31.2178192138671875
 17.6568450927734375  6.9487552642822266 32.1383323669433594
  1.0299797058105509  2.2236065864562988 31.5977249145507812
  1.9406642913818339  6.3346176147460938 32.5179481506347656
  2.7027072906494172  3.9863376617431641 32.2085456848144531
 17.9785156250000000  4.3248200416564941 34.8873710632324219
  0.3925838470458962 14.0525779724121094 35.0062370300293040
  9.3660602569580078  4.9685182571411124 34.8819160461425852
  8.8053188323974609 13.8997764587402344 34.6910896301269531
  4.2831420898437500  9.1942491531372070 34.7421340942382812
  4.8982090214267373 17.8895690739154816 34.8455238342285156
 14.1036857822909951 17.9507549703121185 35.0661163330078125
  0.1246455982327461  4.3969278335571289 40.5625267028808665
  0.3918808996677399 13.9072151184082031 40.9637336730957102
  9.1041193008422852  4.5584201812744141 40.4196968078613281
  8.9137945175170898 13.6014499664306641 40.4673309326171875
  4.5839161872863770  9.0148239135742188 40.5319175720214915
  4.5424699047580361 18.0474124616011977 40.4312286376953125
 13.3895187377929688  9.2983694076538086 40.6824798583984446
 13.4876779774203897 18.0547121688723564 40.5545272827148438
  9.0289716720581055  4.5156092643737793 46.4455223083496165
  9.0265130996704102 13.5470085144042969 46.4455223083496165
 18.0593719482421875  4.5156092643737793 46.4455223083496165
 18.0569133758544922 13.5470085144042969 46.4455223083496165
  4.5152091979980469  0.0000180629995157 46.4442062377929759
  4.5127501487731934  9.0314178466796857 46.4442062377929759
 13.5456094741821289  0.0000180629995157 46.4442062377929759
 13.5431499481201172  9.0314178466796857 46.4442062377929759
 17.0126571655273438  4.9420614242553711 31.6097412109375000
 17.4444866180419922  3.6165704727172852 31.4923439025878942
 17.9530162811279297  5.9102673530578613 31.9954605102539098
  0.7246417999267577  3.2651104927062988 31.7010231018066442
  1.2302436828613270  5.5678863525390616 32.2045822143554688
  1.6558971405029306  4.2446789741516113 32.0498428344726562
 14.8335943222045898  8.6866960525512695 32.9832992553710938
 14.1541843414306641 10.7783498764038086 34.1253662109375071
 12.5188970565795898  8.9444389343261719 33.9329032897949219
 14.4768619537353516  8.6463174819946289 35.4276046752929688
 14.8140306472778320  7.1706438064575195 32.8632698059082031
 15.1574430465698242  6.7514376640319824 31.4275779724121129
 15.5729990005493164 11.2943506240844727 34.2016067504882884
 11.9534912109375000  9.2204656600952148 32.5512504577636719
 13.7425413131713867  9.1530075073242188 36.6422233581542969
 15.5609922409057617  5.2763948440551758 31.2910881042480469
  1.0450038909912103  4.6397304534912109 35.4787902832031250
  0.5321388244628906 12.8872747421264648 35.5878372192382812
  9.5220632553100586  3.7010848522186279 35.1923255920410156
  9.9427833557128906 13.4822034835815430 35.1826286315917969
  8.2183990478515625  5.5970063209533691 34.7679214477539062
  7.6383576393127441 13.3414144515991193 34.9400444030761719
 16.7927131652832031  4.7052540779113770 35.2965240478515625
 17.4008083343505859 14.8341722488403320 35.1108131408691406
  4.6401433944702148  7.9902853965759277 35.1312751770019602
  3.6730585098266602  0.1571225374937057 35.1621017456054688
 12.8544534901157022 17.8057388365268707 35.4298286437988281
  5.9053769111633301  0.6671611070632935 34.8227729797363281
  5.0095324516296378 10.2713384628295898 34.9068717956542969
 14.7512769699096662  1.0261312723159790 35.0130424499511790
  1.0065995454788208  3.5705022811889648 41.0668754577636719
  0.9133251905441283 12.7096681594848633 41.0045814514160156
  9.8568096160888672  3.6536493301391602 40.9897193908691406
  9.7582216262817365 12.8963060379028303 41.1889648437500000
  3.8868498802185054  8.1512880325317383 41.2268218994140625
  3.5280079105868936 17.3418233394622803 40.8818359375000000
 12.4466285705566406  8.5249910354614258 41.1722068786621094
 12.7374033192172647 17.1763597726821899 41.1686401367187500
  8.3355865478515625  5.4247384071350098 41.0460472106933594
  8.0438394546508789 14.4692354202270508 40.9230575561523509
 17.3287327289581334  5.1236844062805176 41.2354812622070312
 17.1706953048706055 14.1874208450317383 41.0490913391113352
  5.3841967582702637  0.6898664236068726 41.1621665954589844
  5.3250169754028320  9.9857320785522461 41.0234222412109375
 14.2873954772949219  0.8731248378753662 41.1266365051269531
 14.6752252578735352  9.1495265960693359 40.8842697143554688
  0.8273094892501831  3.6869695186614990 47.0359649658203125
  0.8248501420021057 12.7183685302734375 47.0359649658203125
  9.8577098846435547  3.6869695186614990 47.0359649658203125
  9.8552503585815412 12.7183685302734375 47.0359649658203125
  3.6843190193176270  8.2023353576660156 47.0346527099609375
  3.6818594932556152 17.2337341308593750 47.0346527099609375
 12.7147188186645508  8.2023353576660156 47.0346527099609375
 12.7122592926025391 17.2337341308593750 47.0346527099609375
  8.2006769180297852  5.3445744514465332 47.0360260009765696
  8.1982173919677734 14.3759746551513672 47.0360260009765696
 17.2310771942138672  5.3445744514465332 47.0360260009765696
 17.2286186218261719 14.3759746551513672 47.0360260009765696
  5.3436489105224600  0.8290914893150328 47.0346527099609375
  5.3411893844604483  9.8604917526245117 47.0346527099609375
 14.3740482330322266  0.8290914893150328 47.0346527099609375
 14.3715896606445312  9.8604917526245117 47.0346527099609375
 14.0022964477539062  9.2619333267211914 34.1122055053710938
  9.3025202015414834 17.7807980179786682 34.5752754211425852
  8.5771379470825195  9.1983003616333008 34.5598220825195312
  0.0890048593282700  0.2351378053426743 34.4798049926757884
  0.5215417146682739  8.7324438095092773 34.6089057922363281
  4.6820101737976074  4.2675547599792480 34.6019248962402344
  4.1248292922973633 13.8018617630004883 34.4178466796875000
 13.2336483001708984  4.2234058380126953 34.6350669860839844
 13.3205156326293945 14.3437967300415039 34.5970001220703125
 17.9648072654381394 17.8357225954532623 40.8913002014160156
  0.1639520674943924  9.1143970489501953 40.9246520996093750
  8.9735622406005859  0.0707078427076340 40.9093513488769602
  8.9478912353515625  9.1650724411010742 40.8822593688964844
  4.7288932800292969  4.3773345947265625 40.9227828979492188
  4.4250831604003906 13.6162080764770508 40.8452377319335938
 13.4669904708862305  4.9279727935791007 40.9361686706542969
 13.5919723510742188 13.2697067260742188 40.8687400817871094
  2.4465184211730957  2.1088259220123291 37.9919471740722656
  2.6423196792602539 10.9946889877319336 37.8434906005859375
 11.4858407974243146  2.0814638137817383 37.9663352966308594
 11.1856451034545898 11.4122085571289062 37.8780288696289062
  6.6480865478515625  6.9379305839538565 37.9522132873535227
  6.5846171379089347 15.9648675918579102 37.7594184875488281
 16.0445022583007812  6.6555275917053223 38.1542625427246094
 15.5613641738891602 16.1004467010498047 37.9298706054687500
  2.2680447101593013  6.6226124763488770 38.2088966369628906
  2.0670475959777832 15.7730379104614258 37.8221702575683594
 11.0184421539306641  6.5808081626892090 37.6487312316894531
 11.1679916381835938 15.6217079162597638 38.2535629272460938
  7.1196079254150391  2.4570899009704590 37.7477989196777344
  6.8571333885192862 11.4723882675170881 37.9109535217285227
 15.9132661819458008  2.4652738571166992 38.2599411010742188
 16.2811489105224609 11.6621580123901367 38.0692939758300781
  0.0000000000000000  0.0000000000000000 47.1735610961914062
 -0.0024593239650130  9.0313997268676740 47.1735610961914062
  9.0304002761840803  0.0000000000000000 47.1735610961914062
  9.0279407501220685  9.0313997268676740 47.1735610961914062
  4.5139794349670410  4.5156998634338379 47.1742515563964844
  4.5115203857421875 13.5470991134643537 47.1742515563964844
 13.5443792343139648  4.5156998634338379 47.1742515563964844
 13.5419197082519531 13.5470991134643537 47.1742515563964844
  2.4519233703613277  2.0629522800445557 44.0401268005371165
  2.4494640827178955 11.0943517684936523 44.0401268005371165
 11.4823226928710920  2.0629522800445557 44.0401268005371165
 11.4798641204833984 11.0943517684936523 44.0401268005371165
  6.5760178565979004  6.9684472084045410 44.0401268005371165
  6.5735583305358887 15.9998464584350586 44.0401268005371165
 15.6064186096191406  6.9684472084045410 44.0401268005371165
 15.6039590835571289 15.9998464584350586 44.0401268005371165
  2.0610768795013428  6.5788145065307617 44.0400009155273509
  2.0586175918579102 15.6102142333984375 44.0400009155273509
 11.0914773941040039  6.5788145065307617 44.0400009155273509
 11.0890178680419922 15.6102142333984375 44.0400009155273509
  6.9668641090393066  2.4525938034057613 44.0400657653808665
  6.9644045829772949 11.4839935302734375 44.0400657653808665
 15.9972639083862305  2.4525938034057613 44.0400657653808665
 15.9948053359985352 11.4839935302734375 44.0400657653808665
  2.4316265583038330  2.0832188129425049 50.0684852600097656
  2.4291670322418213 11.1146183013915998 50.0684852600097656
 11.4620265960693359  2.0832188129425049 50.0684852600097656
 11.4595670700073224 11.1146183013915998 50.0684852600097656
  6.5963144302368164  6.9481806755065918 50.0684852600097656
  6.5938549041748047 15.9795799255371076 50.0684852600097656
 15.6267137527465803  6.9481806755065918 50.0684852600097656
 15.6242542266845703 15.9795799255371076 50.0684852600097656
  2.0811281204223633  6.5990090370178223 50.0690460205078125
  2.0786688327789307 15.6304082870483398 50.0690460205078125
 11.1115283966064453  6.5990090370178223 50.0690460205078125
 11.1090688705444336 15.6304082870483398 50.0690460205078125
  6.9468131065368652  2.4323906898498531 50.0690460205078125
  6.9443535804748535 11.4637899398803711 50.0690460205078125
 15.9772129058837891  2.4323906898498531 50.0690460205078125
 15.9747543334960938 11.4637899398803711 50.0690460205078125
 17.9833951890468597  0.1281175017356873 37.7431221008300781
  0.1888351738452911  9.0335693359375000 37.7068595886230540
  9.0554031589999795 17.9286508411169052 37.7250938415527415
  9.0275211334228516  9.0555067062377930 37.6783142089843750
  4.6304454803466797  4.4512991905212402 37.8234901428222727
  4.3763952255249023 13.6379909515380859 37.6802215576171946
 13.4885902404785156  4.5728459358215332 37.8437690734863281
 13.5917148590087891 13.6690616607666016 37.7262077331542969
  0.0000090280000222  0.0000090310004452 44.0429992675781250
 -0.0024502959568053  9.0314083099365234 44.0429992675781250
  9.0304088592529297  0.0000090310004452 44.0429992675781250
  9.0279493331909180  9.0314083099365234 44.0429992675781250
  4.5139703750610352  4.5156903266906738 44.0427513122558594
  4.5115113258361816 13.5470905303955078 44.0427513122558594
 13.5443706512451172  4.5156903266906738 44.0427513122558594
 13.5419111251831037 13.5470905303955078 44.0427513122558594
  0.0000000000000000  0.0000000000000000 50.4472808837890696
 -0.0024593239650130  9.0313997268676740 50.4472808837890696
  9.0304002761840803  0.0000000000000000 50.4472808837890696
  9.0279407501220685  9.0313997268676740 50.4472808837890696
  4.5139703750610352  4.5156998634338379 50.4472808837890696
  4.5115113258361816 13.5470991134643537 50.4472808837890696
 13.5443706512451172  4.5156998634338379 50.4472808837890696
 13.5419111251831055 13.5470991134643537 50.4472808837890696
