 H  C  N  I Pb 
 1.0000000000000000
    18.0608005523681641    0.0000000000000000    0.0000000000000000
    -0.0049186488613486   18.0627994537353516    0.0000000000000000
     0.0000000000000000    0.0000000000000000   62.4874992370605469
 H   C   N   I   Pb 
 143  39  47  72  24
Cartesian
  7.9726238250732422  5.2723126411437988 36.4133224487304759
  7.8711924552917480 14.2333564758300781 36.2955322265625000
 17.0353145599365234  5.3373961448669434 36.4871826171875000
 17.2200756072998047 14.4792394638061523 36.2951126098632812
  5.4572777748107910  0.9109054803848265 36.3482589721679688
  5.4986953735351562 10.2432384490966797 36.2260055541992259
 14.2236509323120117  1.1514621973037720 36.3410148620605469
  1.4822502136230473  3.1162688732147217 34.8977699279785156
  1.5868568420410161 12.2831134796142560 34.7977638244628906
 10.7079582214355469  3.3899927139282227 34.8588523864746165
 10.7065811157226562 12.5548000335693342 34.8073234558105469
  6.2000813484191895  1.0941151380538940 34.8021507263183594
  5.7284317016601554 10.6638803482055664 34.5711822509765625
 14.8963890075683594  1.5018610954284668 34.7948799133300852
  1.0762939453124971  3.7692220211029053 36.4824829101562500
  0.8199291229248038 12.6538572311401367 36.2879600524902344
  9.9569282531738281  3.6496148109436031 36.4009895324707031
  9.8747386932373047 12.7515869140624982 36.3906936645507812
  3.9434516429901123  8.1558685302734375 36.5633468627929688
  3.3366612652316689 17.4089018702507019 36.3290977478027344
 12.6075615147128683 17.1354224085807800 36.3429603576660156
  7.4423899650573722  5.8293986320495605 34.8297615051269602
  7.4494457244873038 14.9636535644531250 34.7466392517089915
 16.3620204925537109  5.5559172630310059 34.8833007812500000
 16.8848628997802734 15.2396898269653303 34.7933502197265625
  3.3636019229888912  7.4548521041870117 35.0974731445312500
  2.9549943665042520 16.7731012105941772 34.7712211608886719
 12.4370559910312295 16.3760842084884644 34.7978553771972727
  9.1437549591064453  4.6594810485839844 33.6650962829589844
  9.2830457687377930 13.8676795959472656 33.6642723083496094
 17.7655410766601562  4.0948886871337891 33.8611373901367188
  0.4233551025390662 13.9426841735839844 33.6247406005859375
  4.4121317863464355  8.9370813369750977 33.6885261535644531
  4.6860551098361611 17.7848052978515661 33.6519279479980469
 13.8586086491122824 17.8499008715152740 33.6659698486328125
  7.9867362976074219  5.4564599990844727 42.0016517639160156
  8.0265855789184570 14.4163274765014648 42.1513824462890625
 17.0427420139312744  5.5206556320190430 41.9785461425781250
 17.0587488412857091 14.4279870986938459 42.2226562500000071
  5.3897633552551261  0.9655680060386658 42.1342582702636719
  5.5055255889892578  9.9457330703735352 42.1056518554687500
 14.6488494873046875  0.9901689291000366 42.0443420410156250
 14.4082784652709961 10.0234804153442383 42.0510749816894531
  1.3954099416732788  3.0252809524536133 40.6441116333007812
  1.5205594301223755 12.2535820007324219 40.5910263061523438
 10.4536170959472638  3.0970754623413086 40.5935707092285156
 10.3881750106811523 12.1336593627929688 40.6429481506347656
  3.0175330638885498  7.6524500846862793 40.6103096008300852
  3.1666077831760049 16.4799709320068395 40.5890998840332102
 12.1199865341186523  7.4192032814025879 41.0248718261718750
 12.0384487370029092 16.7696452140808105 40.7297096252441477
  0.7570268511772156  3.6281404495239258 42.1572074890136719
  0.9000750184059143 12.6997137069702148 42.1726455688476562
  9.7492036819458008  3.5692627429962158 42.1263465881347727
  9.8572044372558594 12.6488838195800781 42.2011909484863281
  3.6272621154785152  8.1862297058105469 42.1810607910156321
  3.6254817703738809 17.1210127472877502 42.1706886291503906
 12.7164525985717773  8.0808124542236328 42.5001983642578125
 12.7139925220981240 17.3579245209693909 42.2534179687500000
  7.6536178588867179  6.0815906524658203 40.3852767944336009
  7.5321974754333496 14.9798965454101562 40.5534286499023438
 16.6593035459518433  5.9363183975219727 40.3646774291992188
 16.5279946327209473 14.9916820526123029 40.6208572387695312
  5.9524827003479004  1.4411129951477051 40.5295562744140696
  6.0045251846313477 10.4598236083984375 40.4931831359863281
 15.0686683654785138  1.4060312509536741 40.3949775695800852
 14.6824207305908185 10.4473743438720703 40.3708267211914134
  0.0864642709493637  4.4398941993713379 39.4228668212890625
  0.0165474414825439 13.6660528182983398 39.4725418090820384
  9.1935586929321289  4.6055088043212891 39.3826560974121094
  9.0269680023193359 13.5544281005859357 39.4677505493164062
  4.5829977253451935 17.9338489770889282 39.4545555114746094
  4.4712924957275391  9.0375757217407227 39.4412155151367188
 13.4835457066074014 18.0596691146492958 39.4557495117187571
 13.1890201568603498  8.7669582366943359 39.6228027343750000
  8.1032123565673828  5.4420318603515616 48.0459518432617259
  8.1007528305053711 14.4734306335449219 48.0459518432617259
 17.1336116790771484  5.4420318603515616 48.0459518432617259
 17.1311531066894531 14.4734306335449219 48.0459518432617259
  5.4410333633422852  0.9265221953392029 48.0449485778808594
  5.4385743141174316  9.9579219818115234 48.0449485778808594
 14.4714326858520490  0.9265221953392029 48.0449485778808594
 14.4689741134643555  9.9579219818115234 48.0449485778808594
  1.4218254089355467  3.0919990539550781 46.4558296203613281
  1.4193661212921143 12.1233978271484375 46.4558296203613281
 10.4522256851196289  3.0919990539550781 46.4558296203613281
 10.4497661590576172 12.1233978271484375 46.4558296203613281
  3.0899283885955806  7.6075901985168457 46.4545211791992188
  3.0874691009521484 16.6389904022216797 46.4545211791992188
 12.1203289031982422  7.6075901985168457 46.4545211791992188
 12.1178693771362305 16.6389904022216797 46.4545211791992188
  0.9247469902038573  3.5893490314483643 48.0459518432617259
  0.9222877025604248 12.6207475662231445 48.0459518432617259
  9.9551477432250977  3.5893490314483643 48.0459518432617259
  9.9526882171630859 12.6207475662231445 48.0459518432617259
  3.5868983268737793  8.1048498153686523 48.0448913574218821
  3.5844390392303462 17.1362495422363281 48.0448913574218821
 12.6172990798950195  8.1048498153686523 48.0448913574218821
 12.6148395538330078 17.1362495422363281 48.0448913574218821
  7.6061611175537109  5.9393639564514160 46.4558296203613281
  7.6037015914916992 14.9707632064819336 46.4558296203613281
 16.6365604400634766  5.9393639564514160 46.4558296203613281
 16.6341018676757812 14.9707632064819336 46.4558296203613281
  5.9380125999450684  1.4238001108169553 46.4545211791992188
  5.9355530738830566 10.4551992416381836 46.4545211791992188
 14.9684123992919904  1.4238001108169553 46.4545211791992188
 14.9659538269042951 10.4551992416381836 46.4545211791992188
 -0.0011664569610730  4.5157265663146973 45.3548011779785156
 -0.0036257810425013 13.5471258163452148 45.3548011779785156
  9.0292339324951172  4.5157265663146973 45.3548011779785156
  9.0267744064331037 13.5471258163452148 45.3548011779785156
  4.5152091979980469  0.0000000000000000 45.3536758422851562
  4.5127501487731934  9.0313997268676740 45.3536758422851562
 13.5456094741821289  0.0000000000000000 45.3536758422851562
 13.5431499481201172  9.0313997268676740 45.3536758422851562
 14.1183128356933594  9.5668201446533203 32.8542861938476634
 15.7548246383666992  9.4075164794921857 33.4977416992187500
 13.9797554016113281 11.4036893844604492 33.8915061950683594
 14.0448722839355469 11.6074132919311523 35.6711425781250000
 12.4359054565429688  8.6139707565307617 35.2602462768554688
 12.2469224929809570 10.3179798126220703 35.5899963378906250
 14.5425815582275391  7.8871912956237793 35.8807830810546875
 15.7481985092163086  9.1829423904418945 36.1602668762207031
 15.4284009933471680  7.1284308433532715 34.3335952758789062
 13.7203836441040039  7.1359820365905762 33.8651084899902344
 14.0999975204467773  7.2655210494995117 31.5459156036376989
 15.6932363510131818  7.9305510520935050 31.7432136535644531
 16.4275341033935547 11.5482530593872070 33.7186813354492259
 16.6730327606201172 10.9477691650390625 35.4032554626464844
 15.9347677230834961 12.5067787170410156 35.2073554992675852
 10.9404706954956055  9.9285392761230451 33.7466583251953125
 12.0947637557983398  9.0106353759765625 32.8795089721679688
 12.2933769226074219 10.7735996246337891 33.0429344177246165
 13.1084985733032209  8.6766881942749023 37.5773162841796875
 13.4368696212768537 10.4052057266235352 37.1802444458007812
 14.5807247161865234  9.5839385986328125 38.1958541870117188
 15.1025781631469709  5.0159668922424316 32.5813941955566406
 15.1740741729736310  5.3586430549621582 30.8807926177978516
 17.1087436676025391  3.4853277206420898 31.3590049743652344
 17.4412956237792969  7.5784006118774414 32.5481796264648438
  1.4979839324951176  3.2258720397949219 31.6567859649658239
  1.7937889099121096  7.3248114585876465 32.8691825866699290
  2.9021053314208993  5.1060380935668945 32.4084434509277344
 17.9056777954101562  4.2936673164367676 34.8894042968750000
  0.2453823089599598 13.7979621887207031 34.7257347106933594
  9.1034936904907227  4.5666532516479492 34.7500228881835938
  9.1067142486572248 13.7192392349243164 34.7296257019042969
  4.5242557525634766  9.0317230224609375 34.7879104614257812
  4.5936025837436310 17.9347718954086304 34.7487258911132884
 13.6937889317050576 17.9583270326256752 34.7587318420410156
 18.0518039949238336  4.4910898208618164 40.5019912719726562
  0.0048110261559486 13.6129913330078107 40.6113357543945384
  9.0694217681884766  4.5671687126159668 40.5026054382324290
  9.0106210708618164 13.5364847183227539 40.5971450805664062
  4.4968318939208984  9.0413885116577148 40.5647048950195312
  4.5424145916476846 17.9848361313343048 40.5847663879394531
 13.3928098678588867  8.9208173751831055 40.6984062194824219
 13.5630302429199219  0.0411405228078365 40.5783424377441406
  9.0289716720581055  4.5156092643737793 46.4455223083496165
  9.0265130996704102 13.5470085144042969 46.4455223083496165
 18.0593719482421875  4.5156092643737793 46.4455223083496165
 18.0569133758544922 13.5470085144042969 46.4455223083496165
  4.5152091979980469  0.0000180629995157 46.4442062377929759
  4.5127501487731934  9.0314178466796857 46.4442062377929759
 13.5456094741821289  0.0000180629995157 46.4442062377929759
 13.5431499481201172  9.0314178466796857 46.4442062377929759
 17.0958480834960938  5.5436902046203613 31.9143772125244176
 17.6876430511474609  4.3535246849060059 31.6727066040039098
 17.9309673309326172  6.6275272369384757 32.3063659667968750
  1.0429706573486364  4.2021450996398926 31.8134727478027344
  1.2134342193603491  6.4987320899963379 32.5026664733886790
  1.8367881774902339  5.2469592094421387 32.2295188903808665
 14.7057743072509766  9.1111364364624023 33.6192932128906250
 14.5180778503417969 11.0957536697387695 34.8033370971679688
 12.6276311874389648  9.5914936065673828 34.8687248229980469
 14.6711635589599592  8.9448480606079102 36.1418838500976634
 14.7278795242309553  7.5258746147155762 33.5739936828613281
 15.0044364929199219  7.2158198356628418 32.1347503662109375
 16.0096797943115234 11.5240907669067365 34.7501373291015696
 11.9902753829956055  9.8504695892333984 33.5419578552246094
 13.9117078781127930  9.4328241348266584 37.3422851562500000
 15.5395565032958984  5.7134623527526855 31.8682308197021484
  0.8631191253662124  3.6657772064208984 35.4870300292968750
  0.9441623687744135 12.8314046859741211 35.3157768249511719
  9.9683046340942383  3.7832202911376953 35.3659667968750000
  9.9336004257202148 12.9557971954345685 35.3516960144042969
  8.0953798294067383  5.2634820938110352 35.3871955871582031
  8.0334854125976562 14.3478469848632812 35.3323669433593750
 17.0402717590332031  5.1103010177612305 35.4718093872070312
 17.3906154632568359 14.5668134689331055 35.3192367553710938
  3.9026753902435303  8.1571130752563477 35.5075035095214844
  3.5584921101108193 17.3351327776908875 35.2962875366210938
 12.8478283146396279 17.1048387289047241 35.3148918151855469
  5.4733843803405762  0.6826642155647277 35.3148117065429688
  5.3008904457092285 10.0514459609985352 35.2034072875976562
 14.3099727630615234  0.9151000976562500 35.3123435974121094
  0.7390885949134827  3.7004237174987793 41.1586227416992188
  0.8329649567604065 12.8380308151245117 41.1722640991210938
  9.7605609893798828  3.7194504737854004 41.1378364562988352
  9.8261632919311523 12.7367973327636719 41.2179069519043040
  3.7067635059356689  8.2827939987182617 41.2043647766113281
  3.7626477936282750 17.1881278157234227 41.1970176696777344
 12.6780433654785156  8.0651807785034180 41.4531555175781250
 12.7620109776034933 17.4048388600349426 41.2731628417968750
  8.1540279388427734  5.4307122230529785 41.0280914306640625
  8.1080112457275391 14.3834161758422834 41.1725234985351562
 17.1847082972526550  5.3830890655517578 41.0114631652832031
 17.1577594876289403 14.3969917297363281 41.1713218688964844
  5.3048200607299805  0.7975990176200867 41.1638412475585938
  5.4144649505615225  9.8883275985717773 41.1284904479980469
 14.5165395736694336  0.8735137581825256 41.0786094665527415
 14.2141666412353516  9.8235578536987287 41.0707359313964844
  0.8273094892501831  3.6869695186614990 47.0359649658203125
  0.8248501420021057 12.7183685302734375 47.0359649658203125
  9.8577098846435547  3.6869695186614990 47.0359649658203125
  9.8552503585815412 12.7183685302734375 47.0359649658203125
  3.6843190193176270  8.2023353576660156 47.0346527099609375
  3.6818594932556152 17.2337341308593750 47.0346527099609375
 12.7147188186645508  8.2023353576660156 47.0346527099609375
 12.7122592926025391 17.2337341308593750 47.0346527099609375
  8.2006769180297852  5.3445744514465332 47.0360260009765696
  8.1982173919677734 14.3759746551513672 47.0360260009765696
 17.2310771942138672  5.3445744514465332 47.0360260009765696
 17.2286186218261719 14.3759746551513672 47.0360260009765696
  5.3436489105224600  0.8290914893150328 47.0346527099609375
  5.3411893844604483  9.8604917526245117 47.0346527099609375
 14.3740482330322266  0.8290914893150328 47.0346527099609375
 14.3715896606445312  9.8604917526245117 47.0346527099609375
 14.1166954040527344  9.6287622451782227 34.8587913513183665
  8.9866266250610352  0.0508842766284943 34.5166587829589844
  8.7288017272949219  8.7577524185180664 34.6074447631835938
 18.0362423527985811  0.0064041879959404 34.4705123901367259
  0.2723438739776611  9.0262422561645508 34.7492980957031321
  4.7263379096984863  4.4615116119384766 34.6274833679199219
  4.5321455001831055 13.6526441574096680 34.5089111328125071
 13.3107109069824201  4.2529926300048828 34.6915817260742188
 13.2624340057373047 13.8273849487304670 34.2440795898437500
 18.0354651007801294  0.0026983632706106 40.8812217712402344
  0.0500890277326107  8.9872999191284180 40.9705314636230469
  9.0485191345214844  0.0051729092374444 40.9309654235839844
  9.0093870162963867  8.9921455383300781 40.9024276733398438
  4.5140433311462402  4.4457478523254395 40.9287223815918040
  4.4966840744018555 13.5479116439819336 40.8519515991210938
 13.4793338775634766  4.4489016532897949 40.9299926757812500
 13.5193052291870117 13.5712976455688459 40.9030456542968750
  2.6362607479095459  1.9089368581771851 38.0003814697265625
  2.6748881340026851 11.0048274993896484 38.0094680786132812
 11.6628074645996076  1.9721559286117554 38.0482444763183594
 11.3274364471435547 11.2476882934570295 38.2363357543945312
  6.4694867134094238  7.1205968856811523 38.0746765136718750
  6.4460253715515128 16.1571331024169922 38.0448722839355469
 15.7591772079467773  6.8258528709411621 38.2303810119628977
 15.4943704605102539 16.1872711181640625 37.9915657043457031
  2.0092887878417969  6.3687067031860352 37.9965400695800781
  1.8873881101608276 15.4935092926025391 38.0214767456054759
 11.0588626861572248  6.5765333175659180 37.9014854431152344
 10.9136505126953125 15.5504837036132812 38.0282173156738352
  7.1386017799377433  2.6049458980560303 38.0475311279296875
  7.1086072921752930 11.5849771499633789 37.9794006347656250
 16.0658416748046875  2.5654428005218506 38.0403976440429688
 16.3633384704589844 11.8626346588134766 38.2257385253906250
  0.0000000000000000  0.0000000000000000 47.1735610961914062
 -0.0024593239650130  9.0313997268676740 47.1735610961914062
  9.0304002761840803  0.0000000000000000 47.1735610961914062
  9.0279407501220685  9.0313997268676740 47.1735610961914062
  4.5139794349670410  4.5156998634338379 47.1742515563964844
  4.5115203857421875 13.5470991134643537 47.1742515563964844
 13.5443792343139648  4.5156998634338379 47.1742515563964844
 13.5419197082519531 13.5470991134643537 47.1742515563964844
  2.4519233703613277  2.0629522800445557 44.0401268005371165
  2.4494640827178955 11.0943517684936523 44.0401268005371165
 11.4823226928710920  2.0629522800445557 44.0401268005371165
 11.4798641204833984 11.0943517684936523 44.0401268005371165
  6.5760178565979004  6.9684472084045410 44.0401268005371165
  6.5735583305358887 15.9998464584350586 44.0401268005371165
 15.6064186096191406  6.9684472084045410 44.0401268005371165
 15.6039590835571289 15.9998464584350586 44.0401268005371165
  2.0610768795013428  6.5788145065307617 44.0400009155273509
  2.0586175918579102 15.6102142333984375 44.0400009155273509
 11.0914773941040039  6.5788145065307617 44.0400009155273509
 11.0890178680419922 15.6102142333984375 44.0400009155273509
  6.9668641090393066  2.4525938034057613 44.0400657653808665
  6.9644045829772949 11.4839935302734375 44.0400657653808665
 15.9972639083862305  2.4525938034057613 44.0400657653808665
 15.9948053359985352 11.4839935302734375 44.0400657653808665
  2.4316265583038330  2.0832188129425049 50.0684852600097656
  2.4291670322418213 11.1146183013915998 50.0684852600097656
 11.4620265960693359  2.0832188129425049 50.0684852600097656
 11.4595670700073224 11.1146183013915998 50.0684852600097656
  6.5963144302368164  6.9481806755065918 50.0684852600097656
  6.5938549041748047 15.9795799255371076 50.0684852600097656
 15.6267137527465803  6.9481806755065918 50.0684852600097656
 15.6242542266845703 15.9795799255371076 50.0684852600097656
  2.0811281204223633  6.5990090370178223 50.0690460205078125
  2.0786688327789307 15.6304082870483398 50.0690460205078125
 11.1115283966064453  6.5990090370178223 50.0690460205078125
 11.1090688705444336 15.6304082870483398 50.0690460205078125
  6.9468131065368652  2.4323906898498531 50.0690460205078125
  6.9443535804748535 11.4637899398803711 50.0690460205078125
 15.9772129058837891  2.4323906898498531 50.0690460205078125
 15.9747543334960938 11.4637899398803711 50.0690460205078125
  0.0128465434536338 18.0281050130724907 37.7054595947265625
  0.1897903680801392  9.0451889038085938 37.8375053405761719
  8.9724525669589639 18.0440137423574924 37.6769943237304759
  9.0012998580932617  9.0544281005859375 37.7061157226562571
  4.5174598693847656  4.4753675460815430 37.7300109863281250
  4.4618453979492188 13.5547084808349609 37.6532592773437500
 13.5896530151367188  4.5018343925476074 37.7988433837890625
 13.5613203048706055 13.6942596435546875 37.7615928649902344
  0.0000090280000222  0.0000090310004452 44.0429992675781250
 -0.0024502959568053  9.0314083099365234 44.0429992675781250
  9.0304088592529297  0.0000090310004452 44.0429992675781250
  9.0279493331909180  9.0314083099365234 44.0429992675781250
  4.5139703750610352  4.5156903266906738 44.0427513122558594
  4.5115113258361816 13.5470905303955078 44.0427513122558594
 13.5443706512451172  4.5156903266906738 44.0427513122558594
 13.5419111251831037 13.5470905303955078 44.0427513122558594
  0.0000000000000000  0.0000000000000000 50.4472808837890696
 -0.0024593239650130  9.0313997268676740 50.4472808837890696
  9.0304002761840803  0.0000000000000000 50.4472808837890696
  9.0279407501220685  9.0313997268676740 50.4472808837890696
  4.5139703750610352  4.5156998634338379 50.4472808837890696
  4.5115113258361816 13.5470991134643537 50.4472808837890696
 13.5443706512451172  4.5156998634338379 50.4472808837890696
 13.5419111251831055 13.5470991134643537 50.4472808837890696
