 H  C  N  I Pb 
 1.0000000000000000
    18.0608005523681641    0.0000000000000000    0.0000000000000000
    -0.0049186488613486   18.0627994537353516    0.0000000000000000
     0.0000000000000000    0.0000000000000000   62.4874992370605469
 H   C   N   I   Pb 
 143  39  47  72  24
Cartesian
  8.1769180297851562  6.0712237358093262 35.2419204711914062
  7.8967633247375488 14.9870309829711914 35.6766586303710938
 17.3630828857421875  5.9226088523864746 35.9678802490234375
 17.0419845581054688 14.7824316024780273 35.7945861816406250
  6.0398506382480264 17.2314962148666417 35.7523422241210938
  6.3170223236083975  9.9557361602783203 34.8454933166503906
 14.5624313354492188  1.5942488908767700 35.1825294494628906
  0.2152957916259779  2.5869243144989014 34.9272766113281321
  1.2898254394531226 11.9864768981933576 35.6466407775878906
  9.9620208740234357  2.8831181526184082 34.9239921569824219
  8.9559926986694336 11.6117401123046875 34.9191360473632812
  6.6140308380126953  0.5117151737213135 34.8070640563964844
  5.2898712158203125 11.3579425811767578 34.5275192260742188
 15.8759508132934570  0.4960298240184784 34.7363853454589844
 17.2520198822021484  3.4601669311523438 36.0539894104003906
 17.8793239593505859 12.4975385665893555 36.4207382202148438
 10.2295160293579102  4.5381832122802734 35.4512901306152344
  7.9151206016540527 12.5187158584594727 35.9517478942871165
  5.0679340362548828  7.9413676261901855 35.7547149658203196
  3.6363581875339150 16.7698018550872803 35.7884521484375000
 12.3554801940917969  0.5345746874809265 35.6350021362304688
  6.7297353744506836  5.2496757507324210 34.6930046081542969
  9.0660400390625000 15.6843042373657227 34.6005630493164062
  0.3505420684814469  6.6507992744445801 34.7859535217285227
 17.9552440643310547 15.6554069519042969 34.6144752502441406
  3.3268334865570068  8.0258846282958984 35.5892028808593750
  2.5850705364719033 17.9114095568656921 35.0010681152343750
 12.2581819752231240 16.8713904619216919 35.2798042297363281
  7.7749986648559570  3.2385687828063965 34.3548088073730469
  9.8633556365966797 13.5663156509399414 33.9413375854492188
  1.1432685852050761  4.5462093353271484 34.0514068603515696
  1.4996509552001946 13.9522390365600586 34.3953170776367259
  3.3208341598510742 10.1612930297851562 34.8041992187500000
  4.3923168182373047  1.1751216650009155 34.2587852478027344
 14.4511808613315225 16.6995400190353394 34.6996231079101562
  8.7909469604492188  6.1343607902526855 41.2192497253418040
  8.0868539810180664 14.6242446899414062 42.1040267944335938
 17.4086508750915563  5.1584873199462882 42.2318534851074290
 16.8040586709976196 13.0791015625000000 42.0322990417480469
  5.5563230514526358  1.0401239395141602 41.8242835998535227
  5.3821883201599112  9.9252204895019531 42.1760749816894602
 14.4773321151733381  1.0310459136962891 42.1124076843261719
 13.8443279266357422 10.7847805023193359 40.9932250976562500
  1.5640238523483276  2.9563896656036377 40.2935485839843750
  2.1239049434661865 13.0476627349853516 40.7239837646484375
 10.2245292663574219  2.7836289405822754 40.8854331970214844
 10.2220802307128906 12.0411024093627930 40.6171150207519602
  3.1851160526275630  7.5022993087768555 40.4828262329101562
  3.0915159443393350 16.6042389869689941 40.6970977783203125
 12.5597429275512695  7.3643522262573233 41.1334762573242188
 12.1675476292148232 16.6255636215209961 40.6692810058593821
  1.1476839780807493  3.3075845241546626 41.9530296325683594
  1.0851321220397949 12.2240953445434570 41.8395004272460938
 10.7107772827148438  4.4210805892944336 41.2129211425781321
  9.6802902221679688 12.5638437271118146 42.1861534118652344
  3.5910248756408691  8.0186405181884766 42.1044731140136790
  3.7184552410617466 17.2568386793136597 42.1811103820800852
 12.0037088394165039  9.0205526351928711 41.1946220397949290
 12.5950302341952920 17.2929112911224365 42.2180252075195312
  7.1994233131408683  5.4325237274169922 40.9965972900390625
  7.7959704399108878 15.2326612472534180 40.5024108886718750
 16.8967093229293823  5.8700318336486816 40.7350387573242188
 16.3536589145660400 14.3640699386596680 40.9446411132812500
  5.9005794525146484  1.3578041791915894 40.1446113586425781
  5.9239902496337882 10.4368381500244141 40.6078453063964844
 15.0542411804199219  1.3585619926452637 40.4971809387207031
 15.4565744400024414 10.1506071090698242 40.7807540893554759
  0.1466824710369110  4.5619969367980957 39.4151954650878906
  0.4186234474182128 14.4918413162231445 39.9932823181152344
  7.9826297760009766  3.2945089340209961 40.7060966491699290
  9.1038990020751953 13.6613502502441406 39.4557876586914062
  4.3967375019565225 17.8967884331941605 39.3282241821289062
  4.6245460510253906  8.9480638504028320 39.4425163269042969
 13.6707004765048623 17.8863143324851990 39.4761619567871094
 14.7754983901977539  7.9354000091552734 40.8504333496093750
  8.1032123565673828  5.4420318603515616 48.0459518432617259
  8.1007528305053711 14.4734306335449219 48.0459518432617259
 17.1336116790771484  5.4420318603515616 48.0459518432617259
 17.1311531066894531 14.4734306335449219 48.0459518432617259
  5.4410333633422852  0.9265221953392029 48.0449485778808594
  5.4385743141174316  9.9579219818115234 48.0449485778808594
 14.4714326858520490  0.9265221953392029 48.0449485778808594
 14.4689741134643555  9.9579219818115234 48.0449485778808594
  1.4218254089355467  3.0919990539550781 46.4558296203613281
  1.4193661212921143 12.1233978271484375 46.4558296203613281
 10.4522256851196289  3.0919990539550781 46.4558296203613281
 10.4497661590576172 12.1233978271484375 46.4558296203613281
  3.0899283885955806  7.6075901985168457 46.4545211791992188
  3.0874691009521484 16.6389904022216797 46.4545211791992188
 12.1203289031982422  7.6075901985168457 46.4545211791992188
 12.1178693771362305 16.6389904022216797 46.4545211791992188
  0.9247469902038573  3.5893490314483643 48.0459518432617259
  0.9222877025604248 12.6207475662231445 48.0459518432617259
  9.9551477432250977  3.5893490314483643 48.0459518432617259
  9.9526882171630859 12.6207475662231445 48.0459518432617259
  3.5868983268737793  8.1048498153686523 48.0448913574218821
  3.5844390392303462 17.1362495422363281 48.0448913574218821
 12.6172990798950195  8.1048498153686523 48.0448913574218821
 12.6148395538330078 17.1362495422363281 48.0448913574218821
  7.6061611175537109  5.9393639564514160 46.4558296203613281
  7.6037015914916992 14.9707632064819336 46.4558296203613281
 16.6365604400634766  5.9393639564514160 46.4558296203613281
 16.6341018676757812 14.9707632064819336 46.4558296203613281
  5.9380125999450684  1.4238001108169553 46.4545211791992188
  5.9355530738830566 10.4551992416381836 46.4545211791992188
 14.9684123992919904  1.4238001108169553 46.4545211791992188
 14.9659538269042951 10.4551992416381836 46.4545211791992188
 -0.0011664569610730  4.5157265663146973 45.3548011779785156
 -0.0036257810425013 13.5471258163452148 45.3548011779785156
  9.0292339324951172  4.5157265663146973 45.3548011779785156
  9.0267744064331037 13.5471258163452148 45.3548011779785156
  4.5152091979980469  0.0000000000000000 45.3536758422851562
  4.5127501487731934  9.0313997268676740 45.3536758422851562
 13.5456094741821289  0.0000000000000000 45.3536758422851562
 13.5431499481201172  9.0313997268676740 45.3536758422851562
 14.0080509185791016 10.0557842254638654 32.4185180664062500
 12.9858961105346680  8.6530399322509766 32.7691993713378977
 15.6811790466308594  9.0593862533569336 33.6155242919921875
 15.5343408584594727  8.7282743453979492 35.3366622924804688
 13.4380407333374023 11.5877723693847656 34.9695358276367259
 14.6948347091674805 10.8003158569335938 35.9481468200683594
 12.0399589538574219  9.8792610168457013 35.5243721008300781
 12.3090429306030256  8.2142505645751953 34.9863586425781321
 11.1395387649536115 10.1149997711181641 33.5477447509765625
 12.1718883514404279 11.5532732009887695 33.3910827636718750
 10.9395265579223633 11.6643390655517578 31.4341354370117188
 12.4038867950439453 10.8766050338745117 30.8562259674072266
 14.2318286895751953  7.0367393493652344 33.0834655761718750
 14.0310983657836914  6.7223291397094718 34.8277702331543040
 15.6281728744506836  6.6260938644409180 34.0879402160644531
 15.5770559310913086 12.5795135498046875 34.5045204162597656
 15.1341161727905273 11.7125597000122070 33.0435752868652344
 16.3671798706054688 11.0218772888183594 34.1493148803711009
 13.9244518280029297  9.5560274124145508 37.2575836181640696
 13.9832506179809570  7.8513593673706046 36.7828063964843750
 12.5191001892089844  8.5364351272583008 37.4794311523437500
  9.7299699783325195  9.5342741012573242 31.5424690246582067
 10.3558378219604492  9.8444871902465820 29.9194965362548864
 12.7072410583496094  8.6746950149536133 29.3649463653564489
 10.0468864440917969  7.4716897010803223 32.5204772949218750
 13.8314094543457013  6.4665708541870117 29.4678955078125036
 11.1946449279785156  5.2562227249145508 32.6412506103515696
 13.1003370285034180  4.7611398696899414 31.1399784088134766
  0.3517532348632805  4.6090202331542969 34.8025283813476562
  0.6314067840576206 13.8139352798461914 35.0414695739746165
  8.3584613800048828  4.0806355476379395 34.7256927490234375
  9.0498561859130859 13.6405544281005842 34.6623611450195312
  4.2864875793457031  9.6770668029785156 34.9849205017089844
  4.5813655853271484  0.2637700438499451 34.8387069702148509
 14.0691036442294717 17.6832530200481415 34.9970779418945312
  0.1917521953582764  4.4185776710510254 40.4940605163574219
  0.2164560556411743 13.7524042129516584 40.7724304199218750
  8.6933860778808594  4.0898561477661133 40.9320106506347656
  9.0107183456420898 13.6345758438110334 40.5383644104003906
  4.5595426559448242  8.9601011276245117 40.5312576293945312
  4.4978198269382119 18.0131814070045948 40.4062995910644531
 14.0379800796508789  8.7296581268310547 40.9456481933593750
 13.6200575092807412 18.0165576189756393 40.5592117309570312
  9.0289716720581055  4.5156092643737793 46.4455223083496165
  9.0265130996704102 13.5470085144042969 46.4455223083496165
 18.0593719482421875  4.5156092643737793 46.4455223083496165
 18.0569133758544922 13.5470085144042969 46.4455223083496165
  4.5152091979980469  0.0000180629995157 46.4442062377929759
  4.5127501487731934  9.0314178466796857 46.4442062377929759
 13.5456094741821289  0.0000180629995157 46.4442062377929759
 13.5431499481201172  9.0314178466796857 46.4442062377929759
 11.3095970153808594  8.2322683334350586 30.9606571197509766
 12.3680200576782209  7.9276990890502930 30.0918292999267578
 10.8769321441650391  7.2479190826416016 31.8538017272949219
 13.0031700134277344  6.6855978965759268 30.1463546752929688
 11.5129117965698242  6.0106015205383301 31.9207687377929723
 12.5868606567382812  5.7217731475830078 31.0753917694091832
 13.2096567153930646  9.6786594390869141 33.0729446411132812
 15.0148887634277344  8.6375026702880859 34.3760261535644602
 14.3196821212768555 10.9344673156738263 34.9256324768066406
 12.7927312850952148  9.0858249664306641 35.4443855285644602
 11.9644641876220703 10.5570659637451172 32.9678153991699219
 11.5208063125610352 10.7296342849731445 31.5046939849853516
 14.6837673187255859  7.1884460449218750 34.0727539062500000
 15.4189338684082013 11.5723743438720703 34.0934371948242188
 13.3513250350952148  8.7454938888549805 36.8042755126953125
 10.6518354415893555  9.5878162384033203 30.9487304687500000
 17.9454727172851562  3.4838891029357906 35.2964973449707102
  0.5687446594238287 12.7033491134643555 35.7346076965332031
  9.6272134780883789  3.8471977710723877 34.9852867126464844
  8.5866498947143555 12.5285968780517578 35.1809120178222656
  7.7431507110595703  5.2302727699279785 34.8469085693359375
  8.6103897094726562 14.8390130996704084 34.9539146423339915
 17.9891662597656250  5.7957477569580078 35.1652488708496094
 17.7764530181884766 14.7584781646728498 35.0738143920898438
  4.2404661178588867  8.4300012588500977 35.3889274597168040
  3.5446974495425820 17.6091499328613281 35.2121620178222656
 12.7882141331210732 17.7408688962459564 35.2869491577148438
  5.8206857899203897 18.0159627571702003 35.1277389526367188
  5.3828458786010742 10.3644504547119123 34.7619094848632884
 14.9001970291137695  0.6381303668022156 35.0202407836914062
  1.0090847015380859  3.4991686344146724 40.9632034301757812
  1.1851043701171873 12.9208230972290039 41.0973320007324290
  9.9565515518188477  3.7578291893005371 41.0260810852050781
  9.6622514724731445 12.6870670318603498 41.1726531982421946
  3.7223653793334961  8.1217975616455078 41.0869903564453125
  3.7241586903110147 17.2529985904693604 41.1547431945800781
 12.7769489288330078  8.3631849288940430 41.0652923583984375
 12.7494453648105264 17.2669122219085729 41.2039604187011790
  8.2100286483764648  5.2979021072387695 41.0596923828125000
  8.2626037597656250 14.5538816452026349 41.0990905761718821
 17.4727503061294556  5.1908764839172363 41.2215042114257812
 17.0737876892089844 13.7375869750976545 41.2960510253906250
  5.3727684020996094  0.8240039348602295 40.8342323303222727
  5.3401646614074707  9.8184967041015625 41.1589355468750000
 14.4247665405273438  0.8338387012481689 41.1018600463867259
 14.4585809707641602  9.9632568359375000 40.9441986083984375
  0.8273094892501831  3.6869695186614990 47.0359649658203125
  0.8248501420021057 12.7183685302734375 47.0359649658203125
  9.8577098846435547  3.6869695186614990 47.0359649658203125
  9.8552503585815412 12.7183685302734375 47.0359649658203125
  3.6843190193176270  8.2023353576660156 47.0346527099609375
  3.6818594932556152 17.2337341308593750 47.0346527099609375
 12.7147188186645508  8.2023353576660156 47.0346527099609375
 12.7122592926025391 17.2337341308593750 47.0346527099609375
  8.2006769180297852  5.3445744514465332 47.0360260009765696
  8.1982173919677734 14.3759746551513672 47.0360260009765696
 17.2310771942138672  5.3445744514465332 47.0360260009765696
 17.2286186218261719 14.3759746551513672 47.0360260009765696
  5.3436489105224600  0.8290914893150328 47.0346527099609375
  5.3411893844604483  9.8604917526245117 47.0346527099609375
 14.3740482330322266  0.8290914893150328 47.0346527099609375
 14.3715896606445312  9.8604917526245117 47.0346527099609375
 13.8267307281494141  9.5757837295532227 34.4540443420410156
  9.2919397354125977  0.2875880002975464 34.5026893615722727
  8.7143888473510742  8.9331235885620117 34.6455116271972656
  0.2398327887058258  0.1050313860177994 34.2687339782714844
  0.6735712289810181  9.1815557479858398 34.5766639709472656
  4.2798113822937012  4.3576426506042480 34.4957084655761719
  4.6144490242004386 13.8282537460327131 34.5920143127441406
 13.3345756530761719  3.7052636146545410 34.6422309875488281
 12.6541128158569336 14.2976989746093750 34.6344680786132884
  0.0314801270142198 17.7612693607807159 40.8361434936523438
 18.0090114474296605  9.1487541198730469 40.9132232666015625
  8.9703521728515625  0.2231775075197220 40.8853569030761790
  9.1528530120849609  8.8331537246704102 40.9182815551757812
  4.6906981468200684  4.4519915580749512 40.8875160217285156
  4.6602535247802734 13.6280660629272461 40.9110946655273438
 13.4667663574218732  4.8223996162414551 40.8850173950195312
 13.4724025726318359 13.4801988601684570 40.8792610168457102
  2.4353933334350586  2.0214357376098633 37.9427642822265696
  2.6807940006256104 10.9554424285888672 37.9975357055664062
 11.6941032409667969  1.8958289623260498 38.0940895080566406
 11.1273698806762678 11.3443031311035156 38.0370330810546946
  6.4657516479492179  7.0021119117736816 37.7850990295410156
  6.7726616859436035 15.8931121826171875 37.8858108520507812
 16.0726947784423828  6.5874004364013672 38.0498085021972727
 15.6718540191650373 15.8539857864379865 37.7744636535644531
  2.1830465793609619  6.6439666748046875 38.0893325805664062
  2.2371306419372559 15.6622066497802734 37.9641532897949219
 10.7201280593872070  6.1192164421081534 37.5637588500976562
 11.1336851119995117 15.7381820678710938 38.3026237487792969
  6.9843502044677734  2.4394223690032959 37.8089637756347727
  6.9479866027832022 11.3511800765991193 38.1532096862792969
 16.0146522521972656  2.4016385078430176 38.1534004211425781
 16.1606597900390625 11.6747579574584961 38.1091079711914062
  0.0000000000000000  0.0000000000000000 47.1735610961914062
 -0.0024593239650130  9.0313997268676740 47.1735610961914062
  9.0304002761840803  0.0000000000000000 47.1735610961914062
  9.0279407501220685  9.0313997268676740 47.1735610961914062
  4.5139794349670410  4.5156998634338379 47.1742515563964844
  4.5115203857421875 13.5470991134643537 47.1742515563964844
 13.5443792343139648  4.5156998634338379 47.1742515563964844
 13.5419197082519531 13.5470991134643537 47.1742515563964844
  2.4519233703613277  2.0629522800445557 44.0401268005371165
  2.4494640827178955 11.0943517684936523 44.0401268005371165
 11.4823226928710920  2.0629522800445557 44.0401268005371165
 11.4798641204833984 11.0943517684936523 44.0401268005371165
  6.5760178565979004  6.9684472084045410 44.0401268005371165
  6.5735583305358887 15.9998464584350586 44.0401268005371165
 15.6064186096191406  6.9684472084045410 44.0401268005371165
 15.6039590835571289 15.9998464584350586 44.0401268005371165
  2.0610768795013428  6.5788145065307617 44.0400009155273509
  2.0586175918579102 15.6102142333984375 44.0400009155273509
 11.0914773941040039  6.5788145065307617 44.0400009155273509
 11.0890178680419922 15.6102142333984375 44.0400009155273509
  6.9668641090393066  2.4525938034057613 44.0400657653808665
  6.9644045829772949 11.4839935302734375 44.0400657653808665
 15.9972639083862305  2.4525938034057613 44.0400657653808665
 15.9948053359985352 11.4839935302734375 44.0400657653808665
  2.4316265583038330  2.0832188129425049 50.0684852600097656
  2.4291670322418213 11.1146183013915998 50.0684852600097656
 11.4620265960693359  2.0832188129425049 50.0684852600097656
 11.4595670700073224 11.1146183013915998 50.0684852600097656
  6.5963144302368164  6.9481806755065918 50.0684852600097656
  6.5938549041748047 15.9795799255371076 50.0684852600097656
 15.6267137527465803  6.9481806755065918 50.0684852600097656
 15.6242542266845703 15.9795799255371076 50.0684852600097656
  2.0811281204223633  6.5990090370178223 50.0690460205078125
  2.0786688327789307 15.6304082870483398 50.0690460205078125
 11.1115283966064453  6.5990090370178223 50.0690460205078125
 11.1090688705444336 15.6304082870483398 50.0690460205078125
  6.9468131065368652  2.4323906898498531 50.0690460205078125
  6.9443535804748535 11.4637899398803711 50.0690460205078125
 15.9772129058837891  2.4323906898498531 50.0690460205078125
 15.9747543334960938 11.4637899398803711 50.0690460205078125
 18.0522163808345795 18.0423650592565536 37.7705993652343750
  0.1044373512268066  9.1158542633056641 37.7653732299804759
  9.1347370147705078  0.1165559291839600 37.7290420532226562
  9.0207090377807617  8.8851299285888672 37.7726249694824219
  4.4888377189636230  4.4573726654052734 37.6419982910156321
  4.5684194564819336 13.4698486328124982 37.7276420593261790
 13.4510755538940430  4.4319186210632324 37.6429138183593750
 13.3205785751342773 13.6389131546020508 37.6656837463378906
  0.0000090280000222  0.0000090310004452 44.0429992675781250
 -0.0024502959568053  9.0314083099365234 44.0429992675781250
  9.0304088592529297  0.0000090310004452 44.0429992675781250
  9.0279493331909180  9.0314083099365234 44.0429992675781250
  4.5139703750610352  4.5156903266906738 44.0427513122558594
  4.5115113258361816 13.5470905303955078 44.0427513122558594
 13.5443706512451172  4.5156903266906738 44.0427513122558594
 13.5419111251831037 13.5470905303955078 44.0427513122558594
  0.0000000000000000  0.0000000000000000 50.4472808837890696
 -0.0024593239650130  9.0313997268676740 50.4472808837890696
  9.0304002761840803  0.0000000000000000 50.4472808837890696
  9.0279407501220685  9.0313997268676740 50.4472808837890696
  4.5139703750610352  4.5156998634338379 50.4472808837890696
  4.5115113258361816 13.5470991134643537 50.4472808837890696
 13.5443706512451172  4.5156998634338379 50.4472808837890696
 13.5419111251831055 13.5470991134643537 50.4472808837890696
