 H  C  N  I Pb 
 1.0000000000000000
    18.0608005523681641    0.0000000000000000    0.0000000000000000
    -0.0049186488613486   18.0627994537353516    0.0000000000000000
     0.0000000000000000    0.0000000000000000   62.4874992370605469
 H   C   N   I   Pb 
 143  39  47  72  24
Cartesian
  8.4919252395629883  6.1216931343078613 35.3353691101074290
  7.9671602249145508 14.9350175857543945 35.9053955078125000
 16.6702060699462891  4.8209476470947266 36.1699638366699219
 16.9325141906738281 14.7924480438232422 35.8129081726074219
  5.7705397605895996  1.4188125133514404 35.6068801879882812
  6.3093304634094229  9.8225898742675781 34.9103126525878906
 14.5135326385498047  1.6740134954452515 35.4616317749023438
  1.9377727508544953  4.5056838989257812 34.8006210327148438
  1.3670978546142567 12.1705131530761719 35.9991111755371094
  9.8630361557006836  2.7540645599365230 35.0565872192382812
  9.0918035507202131 11.6399593353271484 34.8803062438964844
  6.7359180450439453  0.2690873742103577 34.7259101867675781
  5.3856353759765625 11.2957763671875000 34.5618858337402415
 15.8209352493286133  0.6193367242813110 34.8770408630371165
  1.0497245788574219  4.8721399307250977 36.2432785034179688
 17.8466186523437500 12.5923261642456037 36.6058769226074290
 10.3394107818603498  4.3883366584777832 35.4956665039062571
  8.1167774200439453 12.4538230895996094 36.0626564025878906
  4.9150347709655753  7.8977551460266113 35.7777175903320312
  3.3414800167083736  1.0684928894042969 35.7414054870605469
 12.3137617111206055  0.5642893314361572 35.8851013183593750
  6.9406619071960449  5.4848589897155762 34.7859382629394602
  9.0027227401733398 15.7182426452636719 34.7396011352539062
 15.8852434158325195  4.3306541442871094 34.7100067138671875
 17.8721103668212891 15.6584091186523438 34.6400032043457031
  3.1778023242950439  8.0612297058105469 35.5528717041015625
  2.6697761276736851 17.7481485009193420 34.9281539916992188
 12.2287162998691201 16.9171472787857056 35.4280433654785156
  7.7290215492248535  3.3547821044921875 34.4829406738281250
  9.8400526046752930 13.6846351623535156 33.9216194152832102
 17.9879951477050781  4.0948133468627930 33.5784339904785156
  1.5028438568115259 14.0346660614013672 34.6045913696289062
  3.3228538036346431 10.2179679870605469 34.7702941894531250
  4.8091134289279580 17.0079364776611328 34.2075157165527344
 14.4058183887973410 16.8247890472412109 34.7561416625976562
  8.1141328811645508  5.4589543342590332 42.0500869750976562
  8.0927314758300781 14.6063222885131836 42.0677146911621094
 17.0133671760559082  5.0433678627014160 42.1513290405273438
 16.6645795106887817 13.1914072036743164 41.8689956665039134
  5.4795732498168936  0.9407061338424683 42.0208511352539062
  5.3239974975585938 10.0469083786010724 42.1698455810546875
 14.5187454223632795  0.9687812328338623 42.1854896545410156
 15.2029323577880859  8.4959640502929688 41.4399299621582102
  1.6328960657119751  3.1125268936157227 40.5488357543945384
  2.0582163333892822 12.9634094238281250 40.7578773498535156
 10.4730710983276367  3.0606546401977539 40.5976181030273438
 10.2797813415527344 12.0653743743896484 40.5676956176757812
  3.3407883644104004  7.4438719749450684 40.4924545288085938
  3.0198389748111363 16.7378518581390381 40.4721488952636719
 11.5850210189819336  8.5741348266601562 41.0099411010742188
 12.1859869221225363 16.6361202001571655 40.6511116027832102
  0.9465956687927245  3.3794240951538086 42.1263504028320312
  0.8861089348793030 12.1310873031616211 41.7353172302246165
  9.9631605148315430  3.6442854404449463 42.1467971801757884
  9.7747507095336896 12.6224098205566406 42.1329879760742188
  3.6389470100402828  8.0659866333007812 42.0930976867675781
  3.5566670158877969 17.2178674936294556 42.0553283691406321
 12.8884496688842756  7.5452246665954590 41.5583801269531250
 12.6793884495273232 17.1897494792938268 42.2265243530273438
  7.5732655525207520  5.8499407768249512 40.4473953247070312
  7.6630392074584961 15.1148786544799805 40.4525566101074290
 16.6534307003021276  5.7342963218688956 40.5966491699218821
 16.4434292316436768 14.6482753753662109 40.9631309509277415
  5.9880199432373038  1.4021258354187012 40.4190063476562500
  5.8876008987426758 10.5599365234375000 40.6095161437988352
 14.9990396499633789  1.4477282762527466 40.5703353881835938
 15.3494749069213849 10.0595016479492188 40.6800918579101634
  0.2277256846427917  4.5943422317504883 39.4824714660644531
  0.5792081356048583 14.6548433303833008 40.1528244018554688
  9.0296220779418945  4.3733992576599121 39.3962249755859446
  8.9852399826049805 13.5649490356445312 39.4033851623535156
  4.4784326553344727  0.0191151518374681 39.3441238403320312
  4.7443351745605469  8.9405012130737305 39.4486465454101562
 13.5923427799716592 18.0415995344519615 39.5052452087402344
 13.0517988204956055 10.2959194183349609 40.3648185729980469
  8.1032123565673828  5.4420318603515616 48.0459518432617259
  8.1007528305053711 14.4734306335449219 48.0459518432617259
 17.1336116790771484  5.4420318603515616 48.0459518432617259
 17.1311531066894531 14.4734306335449219 48.0459518432617259
  5.4410333633422852  0.9265221953392029 48.0449485778808594
  5.4385743141174316  9.9579219818115234 48.0449485778808594
 14.4714326858520490  0.9265221953392029 48.0449485778808594
 14.4689741134643555  9.9579219818115234 48.0449485778808594
  1.4218254089355467  3.0919990539550781 46.4558296203613281
  1.4193661212921143 12.1233978271484375 46.4558296203613281
 10.4522256851196289  3.0919990539550781 46.4558296203613281
 10.4497661590576172 12.1233978271484375 46.4558296203613281
  3.0899283885955806  7.6075901985168457 46.4545211791992188
  3.0874691009521484 16.6389904022216797 46.4545211791992188
 12.1203289031982422  7.6075901985168457 46.4545211791992188
 12.1178693771362305 16.6389904022216797 46.4545211791992188
  0.9247469902038573  3.5893490314483643 48.0459518432617259
  0.9222877025604248 12.6207475662231445 48.0459518432617259
  9.9551477432250977  3.5893490314483643 48.0459518432617259
  9.9526882171630859 12.6207475662231445 48.0459518432617259
  3.5868983268737793  8.1048498153686523 48.0448913574218821
  3.5844390392303462 17.1362495422363281 48.0448913574218821
 12.6172990798950195  8.1048498153686523 48.0448913574218821
 12.6148395538330078 17.1362495422363281 48.0448913574218821
  7.6061611175537109  5.9393639564514160 46.4558296203613281
  7.6037015914916992 14.9707632064819336 46.4558296203613281
 16.6365604400634766  5.9393639564514160 46.4558296203613281
 16.6341018676757812 14.9707632064819336 46.4558296203613281
  5.9380125999450684  1.4238001108169553 46.4545211791992188
  5.9355530738830566 10.4551992416381836 46.4545211791992188
 14.9684123992919904  1.4238001108169553 46.4545211791992188
 14.9659538269042951 10.4551992416381836 46.4545211791992188
 -0.0011664569610730  4.5157265663146973 45.3548011779785156
 -0.0036257810425013 13.5471258163452148 45.3548011779785156
  9.0292339324951172  4.5157265663146973 45.3548011779785156
  9.0267744064331037 13.5471258163452148 45.3548011779785156
  4.5152091979980469  0.0000000000000000 45.3536758422851562
  4.5127501487731934  9.0313997268676740 45.3536758422851562
 13.5456094741821289  0.0000000000000000 45.3536758422851562
 13.5431499481201172  9.0313997268676740 45.3536758422851562
 13.0092601776123047  8.0024700164794922 33.7499580383300852
 13.3398694992065430  8.9292364120483398 32.2889671325683665
 11.9370651245117188  9.9650115966796875 34.8173408508300781
 12.7856674194335938 11.5154161453247070 34.7335548400878906
 15.3689851760864258  9.1824665069580060 35.4726676940917969
 14.2757501602172852 10.4226293563842773 36.0958404541015696
 15.8131647109985352 10.1419668197631836 33.1947212219238281
 14.5434741973876953 11.2560081481933594 32.6219367980957031
 15.7618274688720703  8.3404836654663086 32.3882637023925781
 15.5655670166015625  7.6403512954711914 33.9838371276855540
 15.7580957412719727  5.8917841911315918 32.3949966430664062
 14.1578197479248047  5.8374400138854980 33.1263275146484446
 11.5097570419311523  9.9490356445312500 32.3939094543457031
 12.4890708923339844 11.4301214218139648 32.1591644287109446
 11.0179462432861328 11.4813385009765625 33.1179275512695312
 13.6915521621704102  8.4197168350219727 37.2389526367187500
 13.6195287704467773  7.4369125366210929 35.7758750915527415
 12.3853492736816406  8.6750431060791016 36.1169395446777415
 14.7705488204956055 12.4818935394287109 34.8768157958984375
 16.2015838623046875 12.4809923171997070 33.8637351989746094
 16.1389389038085938 11.3826894760131836 35.2552566528320312
 14.8225746154785156  6.8937048912048340 30.2836055755615270
 14.2059059143066406  5.2904124259948730 30.7092609405517578
 11.9701356887817365  5.4844098091125488 32.3522415161132812
 13.2353811264038086  8.3640384674072266 29.4260120391845703
  9.6812629699707031  6.4114871025085449 32.2909355163574219
 10.9215860366821289  9.2839918136596680 29.3365554809570312
  9.1465225219726562  8.3413438796997070 30.7997550964355469
 17.9514560699462891  4.3842363357543945 34.6378402709961009
  0.6033077239990209 13.8801736831665039 35.2116775512695384
  8.4101581573486328  4.1289849281311035 34.8426132202148509
  9.0981788635253906 13.6817636489868164 34.7240829467773509
  4.2493014335632324  9.6779098510742188 34.9903869628906250
  4.7055315235629678 17.9458973109722137 34.7659263610839844
 14.0172113636508584 17.7800015211105347 35.1228103637695312
  0.1154232770204544  4.4286093711853027 40.5529708862304688
  0.2337066829204559 13.8547563552856445 40.8191604614257812
  9.0278797149658203  4.4598813056945801 40.4853782653808594
  8.9616174697875977 13.5848722457885742 40.4997863769531321
  4.6333770751953125  8.9878568649291992 40.5360031127929688
  4.5052576065063477  0.0342832058668137 40.4337463378906250
 13.4478931427001953  9.3684091567993164 40.8191909790039062
 13.5998792648315430  0.0079988846555352 40.5978622436523438
  9.0289716720581055  4.5156092643737793 46.4455223083496165
  9.0265130996704102 13.5470085144042969 46.4455223083496165
 18.0593719482421875  4.5156092643737793 46.4455223083496165
 18.0569133758544922 13.5470085144042969 46.4455223083496165
  4.5152091979980469  0.0000180629995157 46.4442062377929759
  4.5127501487731934  9.0314178466796857 46.4442062377929759
 13.5456094741821289  0.0000180629995157 46.4442062377929759
 13.5431499481201172  9.0314178466796857 46.4442062377929759
 12.7695245742797852  6.8625349998474121 30.9029178619384766
 11.7480630874633789  6.3154692649841309 31.6849422454834020
 12.4483308792114240  7.9295039176940909 30.0506801605224645
 10.4555072784423828  6.8407406806945801 31.6559238433837891
 11.1562356948852539  8.4509096145629883 30.0011825561523473
 10.1488990783691406  7.9140267372131348 30.8172702789306676
 13.7685642242431641  8.6122283935546875 33.2445259094238352
 12.5836696624755859 10.5854873657226562 34.1879005432128977
 14.3208055496215820  9.4928197860717773 35.5196075439453125
 14.9842100143432617 10.7832727432250959 33.5046157836914062
 15.0502147674560547  7.8000264167785645 33.0269699096679688
 14.7881011962890625  6.4115624427795410 32.4289169311523438
 11.8825082778930664 10.8587923049926758 32.8743782043457031
 13.4500427246093750  8.4445562362670898 36.1702728271484375
 15.5415143966674787 11.8292827606201172 34.4506683349609375
 14.1864652633666992  6.3516335487365723 31.0170955657958984
  1.0227241516113288  4.5686769485473633 35.2658920288085938
  0.5613079071044933 12.8021783828735352 35.9598693847656321
  9.6339683532714844  3.7504997253417969 35.1211433410644602
  8.7367105484008789 12.5316438674926758 35.2402038574218750
  7.9442944526672363  5.3499016761779776 34.9452323913574219
  8.6187267303466797 14.8458309173583967 35.1108856201171875
 16.7711677551269531  4.5108637809753418 35.1965751647949219
 17.6989917755126953 14.7722921371459961 35.1275138854980469
  4.1309032440185547  8.4312572479248047 35.3928146362304688
  3.5067503452301025  0.2416624128818512 35.1543769836425781
 12.7507938602939248 17.8078784942626953 35.4663696289062571
  5.7893290519714355  0.5803558826446533 35.0227737426757812
  5.3966050148010254 10.2932987213134766 34.7998733520507812
 14.8400421142578125  0.7416887283325195 35.1903953552246094
  0.9392055273056030  3.5785415172576900 41.1231536865234375
  1.0982061624526978 12.9000205993652344 41.1021347045898438
  9.8747348785400373  3.6869103908538818 41.1302795410156250
  9.7029972076416016 12.6993503570556641 41.1294059753417969
  3.8377122879028320  8.1033468246459961 41.0967216491699219
  3.6455053547397256 17.3147013187408447 41.0463905334472656
 12.5942964553833008  8.4333772659301758 41.1535263061523438
 12.7852958897128701 17.2465646266937256 41.2181243896484446
  8.1960325241088867  5.3073463439941406 41.0414543151855469
  8.1941680908203125 14.4889287948608398 41.0585746765136719
 17.2334246039390564  5.1119217872619629 41.1587867736816406
 17.0634837746620214 13.9020814895629883 41.2623291015625000
  5.3783240318298340  0.8316249847412109 41.0079078674316477
  5.3258137702941895  9.9196300506591797 41.1606369018554688
 14.4090118408203125  0.8687732219696045 41.1711463928222656
 14.7480497360229492  9.2957220077514648 40.9968338012695312
  0.8273094892501831  3.6869695186614990 47.0359649658203125
  0.8248501420021057 12.7183685302734375 47.0359649658203125
  9.8577098846435547  3.6869695186614990 47.0359649658203125
  9.8552503585815412 12.7183685302734375 47.0359649658203125
  3.6843190193176270  8.2023353576660156 47.0346527099609375
  3.6818594932556152 17.2337341308593750 47.0346527099609375
 12.7147188186645508  8.2023353576660156 47.0346527099609375
 12.7122592926025391 17.2337341308593750 47.0346527099609375
  8.2006769180297852  5.3445744514465332 47.0360260009765696
  8.1982173919677734 14.3759746551513672 47.0360260009765696
 17.2310771942138672  5.3445744514465332 47.0360260009765696
 17.2286186218261719 14.3759746551513672 47.0360260009765696
  5.3436489105224600  0.8290914893150328 47.0346527099609375
  5.3411893844604483  9.8604917526245117 47.0346527099609375
 14.3740482330322266  0.8290914893150328 47.0346527099609375
 14.3715896606445312  9.8604917526245117 47.0346527099609375
 13.9251871109008789  9.8629684448242170 34.0975532531738281
  9.2840270996093750  0.2421337366104126 34.5429153442382812
  8.7834587097167969  9.0130662918090820 34.5952110290527344
  0.1127337068319321  0.1533322334289551 34.3948173522949219
  0.4833903908729553  9.0618333816528320 34.6556434631347656
  4.5259747505187988  4.3709425926208496 34.5386352539062571
  4.5630345344543457 13.7913913726806623 34.5417938232421875
 13.2740888595581037  3.8204038143157959 34.7314949035644531
 12.6229944229125977 14.3837299346923810 34.6931381225585938
 17.9905922645702958 17.8192923665046727 40.8628044128418040
  0.2672960460186005  8.9612913131713867 40.9458007812500071
  8.9798145294189453  0.0640833079814911 40.9274291992187500
  9.0589342117309553  8.9553861618041992 40.8957862854003977
  4.5865650177001953  4.4553017616271973 40.8993949890136790
  4.5931801795959464 13.6413898468017578 40.8805503845214844
 13.4936122894287109  4.8091931343078613 40.9435844421386790
 13.4701080322265625 13.3912038803100568 40.9058494567871094
  2.3301196098327637  2.2283651828765869 37.9571571350097656
  2.7716338634490967 10.9314861297607422 37.9821968078613281
 11.5595340728759766  2.0511417388916016 38.1892356872558594
 11.4020757675170898 11.1880254745483398 37.9798965454101634
  6.5431146621704102  7.0134978294372559 37.8693809509277344
  6.6913480758666992 15.9733409881591797 37.9029121398925852
 16.0364570617675781  6.6746439933776855 38.0112686157226634
 15.6538352966308594 15.9286899566650391 37.8633575439453125
  2.2143630981445312  6.5711550712585449 38.0150642395019602
  2.2200255393981934 15.8083543777465820 37.9199409484863281
 10.7638616561889648  6.2768921852111816 37.5425720214843821
 11.1237306594848633 15.6638603210449219 38.3569068908691406
  6.9951548576354980  2.4016280174255371 37.9103698730468750
  6.9715099334716788 11.4667110443115234 38.0838775634765625
 15.9650955200195312  2.4753384590148926 38.2262115478515625
 16.2314109802246094 11.5799283981323242 38.3711509704589915
  0.0000000000000000  0.0000000000000000 47.1735610961914062
 -0.0024593239650130  9.0313997268676740 47.1735610961914062
  9.0304002761840803  0.0000000000000000 47.1735610961914062
  9.0279407501220685  9.0313997268676740 47.1735610961914062
  4.5139794349670410  4.5156998634338379 47.1742515563964844
  4.5115203857421875 13.5470991134643537 47.1742515563964844
 13.5443792343139648  4.5156998634338379 47.1742515563964844
 13.5419197082519531 13.5470991134643537 47.1742515563964844
  2.4519233703613277  2.0629522800445557 44.0401268005371165
  2.4494640827178955 11.0943517684936523 44.0401268005371165
 11.4823226928710920  2.0629522800445557 44.0401268005371165
 11.4798641204833984 11.0943517684936523 44.0401268005371165
  6.5760178565979004  6.9684472084045410 44.0401268005371165
  6.5735583305358887 15.9998464584350586 44.0401268005371165
 15.6064186096191406  6.9684472084045410 44.0401268005371165
 15.6039590835571289 15.9998464584350586 44.0401268005371165
  2.0610768795013428  6.5788145065307617 44.0400009155273509
  2.0586175918579102 15.6102142333984375 44.0400009155273509
 11.0914773941040039  6.5788145065307617 44.0400009155273509
 11.0890178680419922 15.6102142333984375 44.0400009155273509
  6.9668641090393066  2.4525938034057613 44.0400657653808665
  6.9644045829772949 11.4839935302734375 44.0400657653808665
 15.9972639083862305  2.4525938034057613 44.0400657653808665
 15.9948053359985352 11.4839935302734375 44.0400657653808665
  2.4316265583038330  2.0832188129425049 50.0684852600097656
  2.4291670322418213 11.1146183013915998 50.0684852600097656
 11.4620265960693359  2.0832188129425049 50.0684852600097656
 11.4595670700073224 11.1146183013915998 50.0684852600097656
  6.5963144302368164  6.9481806755065918 50.0684852600097656
  6.5938549041748047 15.9795799255371076 50.0684852600097656
 15.6267137527465803  6.9481806755065918 50.0684852600097656
 15.6242542266845703 15.9795799255371076 50.0684852600097656
  2.0811281204223633  6.5990090370178223 50.0690460205078125
  2.0786688327789307 15.6304082870483398 50.0690460205078125
 11.1115283966064453  6.5990090370178223 50.0690460205078125
 11.1090688705444336 15.6304082870483398 50.0690460205078125
  6.9468131065368652  2.4323906898498531 50.0690460205078125
  6.9443535804748535 11.4637899398803711 50.0690460205078125
 15.9772129058837891  2.4323906898498531 50.0690460205078125
 15.9747543334960938 11.4637899398803711 50.0690460205078125
 18.0140192210674286  0.0759482383728027 37.7438087463378906
  0.1426326036453247  9.0875539779663086 37.7717285156250000
  9.1101398468017578  0.0256576202809811 37.8063621520996094
  9.0511398315429670  9.0109682083129883 37.7516517639160227
  4.5824995040893546  4.5160331726074219 37.7443923950195312
  4.5199546813964844 13.5887784957885742 37.6762809753418040
 13.4779806137084961  4.5533590316772461 37.8208999633789062
 13.4216737747192383 13.6651296615600586 37.7561721801757812
  0.0000090280000222  0.0000090310004452 44.0429992675781250
 -0.0024502959568053  9.0314083099365234 44.0429992675781250
  9.0304088592529297  0.0000090310004452 44.0429992675781250
  9.0279493331909180  9.0314083099365234 44.0429992675781250
  4.5139703750610352  4.5156903266906738 44.0427513122558594
  4.5115113258361816 13.5470905303955078 44.0427513122558594
 13.5443706512451172  4.5156903266906738 44.0427513122558594
 13.5419111251831037 13.5470905303955078 44.0427513122558594
  0.0000000000000000  0.0000000000000000 50.4472808837890696
 -0.0024593239650130  9.0313997268676740 50.4472808837890696
  9.0304002761840803  0.0000000000000000 50.4472808837890696
  9.0279407501220685  9.0313997268676740 50.4472808837890696
  4.5139703750610352  4.5156998634338379 50.4472808837890696
  4.5115113258361816 13.5470991134643537 50.4472808837890696
 13.5443706512451172  4.5156998634338379 50.4472808837890696
 13.5419111251831055 13.5470991134643537 50.4472808837890696
