 H  C  N  I Pb 
 1.0000000000000000
    18.0608005523681641    0.0000000000000000    0.0000000000000000
    -0.0049186488613486   18.0627994537353516    0.0000000000000000
     0.0000000000000000    0.0000000000000000   62.4874992370605469
 H   C   N   I   Pb 
 143  39  47  72  24
Cartesian
  8.3442544937133789  5.8995003700256348 35.9062576293945312
  8.1310119628906250 15.2087087631225586 35.8988418579101562
 16.6207180023193359  4.3806753158569336 36.3083496093750000
 17.0289173126220703 14.5901432037353516 36.2038764953613352
  5.5191407203674316  1.1666401624679565 35.8998603820800781
  5.8238630294799805 10.3156318664550781 35.9987754821777344
 14.3512363433837891  1.4318648576736450 36.1153335571289062
  1.9151268005371094  4.3860630989074707 34.9149780273437571
  1.7101173400878897 12.2575349807739258 35.4759788513183665
 10.2056674957275391  3.0254354476928711 34.7803726196289062
  8.9241828918457031 11.7326269149780273 35.3099899291992188
  6.5539474487304688  0.1240057945251465 34.9470939636230469
  4.9457650184631348 11.3143901824951172 34.8653259277343821
 15.6812200546264648  0.4872052073478699 35.4208564758300781
  1.0539817810058594  4.2246389389038086 36.4181327819824290
  0.3845367431640596 12.5186080932617188 36.5929679870605469
 10.3387498855590820  4.4714522361755371 35.7503890991210938
  8.3658218383789062 12.7870273590087891 36.5753555297851562
  5.0965862274169922  7.9252901077270508 36.1417503356933594
  3.0666170120239258  0.7759395837783813 35.7144622802734375
 12.1209402084350586  0.4232513308525085 35.9675369262695312
  6.8902516365051270  5.3066406250000000 35.0730781555175852
  8.8605804443359375 15.6943454742431623 34.3768768310546875
 15.8728494644165039  4.3467154502868652 34.7372093200683594
 17.6652755737304688 15.6707706451416016 35.0017547607421875
  3.6919353008270264  7.4727411270141602 35.1771926879882812
  2.5412763813510537 17.5924598574638367 34.6108093261718750
 12.0329546192660910 16.8871396780014038 35.1759796142578125
  7.9754757881164551  3.4141232967376709 34.2438697814941406
  9.4167537689208984 13.4527387619018537 33.8307952880859375
 17.9789314270019531  4.4707083702087402 33.6679077148437571
  1.2800502777099596 14.2510757446289062 34.3324737548828125
  3.4781157970428462  9.5959072113037109 34.2272262573242188
  4.7473849514499307 17.0077303647994995 34.0116653442382812
 14.2328638294711709 16.8181779384613037 34.6982879638671875
  8.3804998397827148  5.6208701133728027 42.1244316101074290
  7.8668193817138663 14.6244459152221680 42.0914306640625071
 17.2502653002738953  5.0317935943603507 42.3737487792968750
 16.6805274486541748 13.9537229537963867 42.1294136047363281
  5.5268950462341309  0.9947930574417114 42.0783576965332102
  5.3038482666015625  9.7696094512939453 42.3495521545410156
 14.2766742706298828  0.9824646711349487 42.1681632995605540
 15.3278264999389631  8.8966903686523438 41.6653861999511719
  1.6071466207504272  3.1436011791229248 40.3449249267578125
  1.7436822652816770 12.5044517517089844 40.8001785278320312
 10.4313869476318359  3.0288841724395752 40.5496292114257812
 10.3522500991821289 12.2073125839233398 40.8960876464843821
  3.2049958705902095  7.4477405548095703 40.4074974060058665
  3.1517101982608433 16.6859138011932373 40.5841178894042969
 11.7133550643920898  8.6781768798828125 41.1885643005371094
 12.1565880039706808 16.4990292787551880 40.5877838134765625
  1.1153777837753296  3.3146488666534424 42.0210762023925781
  0.6438325643539429 12.3269042968750000 42.1577339172363352
 10.2930421829223633  3.8595509529113770 42.0590667724609446
  9.6558475494384748 12.7510881423950195 42.3842086791992259
  3.6028447151184082  7.8217325210571289 42.0766563415527344
  3.6520179966464639 17.2806631922721863 42.1506195068359375
 13.0401144027709961  7.8893361091613770 42.0594940185546946
 12.5709509113803506 17.1085389852523804 42.1712341308593821
  7.4658026695251465  5.7638649940490723 40.6433639526367188
  7.5874271392822266 15.0835218429565430 40.4172325134277415
 16.7045358419418335  5.7838168144226074 40.9248085021972656
 16.6727243661880493 15.0313644409179688 40.7580490112304688
  6.0652794837951660  1.3990619182586670 40.4546813964843750
  5.8061137199401847 10.5041370391845703 40.8367042541503977
 14.8750782012939453  1.4168995618820190 40.5736618041992188
 15.4338722229003906 10.0876741409301758 40.4102439880371094
  0.0780170261859894  4.7141728401184082 39.5477104187011719
  0.5396594405174255 14.2174100875854492 39.8268737792968750
  8.6773576736450195  4.1388039588928223 39.5315589904785156
  9.1348447799682617 13.6063156127929688 39.5573196411132812
  4.5996984699741006 17.9981041923165321 39.4116897583007812
  4.5325241088867179  9.1116485595703125 39.5254859924316477
 13.5693248966708779 17.9161676019430161 39.4693069458007812
 13.1055498123168928 10.0659427642822266 39.9958839416503906
  8.1032123565673828  5.4420318603515616 48.0459518432617259
  8.1007528305053711 14.4734306335449219 48.0459518432617259
 17.1336116790771484  5.4420318603515616 48.0459518432617259
 17.1311531066894531 14.4734306335449219 48.0459518432617259
  5.4410333633422852  0.9265221953392029 48.0449485778808594
  5.4385743141174316  9.9579219818115234 48.0449485778808594
 14.4714326858520490  0.9265221953392029 48.0449485778808594
 14.4689741134643555  9.9579219818115234 48.0449485778808594
  1.4218254089355467  3.0919990539550781 46.4558296203613281
  1.4193661212921143 12.1233978271484375 46.4558296203613281
 10.4522256851196289  3.0919990539550781 46.4558296203613281
 10.4497661590576172 12.1233978271484375 46.4558296203613281
  3.0899283885955806  7.6075901985168457 46.4545211791992188
  3.0874691009521484 16.6389904022216797 46.4545211791992188
 12.1203289031982422  7.6075901985168457 46.4545211791992188
 12.1178693771362305 16.6389904022216797 46.4545211791992188
  0.9247469902038573  3.5893490314483643 48.0459518432617259
  0.9222877025604248 12.6207475662231445 48.0459518432617259
  9.9551477432250977  3.5893490314483643 48.0459518432617259
  9.9526882171630859 12.6207475662231445 48.0459518432617259
  3.5868983268737793  8.1048498153686523 48.0448913574218821
  3.5844390392303462 17.1362495422363281 48.0448913574218821
 12.6172990798950195  8.1048498153686523 48.0448913574218821
 12.6148395538330078 17.1362495422363281 48.0448913574218821
  7.6061611175537109  5.9393639564514160 46.4558296203613281
  7.6037015914916992 14.9707632064819336 46.4558296203613281
 16.6365604400634766  5.9393639564514160 46.4558296203613281
 16.6341018676757812 14.9707632064819336 46.4558296203613281
  5.9380125999450684  1.4238001108169553 46.4545211791992188
  5.9355530738830566 10.4551992416381836 46.4545211791992188
 14.9684123992919904  1.4238001108169553 46.4545211791992188
 14.9659538269042951 10.4551992416381836 46.4545211791992188
 -0.0011664569610730  4.5157265663146973 45.3548011779785156
 -0.0036257810425013 13.5471258163452148 45.3548011779785156
  9.0292339324951172  4.5157265663146973 45.3548011779785156
  9.0267744064331037 13.5471258163452148 45.3548011779785156
  4.5152091979980469  0.0000000000000000 45.3536758422851562
  4.5127501487731934  9.0313997268676740 45.3536758422851562
 13.5456094741821289  0.0000000000000000 45.3536758422851562
 13.5431499481201172  9.0313997268676740 45.3536758422851562
 12.9633321762084961  7.9141402244567871 33.8716735839843750
 13.2824020385742188  8.9654874801635742 32.4780693054199219
 11.8124141693115234  9.9871883392333984 35.0427551269531250
 12.7445487976074201 11.4880905151367188 34.9027404785156250
 15.2675971984863263  9.0870027542114258 35.7451972961425781
 14.1306514739990234 10.3170232772827148 36.3525390625000000
 15.6334075927734375 10.1009187698364258 33.2477493286132812
 14.3247566223144531 11.2909116744995117 32.9431304931640625
 15.6656866073608398  8.3973274230957031 32.4227256774902344
 15.5999307632446289  7.6858105659484854 34.0262870788574290
 15.7568864822387695  5.9374213218688965 32.4541244506836009
 14.1619310379028320  5.8291602134704581 33.1684341430664062
 11.5293445587158203  9.9288368225097656 32.5489501953125000
 12.4544486999511719 11.4516868591308576 32.4144248962402344
 10.9308004379272461 11.4227886199951154 33.2755470275878977
 13.5956602096557617  8.1695175170898438 37.3975257873535156
 13.4831533432006836  7.3163347244262695 35.8501586914062500
 12.2639627456665039  8.5263566970825195 36.3172760009765625
 14.8769598007202148 12.4127073287963867 35.1242332458496094
 16.1919002532958984 12.3437967300415039 33.9698371887207031
 16.2344322204589844 11.2241210937500000 35.3555068969726562
 14.7617883682250977  6.9902858734130850 30.3951244354248082
 14.1675481796264648  5.3858075141906738 30.7521972656250036
 11.9728498458862287  5.7686009407043457 32.6476631164550852
 13.1870765686035138  8.3255357742309570 29.3901462554931641
  9.7015066146850586  6.7959713935852051 32.5961647033691406
 10.9244070053100568  9.3412265777587891 29.3270282745361328
  9.1788682937622070  8.5620737075805664 30.9329528808593786
 17.9367179870605469  4.4059848785400391 34.7394828796386790
  0.6267414093017598 13.9443511962890625 35.1435089111328196
  8.5308027267456055  4.1411938667297363 34.8403053283691477
  8.9680690765380859 13.6836891174316406 34.8054924011230469
  4.2836308479309082  9.4006929397583008 34.9457511901855469
  4.5639991024509063 17.8292244225740433 34.7107505798339844
 13.8593429783359170 17.6965168714523315 35.2286911010742259
  0.1278079748153687  4.4614086151123047 40.6164932250976562
  0.1874522119760513 13.7718515396118164 40.7578926086425781
  8.9591369628906250  4.3945875167846680 40.5658912658691406
  8.9757118225097656 13.6438713073730469 40.6341361999511719
  4.5101685523986816  8.9795722961425781 40.6051750183105469
  4.6086893081665030  0.0081118550151587 40.5022544860839915
 13.5534305572509766  9.3949289321899414 40.7249259948730469
 13.5094312885776162 17.9807510972023010 40.5590324401855469
  9.0289716720581055  4.5156092643737793 46.4455223083496165
  9.0265130996704102 13.5470085144042969 46.4455223083496165
 18.0593719482421875  4.5156092643737793 46.4455223083496165
 18.0569133758544922 13.5470085144042969 46.4455223083496165
  4.5152091979980469  0.0000180629995157 46.4442062377929759
  4.5127501487731934  9.0314178466796857 46.4442062377929759
 13.5456094741821289  0.0000180629995157 46.4442062377929759
 13.5431499481201172  9.0314178466796857 46.4442062377929759
 12.7446489334106445  6.9827837944030762 31.0268859863281250
 11.7308568954467773  6.5385065078735343 31.9024372100830078
 12.4254732131958008  7.9747357368469238 30.0937709808349645
 10.4612188339233398  7.1184201240539551 31.8761272430419886
 11.1497468948364258  8.5551061630249023 30.0437736511230504
 10.1652688980102539  8.1249418258666992 30.9385528564453125
 13.7066497802734375  8.5711898803710938 33.4074859619140696
 12.5053682327270508 10.5465698242187500 34.3946495056152344
 14.2162313461303711  9.3966398239135742 35.7592277526855469
 14.8718671798706055 10.7331628799438477 33.7055816650390625
 15.0195112228393555  7.8129324913024902 33.1045303344726562
 14.7779798507690430  6.4350256919860840 32.4919624328613281
 11.8385086059570312 10.8375816345214844 33.0725669860839844
 13.3430309295654297  8.2982559204101562 36.3358345031738281
 15.5704269409179670 11.7170848846435547 34.6310806274414134
 14.1446790695190430  6.4261498451232910 31.0927352905273438
  1.0148849487304710  4.2959723472595215 35.3949012756347656
  0.9176807403564465 12.8306341171264648 35.7808189392089844
  9.7875680923461896  3.8891742229461670 35.1127319335937500
  8.8136463165283203 12.6963195800781250 35.6541175842285156
  7.8999400138854980  5.2407879829406738 35.2487716674804688
  8.6290798187255859 14.9350471496582031 35.0304527282714915
 16.7372856140136719  4.4471187591552734 35.2898292541503906
 17.6689090728759766 14.7300567626953125 35.4158096313476562
  4.3495593070983887  8.1735963821411133 35.4514732360839844
  3.3260993957519531  0.0212085694074631 35.0373573303222656
 12.5467972019687295 17.7243909239768982 35.4084625244140625
  5.6195039749145499  0.4174115061759949 35.1902160644531321
  5.0979089736938468 10.3841943740844727 35.2596817016601634
 14.6819763183593732  0.5770183801651001 35.6246414184570312
  0.9960738420486449  3.5914711952209473 41.0398483276367259
  0.8883309364318848 12.8100433349609375 41.2788352966308594
  9.9460544586181641  3.7402963638305660 41.1047096252441477
  9.6946649551391602 12.8323411941528303 41.3535995483398438
  3.7395429611206055  8.0238962173461914 41.0726814270019531
  3.7481788853183389 17.3014946579933202 41.1328887939453125
 12.7266006469726562  8.5679969787597656 41.3461685180664134
 12.6952919224277139 17.1468955278396606 41.1547393798828196
  8.2298669815063477  5.3243913650512695 41.1612701416015625
  8.0902671813964844 14.5050230026245117 41.0955543518066406
 17.3252139091491735  5.1232089996337891 41.3686027526855469
 17.1493650674819982 14.2934684753417969 41.2666168212890625
  5.4501667022705078  0.8543053865432739 41.0684509277343750
  5.2479686737060547  9.7812290191650391 41.3274040222167969
 14.2664384841918928  0.8319246768951416 41.1573638916015696
 14.8562860488891602  9.4544553756713867 40.9513397216796946
  0.8273094892501831  3.6869695186614990 47.0359649658203125
  0.8248501420021057 12.7183685302734375 47.0359649658203125
  9.8577098846435547  3.6869695186614990 47.0359649658203125
  9.8552503585815412 12.7183685302734375 47.0359649658203125
  3.6843190193176270  8.2023353576660156 47.0346527099609375
  3.6818594932556152 17.2337341308593750 47.0346527099609375
 12.7147188186645508  8.2023353576660156 47.0346527099609375
 12.7122592926025391 17.2337341308593750 47.0346527099609375
  8.2006769180297852  5.3445744514465332 47.0360260009765696
  8.1982173919677734 14.3759746551513672 47.0360260009765696
 17.2310771942138672  5.3445744514465332 47.0360260009765696
 17.2286186218261719 14.3759746551513672 47.0360260009765696
  5.3436489105224600  0.8290914893150328 47.0346527099609375
  5.3411893844604483  9.8604917526245117 47.0346527099609375
 14.3740482330322266  0.8290914893150328 47.0346527099609375
 14.3715896606445312  9.8604917526245117 47.0346527099609375
 13.8398275375366193  9.7737827301025373 34.3217544555664062
  9.0916624069213867  0.3159862756729126 34.5544433593750000
  8.7133188247680664  9.2727260589599609 34.7138481140136719
 17.9697330519556999  0.0932417362928390 34.4975814819335938
  0.6224855780601501  9.1398992538452148 34.6118316650390625
  4.4486174583435059  4.4894146919250488 34.5965042114257812
  4.4210519790649414 13.8066339492797852 34.5293807983398438
 13.3720798492431623  3.8356001377105708 34.7840499877929688
 12.7265701293945312 14.3204975128173828 34.3992996215820312
  0.0847125658765435 18.0000213161110914 40.9083480834960938
  0.2405599355697632  8.8770952224731445 40.9744415283203125
  9.0681314468383789  0.0202636253088713 40.9250411987304688
  9.0875339508056641  8.9218025207519531 40.9465599060058665
  4.6412220001220703  4.4294714927673340 40.8986015319824219
  4.5235362052917480 13.6014127731323242 40.9108772277832031
 13.4885826110839844  4.6859717369079590 40.9583435058593750
 13.5296983718872070 13.4506502151489258 40.8626022338867188
  2.5139129161834717  2.0605444908142090 37.9416465759277344
  2.6371657848358154 11.0566148757934570 38.1685562133789062
 11.6425495147705078  2.0071892738342285 38.1209259033203125
 11.2442398071289062 11.3122997283935547 38.3508796691894531
  6.4968733787536621  7.0888423919677734 38.0953521728515625
  6.7511053085327148 15.9391937255859375 37.8767814636230540
 15.9870891571044922  6.6892604827880859 38.2861480712890625
 15.6661748886108398 15.9292068481445295 38.1221046447753977
  2.0975797176361084  6.5416059494018555 38.0503158569335938
  2.1614363193511963 15.8147401809692383 38.0184860229492259
 10.6621379852294922  6.2225451469421387 37.7764701843261790
 11.0506343841552734 15.6056480407714844 38.1088790893554688
  6.9123625755310059  2.4069886207580566 37.9288177490234375
  6.8631792068481445 11.4610576629638672 38.3411369323730469
 16.0507431030273438  2.5787420272827148 38.3544692993164134
 16.4575843811035156 11.7385749816894531 38.5558090209961009
  0.0000000000000000  0.0000000000000000 47.1735610961914062
 -0.0024593239650130  9.0313997268676740 47.1735610961914062
  9.0304002761840803  0.0000000000000000 47.1735610961914062
  9.0279407501220685  9.0313997268676740 47.1735610961914062
  4.5139794349670410  4.5156998634338379 47.1742515563964844
  4.5115203857421875 13.5470991134643537 47.1742515563964844
 13.5443792343139648  4.5156998634338379 47.1742515563964844
 13.5419197082519531 13.5470991134643537 47.1742515563964844
  2.4519233703613277  2.0629522800445557 44.0401268005371165
  2.4494640827178955 11.0943517684936523 44.0401268005371165
 11.4823226928710920  2.0629522800445557 44.0401268005371165
 11.4798641204833984 11.0943517684936523 44.0401268005371165
  6.5760178565979004  6.9684472084045410 44.0401268005371165
  6.5735583305358887 15.9998464584350586 44.0401268005371165
 15.6064186096191406  6.9684472084045410 44.0401268005371165
 15.6039590835571289 15.9998464584350586 44.0401268005371165
  2.0610768795013428  6.5788145065307617 44.0400009155273509
  2.0586175918579102 15.6102142333984375 44.0400009155273509
 11.0914773941040039  6.5788145065307617 44.0400009155273509
 11.0890178680419922 15.6102142333984375 44.0400009155273509
  6.9668641090393066  2.4525938034057613 44.0400657653808665
  6.9644045829772949 11.4839935302734375 44.0400657653808665
 15.9972639083862305  2.4525938034057613 44.0400657653808665
 15.9948053359985352 11.4839935302734375 44.0400657653808665
  2.4316265583038330  2.0832188129425049 50.0684852600097656
  2.4291670322418213 11.1146183013915998 50.0684852600097656
 11.4620265960693359  2.0832188129425049 50.0684852600097656
 11.4595670700073224 11.1146183013915998 50.0684852600097656
  6.5963144302368164  6.9481806755065918 50.0684852600097656
  6.5938549041748047 15.9795799255371076 50.0684852600097656
 15.6267137527465803  6.9481806755065918 50.0684852600097656
 15.6242542266845703 15.9795799255371076 50.0684852600097656
  2.0811281204223633  6.5990090370178223 50.0690460205078125
  2.0786688327789307 15.6304082870483398 50.0690460205078125
 11.1115283966064453  6.5990090370178223 50.0690460205078125
 11.1090688705444336 15.6304082870483398 50.0690460205078125
  6.9468131065368652  2.4323906898498531 50.0690460205078125
  6.9443535804748535 11.4637899398803711 50.0690460205078125
 15.9772129058837891  2.4323906898498531 50.0690460205078125
 15.9747543334960938 11.4637899398803711 50.0690460205078125
 17.9856131374835968  0.0725849121809006 37.8216476440429688
  0.0935810953378677  9.1623659133911133 37.7539291381836009
  9.0981254577636719  0.1145865097641945 37.8157844543457102
  8.9934158325195312  9.0943288803100586 37.7693290710449290
  4.5016689300537109  4.5518116950988770 37.7836074829101634
  4.4517436027526855 13.6523151397705078 37.7203292846679759
 13.4954500198364258  4.6747560501098633 37.8565254211425781
 13.3339071273803693 13.6646080017089844 37.6045646667480469
  0.0000090280000222  0.0000090310004452 44.0429992675781250
 -0.0024502959568053  9.0314083099365234 44.0429992675781250
  9.0304088592529297  0.0000090310004452 44.0429992675781250
  9.0279493331909180  9.0314083099365234 44.0429992675781250
  4.5139703750610352  4.5156903266906738 44.0427513122558594
  4.5115113258361816 13.5470905303955078 44.0427513122558594
 13.5443706512451172  4.5156903266906738 44.0427513122558594
 13.5419111251831037 13.5470905303955078 44.0427513122558594
  0.0000000000000000  0.0000000000000000 50.4472808837890696
 -0.0024593239650130  9.0313997268676740 50.4472808837890696
  9.0304002761840803  0.0000000000000000 50.4472808837890696
  9.0279407501220685  9.0313997268676740 50.4472808837890696
  4.5139703750610352  4.5156998634338379 50.4472808837890696
  4.5115113258361816 13.5470991134643537 50.4472808837890696
 13.5443706512451172  4.5156998634338379 50.4472808837890696
 13.5419111251831055 13.5470991134643537 50.4472808837890696
