 H  C  N  I Pb 
 1.0000000000000000
    18.0608005523681641    0.0000000000000000    0.0000000000000000
    -0.0049186488613486   18.0627994537353516    0.0000000000000000
     0.0000000000000000    0.0000000000000000   62.4874992370605469
 H   C   N   I   Pb 
 143  39  47  72  24
Cartesian
  8.5401172637939453  6.0980081558227539 35.4622001647949219
  8.0351705551147461 15.0082368850708008 35.8826103210449219
 16.6649742126464844  4.6362051963806143 36.2303810119628906
 16.9614734649658203 14.7982177734375000 35.8687286376953125
  5.7598309516906729  1.3946219682693481 35.5836830139160227
  6.3077702522277832  9.9610834121704102 35.1330680847167969
 14.4655714035034180  1.6854857206344602 35.5715866088867188
  1.9088325500488281  4.4678950309753418 34.8106880187988281
  1.4084205627441422 12.1725797653198242 35.9571838378906250
  9.8408479690551758  2.7144665718078609 35.0459671020507812
  9.0499954223632812 11.6501741409301740 34.9622497558593750
  6.6900796890258789  0.2306201010942459 34.6910667419433665
  5.3409872055053711 11.3606014251708984 34.6669654846191406
 15.7838497161865234  0.6426438689231871 34.9973640441894531
  1.0421829223632830  4.6646718978881836 36.2929153442382812
 17.9196548461914062 12.5824756622314453 36.6379280090332102
 10.3607854843139648  4.3271732330322266 35.5478019714355540
  8.1370887756347656 12.5336570739746094 36.1494979858398438
  4.9802961349487305  7.9202857017517090 35.7910842895507884
  3.3065752983093262  1.0847868919372559 35.7376060485839915
 12.2519702911376953  0.5492787957191467 35.8427238464355469
  6.9777216911315918  5.5290160179138184 34.8765563964843750
  9.0531692504882812 15.7286443710327148 34.6615905761718750
 15.8565006256103498  4.3404684066772461 34.7301750183105469
 17.8606853485107422 15.6552190780639648 34.6723365783691406
  3.2735846042633057  7.9686861038208008 35.4175796508789062
  2.6183139542117715 17.8080220520496368 34.8936119079589915
 12.1780456760898232 16.9263775348663330 35.3171234130859375
  7.7160911560058594  3.3849618434906006 34.4752845764160156
  9.8312940597534180 13.6472797393798828 33.9160957336425852
 17.9505672454833984  4.2122654914855957 33.5643730163574219
  1.4943981170654312 14.0268115997314453 34.5792388916015625
  3.3345699310302734 10.1509532928466797 34.6834716796875071
  4.7352794865146279 17.0208940505981445 34.1711082458496165
 14.3738083103671670 16.8604888916015625 34.7379875183105469
  8.2111444473266602  5.5077400207519531 42.0782775878906321
  8.0207414627075195 14.5967016220092773 42.0361709594726562
 17.0260074138641357  5.0104217529296875 42.1722297668457102
 16.6722514629364049 13.1740903854370117 41.9472923278808665
  5.5392394065856934  0.9046247601509094 41.9988861083984375
  5.3365125656127930 10.0139570236206055 42.1978378295898509
 14.4813499450683594  0.9765976667404174 42.1520919799804688
 15.2065849304199201  8.5079507827758789 41.4686508178710938
  1.6613757610321045  3.1335482597351070 40.5469284057617188
  2.0433859825134277 13.0037469863891584 40.7225837707519531
 10.4806213378906250  3.0563330650329590 40.5897254943847656
 10.3007879257202148 12.0791845321655273 40.6556320190429688
  3.3492498397827148  7.4381737709045410 40.5054512023925852
  2.9971150616183877 16.7895455360412633 40.4730873107910227
 11.5943841934204084  8.5787544250488281 41.0806198120117259
 12.2069887379184365 16.6030098199844360 40.6182136535644531
  0.9597262740135193  3.3783230781555176 42.1259765625000000
  0.9458130598068236 12.1794176101684570 41.7864494323730469
 10.0458250045776367  3.6934251785278320 42.1379318237304759
  9.7263526916503906 12.6439027786254883 42.1916618347167969
  3.6475841999053955  8.0311965942382812 42.1082115173339915
  3.5715913036838174 17.2616375088691747 42.0486564636230469
 12.9210586547851562  7.5798358917236328 41.6606979370117188
 12.6909069279208762 17.1877096891403234 42.1945304870605540
  7.5768375396728516  5.8617053031921378 40.4949455261230469
  7.6336364746093741 15.0771942138671875 40.4063415527343821
 16.6531623601913452  5.7424783706665039 40.6224517822265625
 16.3813607692718506 14.5975685119628888 40.9817428588867259
  6.0589275360107422  1.3532481193542480 40.4020500183105469
  5.8870434761047363 10.5506830215454102 40.6459045410156321
 14.9862785339355451  1.4620777368545532 40.5493659973144531
 15.3602504730224609 10.0395784378051758 40.6507759094238281
  0.2325410842895508  4.6379351615905753 39.4978866577148438
  0.4932888150215149 14.6149120330810529 40.1049575805664134
  8.9776573181152344  4.3465328216552734 39.4176712036132884
  9.0352563858032227 13.5310420989990234 39.4241828918457031
  4.5002560615539551  0.0161605179309845 39.3349418640136790
  4.7385444641113272  8.9537677764892578 39.4718856811523438
 13.6044105747714639 18.0170953907072544 39.4797210693359375
 13.0589342117309570 10.2482891082763672 40.3317451477050852
  8.1032123565673828  5.4420318603515616 48.0459518432617259
  8.1007528305053711 14.4734306335449219 48.0459518432617259
 17.1336116790771484  5.4420318603515616 48.0459518432617259
 17.1311531066894531 14.4734306335449219 48.0459518432617259
  5.4410333633422852  0.9265221953392029 48.0449485778808594
  5.4385743141174316  9.9579219818115234 48.0449485778808594
 14.4714326858520490  0.9265221953392029 48.0449485778808594
 14.4689741134643555  9.9579219818115234 48.0449485778808594
  1.4218254089355467  3.0919990539550781 46.4558296203613281
  1.4193661212921143 12.1233978271484375 46.4558296203613281
 10.4522256851196289  3.0919990539550781 46.4558296203613281
 10.4497661590576172 12.1233978271484375 46.4558296203613281
  3.0899283885955806  7.6075901985168457 46.4545211791992188
  3.0874691009521484 16.6389904022216797 46.4545211791992188
 12.1203289031982422  7.6075901985168457 46.4545211791992188
 12.1178693771362305 16.6389904022216797 46.4545211791992188
  0.9247469902038573  3.5893490314483643 48.0459518432617259
  0.9222877025604248 12.6207475662231445 48.0459518432617259
  9.9551477432250977  3.5893490314483643 48.0459518432617259
  9.9526882171630859 12.6207475662231445 48.0459518432617259
  3.5868983268737793  8.1048498153686523 48.0448913574218821
  3.5844390392303462 17.1362495422363281 48.0448913574218821
 12.6172990798950195  8.1048498153686523 48.0448913574218821
 12.6148395538330078 17.1362495422363281 48.0448913574218821
  7.6061611175537109  5.9393639564514160 46.4558296203613281
  7.6037015914916992 14.9707632064819336 46.4558296203613281
 16.6365604400634766  5.9393639564514160 46.4558296203613281
 16.6341018676757812 14.9707632064819336 46.4558296203613281
  5.9380125999450684  1.4238001108169553 46.4545211791992188
  5.9355530738830566 10.4551992416381836 46.4545211791992188
 14.9684123992919904  1.4238001108169553 46.4545211791992188
 14.9659538269042951 10.4551992416381836 46.4545211791992188
 -0.0011664569610730  4.5157265663146973 45.3548011779785156
 -0.0036257810425013 13.5471258163452148 45.3548011779785156
  9.0292339324951172  4.5157265663146973 45.3548011779785156
  9.0267744064331037 13.5471258163452148 45.3548011779785156
  4.5152091979980469  0.0000000000000000 45.3536758422851562
  4.5127501487731934  9.0313997268676740 45.3536758422851562
 13.5456094741821289  0.0000000000000000 45.3536758422851562
 13.5431499481201172  9.0313997268676740 45.3536758422851562
 13.0087776184082013  7.9936747550964355 33.7917060852050781
 13.3134908676147461  8.9095325469970703 32.3232536315917969
 11.9195270538330078  9.9684715270996094 34.8623809814453125
 12.7715616226196289 11.5149173736572266 34.7447204589843750
 15.3678188323974609  9.1677198410034180 35.5135383605957031
 14.2501411437988281 10.4158372879028320 36.1219635009765625
 15.7812671661376953 10.1601066589355469 33.1718330383300852
 14.4694480895996094 11.2690267562866211 32.6658592224121094
 15.7378549575805664  8.3594598770141602 32.4096183776855540
 15.5865688323974609  7.6295466423034668 34.0029144287109375
 15.7664470672607422  5.8926854133605957 32.4157447814941477
 14.1548004150390625  5.8323450088500977 33.1134796142578125
 11.4801769256591797  9.9383020401000977 32.4097900390625000
 12.4479475021362305 11.4390573501586914 32.2032241821289062
 10.9679651260375977 11.4584302902221680 33.1528549194336009
 13.6426639556884766  8.4478025436401367 37.2661018371582031
 13.6186246871948242  7.4251446723937988 35.8204383850097656
 12.3556261062622053  8.6380844116210938 36.1106719970703196
 14.7561063766479492 12.4904422760009766 34.9024124145507884
 16.2215290069580078 12.4510965347290021 33.9410591125488281
 16.0637531280517578 11.3362255096435547 35.3068389892578125
 14.8212451934814435  6.8812780380249023 30.3038864135742223
 14.1933269500732422  5.2965970039367667 30.7188644409179723
 11.9786329269409180  5.5057187080383301 32.4066505432128906
 13.2242240905761719  8.3416919708251953 29.4256992340087926
  9.6909523010253906  6.4469904899597168 32.3450279235839915
 10.9197273254394513  9.2688570022583008 29.3442440032959020
  9.1500234603881836  8.3475437164306641 30.8353157043457067
 17.9273986816406250  4.3853273391723633 34.6407546997070312
  0.6215782165527357 13.8685607910156250 35.2166252136230469
  8.4162359237670898  4.1221060752868652 34.8762321472168040
  9.1125755310058594 13.6820459365844727 34.7341079711914062
  4.2703466415405273  9.6663045883178711 34.9743652343750000
  4.6567639568820596 17.9531126916408574 34.7344436645507812
 13.9778942326083779 17.8030089735984802 35.1169624328613281
  0.1294873803853989  4.4400563240051270 40.5746650695800852
  0.2004729211330414 13.8405561447143555 40.8142280578613352
  9.0396680831909180  4.4589624404907227 40.5082397460937571
  8.9635877609252930 13.5685291290283203 40.5150604248046946
  4.6332783699035645  8.9791479110717773 40.5592117309570312
  4.5252022743225098  0.0332307443022728 40.4291191101074290
 13.4628849029541016  9.3592338562011719 40.8233680725097656
 13.5930570820346475 18.0543976351618767 40.5722312927246094
  9.0289716720581055  4.5156092643737793 46.4455223083496165
  9.0265130996704102 13.5470085144042969 46.4455223083496165
 18.0593719482421875  4.5156092643737793 46.4455223083496165
 18.0569133758544922 13.5470085144042969 46.4455223083496165
  4.5152091979980469  0.0000180629995157 46.4442062377929759
  4.5127501487731934  9.0314178466796857 46.4442062377929759
 13.5456094741821289  0.0000180629995157 46.4442062377929759
 13.5431499481201172  9.0314178466796857 46.4442062377929759
 12.7668313980102539  6.8723378181457520 30.9195117950439453
 11.7515249252319336  6.3316369056701660 31.7196483612060547
 12.4436273574829102  7.9242901802062988 30.0565834045410156
 10.4563436508178711  6.8671107292175284 31.6912403106689453
 11.1538810729980469  8.4471330642700195 30.0101127624511719
 10.1495628356933594  7.9295887947082520 30.8444461822509801
 13.7627439498901367  8.6029815673828125 33.2777290344238281
 12.5650920867919904 10.5750522613525391 34.2156867980957031
 14.3116416931152344  9.4847984313964844 35.5495033264160156
 14.9563932418823242 10.7922897338867188 33.5251388549804688
 15.0444393157958984  7.7976689338684082 33.0561523437500000
 14.7910146713256818  6.4116101264953613 32.4330596923828196
 11.8512306213378906 10.8465414047241211 32.9075164794921946
 13.4329624176025391  8.4389562606811523 36.1913642883300781
 15.5171031951904297 11.8160924911499023 34.4909706115722656
 14.1828508377075195  6.3526697158813477 31.0179214477539098
  1.0015869140625018  4.4784979820251465 35.2876052856445312
  0.6092777252197280 12.8010654449462891 35.9660835266113281
  9.6413898468017578  3.7174839973449707 35.1324729919433594
  8.7434177398681641 12.5608320236206055 35.3158607482910156
  7.9743127822875977  5.3525128364562988 35.0304145812988281
  8.6613101959228516 14.8731031417846680 35.0789680480957031
 16.7474212646484375  4.4820322990417480 35.2190513610839915
 17.7106475830078125 14.7580118179321271 35.1546363830566477
  4.1933708190917969  8.4130287170410156 35.3571243286132812
  3.4666609764099117  0.2764047086238861 35.1132469177246165
 12.6982893208041787 17.8108146786689758 35.4001121520996094
  5.7627239227294922  0.5596405267715454 34.9866294860839915
  5.3823657035827628 10.3613834381103516 34.8993797302246094
 14.8016128540039062  0.7503586411476135 35.2739486694335938
  0.9550818800926208  3.5927121639251709 41.1284790039062571
  1.0907292366027832 12.9368534088134766 41.1165122985839844
  9.9059495925903320  3.7091765403747559 41.1313934326171946
  9.6983251571655273 12.7056779861450195 41.1784553527832031
  3.8500683307647701  8.0881404876708984 41.1098480224609375
  3.6458276966586705 17.3476051688194275 41.0412673950195312
 12.6069402694702148  8.4417943954467773 41.2083587646484446
 12.7935938099399209 17.2279472351074219 41.1850013732910227
  8.2304897308349609  5.3360214233398429 41.0774269104003906
  8.1579742431640625 14.4661035537719727 41.0355682373046875
 17.2397611737251282  5.1038851737976074 41.1802177429199290
 17.0367305278778112 13.8875198364257812 41.2989273071289062
  5.4339137077331543  0.8056244254112244 40.9971313476562500
  5.3306717872619629  9.9012222290039062 41.1889038085937500
 14.3975419998168945  0.8722672462463379 41.1472206115722727
 14.7637948989868164  9.2925329208374023 41.0032958984375000
  0.8273094892501831  3.6869695186614990 47.0359649658203125
  0.8248501420021057 12.7183685302734375 47.0359649658203125
  9.8577098846435547  3.6869695186614990 47.0359649658203125
  9.8552503585815412 12.7183685302734375 47.0359649658203125
  3.6843190193176270  8.2023353576660156 47.0346527099609375
  3.6818594932556152 17.2337341308593750 47.0346527099609375
 12.7147188186645508  8.2023353576660156 47.0346527099609375
 12.7122592926025391 17.2337341308593750 47.0346527099609375
  8.2006769180297852  5.3445744514465332 47.0360260009765696
  8.1982173919677734 14.3759746551513672 47.0360260009765696
 17.2310771942138672  5.3445744514465332 47.0360260009765696
 17.2286186218261719 14.3759746551513672 47.0360260009765696
  5.3436489105224600  0.8290914893150328 47.0346527099609375
  5.3411893844604483  9.8604917526245117 47.0346527099609375
 14.3740482330322266  0.8290914893150328 47.0346527099609375
 14.3715896606445312  9.8604917526245117 47.0346527099609375
 13.9041719436645508  9.8619794845581055 34.1248359680175781
  9.2285690307617170  0.2263487875461578 34.4803466796875000
  8.7520389556884766  9.0665359497070295 34.6317558288574219
  0.0780367925763130  0.1649326235055923 34.4492149353027344
  0.5140329003334045  9.0885963439941406 34.6779899597167969
  4.5443401336669913  4.4475598335266113 34.5426368713378906
  4.5034794807434082 13.8445339202880859 34.5426406860351634
 13.2530879974365217  3.8093898296356201 34.7353210449218821
 12.6266946792602539 14.3794231414794904 34.6819648742675781
 17.9692062819376623 17.7758036255836487 40.8830146789550852
  0.2657880783081055  8.9400835037231445 40.9676780700683594
  9.0045146942138672  0.0729854702949524 40.8936119079589844
  9.0639429092407227  8.9556245803833008 40.9166831970214844
  4.6276464462280273  4.4265551567077637 40.8895835876464915
  4.5989933013916016 13.6333351135253888 40.8929023742675781
 13.4928865432739258  4.8056445121765128 40.9351501464843821
 13.4717464447021484 13.4082422256469727 40.9117774963378906
  2.3348989486694336  2.2094004154205322 37.9519386291503906
  2.7715451717376709 10.9357461929321289 38.0121841430664134
 11.5648775100708008  2.0511856079101562 38.1710662841796875
 11.3805456161499023 11.1982097625732422 38.0342216491699219
  6.5723257064819336  7.0005393028259277 37.9241981506347656
  6.7203211784362793 15.9457893371582031 37.8865165710449290
 16.0319499969482422  6.6904644966125488 38.0478248596191406
 15.6662883758544922 15.9283161163330060 37.8744583129882812
  2.2176427841186523  6.5895242691040039 38.0042304992675781
  2.2177906036376953 15.8126010894775391 37.9124870300293040
 10.7775850296020508  6.2776870727539062 37.5656547546386719
 11.1084547042846662 15.6632919311523438 38.3092308044433665
  6.9753489494323730  2.4006385803222656 37.8761291503906250
  6.9506540298461905 11.4412889480590820 38.1426239013671875
 15.9399347305297834  2.4617271423339844 38.2781524658203125
 16.2771530151367188 11.5994873046874982 38.4066047668457031
  0.0000000000000000  0.0000000000000000 47.1735610961914062
 -0.0024593239650130  9.0313997268676740 47.1735610961914062
  9.0304002761840803  0.0000000000000000 47.1735610961914062
  9.0279407501220685  9.0313997268676740 47.1735610961914062
  4.5139794349670410  4.5156998634338379 47.1742515563964844
  4.5115203857421875 13.5470991134643537 47.1742515563964844
 13.5443792343139648  4.5156998634338379 47.1742515563964844
 13.5419197082519531 13.5470991134643537 47.1742515563964844
  2.4519233703613277  2.0629522800445557 44.0401268005371165
  2.4494640827178955 11.0943517684936523 44.0401268005371165
 11.4823226928710920  2.0629522800445557 44.0401268005371165
 11.4798641204833984 11.0943517684936523 44.0401268005371165
  6.5760178565979004  6.9684472084045410 44.0401268005371165
  6.5735583305358887 15.9998464584350586 44.0401268005371165
 15.6064186096191406  6.9684472084045410 44.0401268005371165
 15.6039590835571289 15.9998464584350586 44.0401268005371165
  2.0610768795013428  6.5788145065307617 44.0400009155273509
  2.0586175918579102 15.6102142333984375 44.0400009155273509
 11.0914773941040039  6.5788145065307617 44.0400009155273509
 11.0890178680419922 15.6102142333984375 44.0400009155273509
  6.9668641090393066  2.4525938034057613 44.0400657653808665
  6.9644045829772949 11.4839935302734375 44.0400657653808665
 15.9972639083862305  2.4525938034057613 44.0400657653808665
 15.9948053359985352 11.4839935302734375 44.0400657653808665
  2.4316265583038330  2.0832188129425049 50.0684852600097656
  2.4291670322418213 11.1146183013915998 50.0684852600097656
 11.4620265960693359  2.0832188129425049 50.0684852600097656
 11.4595670700073224 11.1146183013915998 50.0684852600097656
  6.5963144302368164  6.9481806755065918 50.0684852600097656
  6.5938549041748047 15.9795799255371076 50.0684852600097656
 15.6267137527465803  6.9481806755065918 50.0684852600097656
 15.6242542266845703 15.9795799255371076 50.0684852600097656
  2.0811281204223633  6.5990090370178223 50.0690460205078125
  2.0786688327789307 15.6304082870483398 50.0690460205078125
 11.1115283966064453  6.5990090370178223 50.0690460205078125
 11.1090688705444336 15.6304082870483398 50.0690460205078125
  6.9468131065368652  2.4323906898498531 50.0690460205078125
  6.9443535804748535 11.4637899398803711 50.0690460205078125
 15.9772129058837891  2.4323906898498531 50.0690460205078125
 15.9747543334960938 11.4637899398803711 50.0690460205078125
 18.0117231570184266  0.0749825686216354 37.7880439758300781
  0.1294267177581787  9.0932950973510742 37.7859840393066406
  9.0992794036865234  0.0352940186858177 37.7782554626464915
  9.0674266815185547  9.0228700637817383 37.7470321655273438
  4.5731396675109863  4.5263624191284171 37.7446594238281250
  4.4914517402648926 13.5812520980834961 37.6986808776855469
 13.4833078384399414  4.5863943099975586 37.8146476745605469
 13.4072408676147461 13.6707115173339844 37.7369575500488281
  0.0000090280000222  0.0000090310004452 44.0429992675781250
 -0.0024502959568053  9.0314083099365234 44.0429992675781250
  9.0304088592529297  0.0000090310004452 44.0429992675781250
  9.0279493331909180  9.0314083099365234 44.0429992675781250
  4.5139703750610352  4.5156903266906738 44.0427513122558594
  4.5115113258361816 13.5470905303955078 44.0427513122558594
 13.5443706512451172  4.5156903266906738 44.0427513122558594
 13.5419111251831037 13.5470905303955078 44.0427513122558594
  0.0000000000000000  0.0000000000000000 50.4472808837890696
 -0.0024593239650130  9.0313997268676740 50.4472808837890696
  9.0304002761840803  0.0000000000000000 50.4472808837890696
  9.0279407501220685  9.0313997268676740 50.4472808837890696
  4.5139703750610352  4.5156998634338379 50.4472808837890696
  4.5115113258361816 13.5470991134643537 50.4472808837890696
 13.5443706512451172  4.5156998634338379 50.4472808837890696
 13.5419111251831055 13.5470991134643537 50.4472808837890696
