 H  C  N  I Pb 
 1.0000000000000000
    18.0608005523681641    0.0000000000000000    0.0000000000000000
    -0.0049186488613486   18.0627994537353516    0.0000000000000000
     0.0000000000000000    0.0000000000000000   62.4874992370605469
 H   C   N   I   Pb 
 143  39  47  72  24
Cartesian
  7.4042310714721680  5.0168929100036621 35.4088973999023438
  7.4381346702575684 12.6907882690429688 35.8158836364746094
 16.7743473052978516  5.2156758308410645 36.3131675720214915
 16.8285408020019531 14.7040643692016602 35.8501892089843750
  5.8415617942810059  1.6554255485534666 35.3607368469238281
  5.7393379211425781 10.4174308776855469 35.6046714782714915
 14.4855012893676758  1.7711691856384277 35.5808830261230540
  1.9989566802978487  4.3392968177795410 35.1326255798339844
  1.4515991210937518 12.2793989181518555 35.5755653381347727
 10.6771097183227539  3.4168486595153804 35.3115577697753906
 10.8654842376708984 13.5072002410888654 34.9338493347167969
  6.8218145370483398  0.3705550432205200 34.6948738098144531
  4.5685200691223145 11.2560424804687500 34.6360778808593750
 15.7973079681396484  0.8005615472793579 34.9239654541015625
  1.1366424560546877  5.1712555885314941 36.4093246459960938
 17.9700832366943359 12.5322780609130859 36.3518218994140625
  8.9949436187744141  3.1093132495880127 35.7530479431152344
  9.9014692306518555 12.4393405914306641 35.9324836730957031
  5.5197610855102539  7.9471716880798340 35.8102874755859375
  3.4129145145416255  1.1981244087219238 35.6123962402343750
 12.2669343948364258  0.5892773866653442 35.7988624572753906
  8.1332731246948242  6.5155568122863761 34.8756637573242259
  6.8023409843444824 13.9172449111938477 34.7627449035644531
 15.9820537567138672  4.3148760795593262 35.0376014709472656
 17.6658439636230469 15.7699651718139648 34.7709999084472656
  4.2207155227661133  7.2175593376159659 34.9297828674316406
  2.7911147335544229 17.8181875646114385 34.8940353393554688
 12.2240518787875772 17.0206344127655029 35.1937217712402344
 10.2411756515502912  5.5916843414306641 34.6553192138671875
  8.9698982238769531 14.5920600891113281 34.0816650390625000
 18.0516510009765625  3.6284372806549068 34.1163177490234375
  1.3571701049804692 14.2843141555786133 34.4231986999511719
  3.4168376922607422  9.2571077346801758 34.1303977966308594
  4.9552640179172158 17.0783947706222534 34.2750396728515625
 14.4308122852817178 17.0230479240417480 34.5707969665527415
  8.1840028762817383  5.3024549484252921 42.1005668640136790
  7.9370064735412598 14.6543645858764648 41.9658584594726634
 17.3503924608230591  5.0933704376220703 42.3780708312988281
 16.5522767305374146 13.3996667861938477 41.7887306213378906
  5.3963537216186523  0.7513191699981689 42.1800918579101562
  5.4965076446533203 10.0473985671997070 42.1250076293945312
 14.3566913604736310  0.9803121089935303 42.1862106323242188
 14.9398822784423810  9.1150293350219727 41.8659858703613352
  1.6272836923599243  3.0882515907287598 40.4047622680664062
  1.8851486444473267 12.5884437561035138 40.7498817443847656
 10.4198961257934570  2.9678413867950439 40.3841400146484375
 10.3831710815429688 12.2411756515502930 40.6891708374023438
  3.3560764789581299  7.4584808349609375 40.6547164916992188
  2.9408251503482461 16.8240815401077306 40.3416862487793040
 11.5928173065185547  8.2813310623168945 40.6910629272460938
 12.2045454243198037 16.5551147460937500 40.5609588623046946
  1.1871411800384519  3.3827874660491939 42.0668983459472727
  0.5210843086242676 11.8858327865600586 41.5733261108398509
  9.8231372833251953  3.3273761272430420 41.9759330749511719
  9.8090410232543945 12.8637790679931641 42.1990814208984375
  3.9062321186065669  8.0080308914184570 42.2149505615234446
  3.3550211647525430 17.2343142032623291 41.9869232177734446
 12.6851005554199219  7.8687148094177246 41.9662513732910156
 12.5929931858554465 17.1441895961761475 42.1623992919921875
  7.9310078620910645  6.1471309661865234 40.6054649353027415
  7.4713234901428223 14.9908990859985352 40.3303947448730469
 16.7169528007507324  5.7749381065368652 40.9021606445312500
 16.7388867139816284 15.0079269409179688 41.1045265197753906
  6.1677279472351074  1.1201006174087524 40.6789474487304688
  5.7897553443908691 10.6492691040039045 40.5319252014160156
 14.9429664611816406  1.4411365985870361 40.6222229003906250
 15.1142578124999982 10.2348442077636719 40.5581703186035156
  0.0647909492254257  4.5636925697326660 39.5371284484863281
  0.8093085289001465 14.6031265258789062 40.3192062377929688
  9.2865180969238281  4.7443571090698242 39.3859405517578125
  8.9923505783081055 13.5198316574096680 39.4027252197265625
  4.6532153347507119 17.9757176712155342 39.4000816345214844
  4.4824180603027344  9.0742187500000000 39.4831428527832031
 13.6522068241611105 17.9590370953083038 39.4906044006347727
 13.0065584182739258  9.7965898513793945 39.6912384033203125
  8.1032123565673828  5.4420318603515616 48.0459518432617259
  8.1007528305053711 14.4734306335449219 48.0459518432617259
 17.1336116790771484  5.4420318603515616 48.0459518432617259
 17.1311531066894531 14.4734306335449219 48.0459518432617259
  5.4410333633422852  0.9265221953392029 48.0449485778808594
  5.4385743141174316  9.9579219818115234 48.0449485778808594
 14.4714326858520490  0.9265221953392029 48.0449485778808594
 14.4689741134643555  9.9579219818115234 48.0449485778808594
  1.4218254089355467  3.0919990539550781 46.4558296203613281
  1.4193661212921143 12.1233978271484375 46.4558296203613281
 10.4522256851196289  3.0919990539550781 46.4558296203613281
 10.4497661590576172 12.1233978271484375 46.4558296203613281
  3.0899283885955806  7.6075901985168457 46.4545211791992188
  3.0874691009521484 16.6389904022216797 46.4545211791992188
 12.1203289031982422  7.6075901985168457 46.4545211791992188
 12.1178693771362305 16.6389904022216797 46.4545211791992188
  0.9247469902038573  3.5893490314483643 48.0459518432617259
  0.9222877025604248 12.6207475662231445 48.0459518432617259
  9.9551477432250977  3.5893490314483643 48.0459518432617259
  9.9526882171630859 12.6207475662231445 48.0459518432617259
  3.5868983268737793  8.1048498153686523 48.0448913574218821
  3.5844390392303462 17.1362495422363281 48.0448913574218821
 12.6172990798950195  8.1048498153686523 48.0448913574218821
 12.6148395538330078 17.1362495422363281 48.0448913574218821
  7.6061611175537109  5.9393639564514160 46.4558296203613281
  7.6037015914916992 14.9707632064819336 46.4558296203613281
 16.6365604400634766  5.9393639564514160 46.4558296203613281
 16.6341018676757812 14.9707632064819336 46.4558296203613281
  5.9380125999450684  1.4238001108169553 46.4545211791992188
  5.9355530738830566 10.4551992416381836 46.4545211791992188
 14.9684123992919904  1.4238001108169553 46.4545211791992188
 14.9659538269042951 10.4551992416381836 46.4545211791992188
 -0.0011664569610730  4.5157265663146973 45.3548011779785156
 -0.0036257810425013 13.5471258163452148 45.3548011779785156
  9.0292339324951172  4.5157265663146973 45.3548011779785156
  9.0267744064331037 13.5471258163452148 45.3548011779785156
  4.5152091979980469  0.0000000000000000 45.3536758422851562
  4.5127501487731934  9.0313997268676740 45.3536758422851562
 13.5456094741821289  0.0000000000000000 45.3536758422851562
 13.5431499481201172  9.0313997268676740 45.3536758422851562
 14.4486198425292969  9.1918725967407227 32.1700439453125000
 15.8769388198852539  9.0410289764404297 33.2042922973632884
 13.7845697402954102 11.2601366043090820 33.2620887756347656
 13.7668762207031250 11.3230991363525373 35.0147666931152344
 12.3889179229736310  8.1154718399047852 34.4156799316406250
 12.1093320846557617  9.7778797149658203 34.9003562927246094
 14.4110908508300781  7.7354741096496582 35.4488029479980540
 15.6600894927978516  8.9769887924194336 35.5531349182128977
 15.4952955245971680  6.7919912338256836 33.7037391662597656
 13.7789945602416992  6.8277983665466309 33.3304176330566406
 14.1217317581176758  6.8964681625366211 30.9831638336181641
 15.7975826263427734  7.3815226554870605 31.1192741394043004
 16.2245674133300781 11.1812982559204102 33.1587295532226562
 16.3751811981201172 10.9427137374877930 34.9093360900878906
 15.7120418548583984 12.4631109237670881 34.2688064575195312
 10.8426504135131836  9.3119029998779297 32.9152145385742188
 12.2747297286987305  8.8000097274780273 31.9722557067871129
 12.0572109222412109 10.5032558441162109 32.4681587219238281
 12.8040847778320312  9.1565561294555664 36.7525520324707031
 14.0653343200683594 10.4047641754150391 36.9240264892578125
 14.2972764968872070  8.7882204055786133 37.6135406494140696
 14.8562259674072248  4.6192727088928223 32.0802726745605469
 15.2425107955932617  4.9713835716247559 30.4125099182128942
 16.6918869018554688  2.8902449607849121 31.1480598449707031
 17.5614337921142578  6.9389629364013672 32.3534202575683594
  1.0088157653808614  2.2938451766967773 31.4734001159668004
  1.8245429992675779  6.3667006492614746 32.6712799072265625
  2.6454563140869127  4.0364556312561035 32.2119140625000000
 18.0261135101318359  4.2652039527893066 34.9926757812500071
  0.5039234161376933 13.9846792221069336 35.0382575988769602
  9.4183320999145508  4.9566330909729004 34.9878768920898509
  8.8511533737182617 13.7522678375244141 34.7701606750488281
  4.3305048942565918  9.2353458404541016 34.7272567749023438
  4.8165693283081055  0.0011621117591858 34.7299919128417969
 14.0087074497714621 17.9293271601200104 35.0061798095703125
  0.1305422037839890  4.4372692108154297 40.6188964843750000
  0.2877857685089111 13.8212480545043945 40.8693275451660156
  9.1773700714111328  4.5603189468383789 40.4485893249511719
  8.9385251998901367 13.6181297302246094 40.4782180786132812
  4.5780553817749023  9.0508384704589844 40.5644416809082102
  4.5515884617343545 18.0037264600396156 40.4802246093750071
 13.3503456115722656  9.2741565704345703 40.5797996520996094
 13.5799860218539834 18.0213320627808571 40.5695610046386719
  9.0289716720581055  4.5156092643737793 46.4455223083496165
  9.0265130996704102 13.5470085144042969 46.4455223083496165
 18.0593719482421875  4.5156092643737793 46.4455223083496165
 18.0569133758544922 13.5470085144042969 46.4455223083496165
  4.5152091979980469  0.0000180629995157 46.4442062377929759
  4.5127501487731934  9.0314178466796857 46.4442062377929759
 13.5456094741821289  0.0000180629995157 46.4442062377929759
 13.5431499481201172  9.0314178466796857 46.4442062377929759
 16.9269466400146484  4.9661211967468262 31.7065162658691442
 17.3939437866210938  3.6499142646789551 31.4831314086914098
 17.8566570281982422  5.9163479804992676 32.1326408386230540
  0.6799430847167951  3.3238825798034664 31.6496810913085973
  1.1458053588867170  5.5961060523986808 32.3117485046386719
  1.5968399047851578  4.3040447235107422 32.0660781860351562
 14.8295450210571289  8.7448215484619141 33.0883483886718750
 14.3036079406738281 10.8985071182250977 34.1583786010742188
 12.5654954910278320  9.1555967330932599 34.1223564147949219
 14.5745439529418945  8.8078184127807617 35.5358161926269531
 14.7561445236206037  7.2215828895568848 33.0128211975097656
 15.0363483428955060  6.7366967201232910 31.5797805786132812
 15.7393465042114258 11.3726940155029297 34.1248359680175781
 11.9282979965209961  9.4608564376831055 32.7807617187500000
 13.8828639984130842  9.3398427963256818 36.7618942260742188
 15.4727535247802717  5.2840490341186515 31.4409446716308594
  1.0996799468994138  4.5966410636901855 35.5599441528320312
  0.5929088592529307 12.8283691406250000 35.6451339721679688
  9.6915292739868164  3.7105772495269775 35.3031616210937500
  9.9312696456909180 13.1378173828124982 35.1917076110839844
  8.2152385711669922  5.4997806549072266 35.0260963439941406
  7.6266899108886719 13.4212951660156250 35.1074447631835938
 16.8554191589355469  4.6502485275268555 35.4523048400878906
 17.5498161315917969 14.8137674331665039 35.1359748840332102
  4.7256088256835938  8.0653877258300781 35.1687583923339844
  3.5958120822906494  0.3497971296310425 35.0734863281250000
 12.7322677830234170 17.8906986415386200 35.3027687072753906
  5.8850250244140625  0.7397103309631348 34.9136428833007812
  4.9391670227050781 10.3762493133544922 34.9641609191894531
 14.8127164840698242  0.8880124092102051 35.1807708740234375
  1.0206689834594727  3.5886659622192378 41.0710372924804688
  0.9196518063545226 12.6884565353393555 41.0761146545410156
  9.8284292221069336  3.5581023693084717 40.9794883728027344
  9.7521381378173828 12.8650817871093750 41.1728591918945384
  3.9065034389495845  8.1134347915649414 41.1945877075195312
  3.5428575733676553 17.3193411827087402 40.9840164184570312
 12.5125627517700195  8.4159240722656250 41.1154632568359375
 12.7454809406772256 17.1872892379760742 41.1467437744140696
  8.3871555328369141  5.3827829360961914 41.1019172668457031
  8.0696935653686523 14.4661512374877930 40.9681968688964915
 17.3659343719482422  5.1455574035644531 41.3596611022949219
 17.1278416514396667 14.0842027664184553 41.2830734252929688
  5.4262027740478516  0.6554583311080933 41.1595306396484375
  5.3285894393920890  9.9624195098876953 41.1230201721191477
 14.3293132781982422  0.8449277877807617 41.1773223876953196
 14.5477676391601562  9.5434064865112305 41.0308990478515625
  0.8273094892501831  3.6869695186614990 47.0359649658203125
  0.8248501420021057 12.7183685302734375 47.0359649658203125
  9.8577098846435547  3.6869695186614990 47.0359649658203125
  9.8552503585815412 12.7183685302734375 47.0359649658203125
  3.6843190193176270  8.2023353576660156 47.0346527099609375
  3.6818594932556152 17.2337341308593750 47.0346527099609375
 12.7147188186645508  8.2023353576660156 47.0346527099609375
 12.7122592926025391 17.2337341308593750 47.0346527099609375
  8.2006769180297852  5.3445744514465332 47.0360260009765696
  8.1982173919677734 14.3759746551513672 47.0360260009765696
 17.2310771942138672  5.3445744514465332 47.0360260009765696
 17.2286186218261719 14.3759746551513672 47.0360260009765696
  5.3436489105224600  0.8290914893150328 47.0346527099609375
  5.3411893844604483  9.8604917526245117 47.0346527099609375
 14.3740482330322266  0.8290914893150328 47.0346527099609375
 14.3715896606445312  9.8604917526245117 47.0346527099609375
 14.0733776092529297  9.3945188522338867 34.2259902954101562
  9.1947731235995871 17.6274101436138153 34.5311279296875000
  8.4415626525878906  9.0719852447509766 34.6031341552734375
  0.1313525140285492  0.2283639758825302 34.4572563171386719
  0.6081483364105225  8.9098510742187500 34.6548767089843750
  4.5933179855346680  4.3824973106384277 34.6714897155761790
  4.1955652236938477 13.8707876205444318 34.4515533447265696
 13.3042764663696289  4.0492277145385742 34.6934776306152344
 13.0883598327636719 14.3853883743286133 34.6374664306640625
 17.9707826385274529 17.7808982729911804 40.8692512512207031
  0.0893205478787422  9.0671262741088867 40.9596939086914062
  8.9764862060546875  0.0309157464653254 40.9044761657714915
  8.9992980957031250  9.0414485931396484 40.8830032348632812
  4.7646059989929199  4.3389406204223633 40.9616813659667969
  4.4322037696838379 13.6076078414916992 40.8458213806152415
 13.4279708862304670  4.7092008590698242 40.9482727050781250
 13.5591745376586914 13.3508529663085920 40.8899307250976634
  2.4899392127990723  2.0771443843841553 38.0474243164062500
  2.6382963657379150 10.9989614486694336 37.9203033447265625
 11.5783147811889648  1.9637405872344971 38.0516319274902344
 11.1328239440917951 11.3963394165039062 38.0548439025878906
  6.6422805786132812  6.9381117820739746 38.0988121032714844
  6.5770769119262695 16.0054206848144531 37.8481063842773438
 16.0369491577148438  6.5620255470275879 38.2953529357910227
 15.5772762298583984 16.0713100433349609 37.8362274169921875
  2.2846963405609131  6.6825041770935059 38.2201347351074219
  2.1180024147033691 15.7654981613159180 37.8925132751464915
 11.1897106170654297  6.7106676101684570 37.6264839172363281
 11.1303529739379883 15.6462869644165039 38.2642440795898438
  7.1966090202331543  2.5619885921478271 37.7624168395996094
  6.8298254013061523 11.4171438217163086 37.9733047485351562
 15.9304046630859357  2.3941702842712402 38.2984886169433594
 16.3095321655273438 11.7357749938964844 38.1847534179687500
  0.0000000000000000  0.0000000000000000 47.1735610961914062
 -0.0024593239650130  9.0313997268676740 47.1735610961914062
  9.0304002761840803  0.0000000000000000 47.1735610961914062
  9.0279407501220685  9.0313997268676740 47.1735610961914062
  4.5139794349670410  4.5156998634338379 47.1742515563964844
  4.5115203857421875 13.5470991134643537 47.1742515563964844
 13.5443792343139648  4.5156998634338379 47.1742515563964844
 13.5419197082519531 13.5470991134643537 47.1742515563964844
  2.4519233703613277  2.0629522800445557 44.0401268005371165
  2.4494640827178955 11.0943517684936523 44.0401268005371165
 11.4823226928710920  2.0629522800445557 44.0401268005371165
 11.4798641204833984 11.0943517684936523 44.0401268005371165
  6.5760178565979004  6.9684472084045410 44.0401268005371165
  6.5735583305358887 15.9998464584350586 44.0401268005371165
 15.6064186096191406  6.9684472084045410 44.0401268005371165
 15.6039590835571289 15.9998464584350586 44.0401268005371165
  2.0610768795013428  6.5788145065307617 44.0400009155273509
  2.0586175918579102 15.6102142333984375 44.0400009155273509
 11.0914773941040039  6.5788145065307617 44.0400009155273509
 11.0890178680419922 15.6102142333984375 44.0400009155273509
  6.9668641090393066  2.4525938034057613 44.0400657653808665
  6.9644045829772949 11.4839935302734375 44.0400657653808665
 15.9972639083862305  2.4525938034057613 44.0400657653808665
 15.9948053359985352 11.4839935302734375 44.0400657653808665
  2.4316265583038330  2.0832188129425049 50.0684852600097656
  2.4291670322418213 11.1146183013915998 50.0684852600097656
 11.4620265960693359  2.0832188129425049 50.0684852600097656
 11.4595670700073224 11.1146183013915998 50.0684852600097656
  6.5963144302368164  6.9481806755065918 50.0684852600097656
  6.5938549041748047 15.9795799255371076 50.0684852600097656
 15.6267137527465803  6.9481806755065918 50.0684852600097656
 15.6242542266845703 15.9795799255371076 50.0684852600097656
  2.0811281204223633  6.5990090370178223 50.0690460205078125
  2.0786688327789307 15.6304082870483398 50.0690460205078125
 11.1115283966064453  6.5990090370178223 50.0690460205078125
 11.1090688705444336 15.6304082870483398 50.0690460205078125
  6.9468131065368652  2.4323906898498531 50.0690460205078125
  6.9443535804748535 11.4637899398803711 50.0690460205078125
 15.9772129058837891  2.4323906898498531 50.0690460205078125
 15.9747543334960938 11.4637899398803711 50.0690460205078125
 18.0520133888348937  0.1158931925892830 37.7459640502929688
  0.1450976133346558  9.1067790985107422 37.7585372924804759
  9.0745805958285910 17.9642374366521835 37.6773719787597727
  9.0011091232299805  9.0462665557861328 37.7066574096679688
  4.6187872886657715  4.5185580253601074 37.8660430908203125
  4.4187040328979492 13.6666631698608398 37.6936225891113281
 13.5198259353637695  4.5375881195068359 37.8654289245605469
 13.5562725067138654 13.7169389724731445 37.7510185241699290
  0.0000090280000222  0.0000090310004452 44.0429992675781250
 -0.0024502959568053  9.0314083099365234 44.0429992675781250
  9.0304088592529297  0.0000090310004452 44.0429992675781250
  9.0279493331909180  9.0314083099365234 44.0429992675781250
  4.5139703750610352  4.5156903266906738 44.0427513122558594
  4.5115113258361816 13.5470905303955078 44.0427513122558594
 13.5443706512451172  4.5156903266906738 44.0427513122558594
 13.5419111251831037 13.5470905303955078 44.0427513122558594
  0.0000000000000000  0.0000000000000000 50.4472808837890696
 -0.0024593239650130  9.0313997268676740 50.4472808837890696
  9.0304002761840803  0.0000000000000000 50.4472808837890696
  9.0279407501220685  9.0313997268676740 50.4472808837890696
  4.5139703750610352  4.5156998634338379 50.4472808837890696
  4.5115113258361816 13.5470991134643537 50.4472808837890696
 13.5443706512451172  4.5156998634338379 50.4472808837890696
 13.5419111251831055 13.5470991134643537 50.4472808837890696
