 H  C  N  I Pb 
 1.0000000000000000
    18.0608005523681641    0.0000000000000000    0.0000000000000000
    -0.0049186488613486   18.0627994537353516    0.0000000000000000
     0.0000000000000000    0.0000000000000000   62.4874992370605469
 H   C   N   I   Pb 
 143  39  47  72  24
Cartesian
  7.3438110351562491  5.1499576568603507 34.9397392272949219
  7.5320873260498038 12.5874557495117188 35.6487426757812500
 16.6794223785400391  5.2870607376098633 36.1583366394042969
 16.6834449768066406 14.6808881759643555 35.7981262207031321
  5.8204236030578613  1.6390955448150635 35.1352272033691406
  5.8913016319274902 10.2757692337036133 35.4450874328613281
 14.3243122100830078  1.9238446950912476 35.2188377380371094
  1.9477882385253915  4.3542394638061523 35.0947875976562500
  1.4263305664062531 12.3803863525390607 35.5256614685058665
 10.4822235107421857  3.3408112525939941 35.3017768859863281
 10.8139390945434570 13.9212532043457031 34.9704780578613281
  6.8621492385864249  0.3184591233730316 34.6481132507324290
  4.6302218437194824 11.2056016921997070 34.6716384887695312
 15.7542171478271484  0.9969145059585571 34.7474441528320384
  1.1101646423339862  5.2504673004150391 36.3202247619628977
 17.9211311340332031 12.5266103744506836 36.2805480957031250
  8.7757062911987305  3.1294553279876709 35.5718078613281250
  9.9935722351074219 12.6568641662597656 35.8349990844726562
  5.4990453720092773  7.8388261795043936 35.7175369262695384
  3.4346535205841060  1.1485928297042847 35.5087928771972656
 12.2991609573364240  0.5233940482139587 35.8341903686523438
  8.2601785659790039  6.6107225418090820 34.5857734680175781
  6.7553238868713379 13.7247533798217773 34.5844459533691406
 15.9503059387207031  4.4166479110717773 34.8227767944335938
 17.4839344024658203 15.7831668853759766 34.7196502685546875
  4.1023883819580078  7.1831016540527344 34.9430122375488281
  2.8768972614780064 17.6225970983505249 35.1051521301269531
 12.4227241734042764 16.8927557468414307 35.4050483703613281
 10.2944631576538086  5.5279979705810538 34.6648254394531321
  8.8189363479614258 14.7495079040527326 34.0406494140625000
 18.0392971038818359  3.6891524791717525 34.0171203613281250
  1.2329750061035132 14.3686428070068359 34.3562278747558594
  3.3456852436065674  9.2807397842407227 34.2205810546875000
  5.0320939281955352 16.8795996904373169 34.5343475341796875
 14.5994466999545676 17.0412033796310425 34.7267608642578125
  8.2240505218505859  5.4345989227294922 42.0583534240722727
  7.9475846290588370 14.7171649932861328 41.9162521362304688
 17.2531507015228271  5.1304645538330069 42.2522964477539062
 16.4628586769104004 13.4036407470703125 41.2916412353515625
  5.3248729705810538  0.7414910197257996 42.1926269531250000
  5.4360175132751465 10.1524982452392578 42.0313987731933665
 14.4080772399902344  0.9390054941177368 42.1688079833984375
 15.0468034744262695  8.4085597991943359 41.5040397644042969
  1.6302731037139893  3.0706388950347900 40.4387474060058594
  1.9539072513580322 12.6426887512207031 40.9582328796386719
 10.4037303924560547  3.0041091442108154 40.3859252929687571
 10.3618173599243146 12.2188625335693342 40.7205429077148438
  3.3406863212585449  7.4425873756408691 40.7130241394042969
  2.9588116863742466 16.8411563634872472 40.1921806335449290
 11.4519424438476545  8.7895002365112305 40.9690933227539062
 12.1431183079257590 16.5695058107376099 40.5780181884765625
  1.1297355890274048  3.3980665206909180 42.0810279846191406
  0.4138788580894470 11.8312664031982422 41.1333160400390625
  9.9187641143798828  3.4785101413726807 41.9904174804687500
  9.8312768936157227 12.9195518493652344 42.2126083374023509
  3.8194465637207031  8.1243114471435547 42.2388534545898438
  3.2943319538608193 17.2251492142677307 41.8586349487304688
 12.6005859374999982  7.7700877189636230 41.8018150329589844
 12.6345714787021279 17.0758724212646484 42.1731338500976634
  7.8212990760803223  6.0967078208923340 40.5031051635742188
  7.4906783103942862 14.9793491363525391 40.2533645629882812
 16.6965025663375890  5.7344393730163574 40.7116394042968750
 16.8279575109481812 15.1048154830932617 41.0581893920898509
  6.1779007911682129  1.1425862312316895 40.7439346313476562
  5.8102712631225586 10.5970659255981445 40.3879928588867188
 14.8537492752075195  1.4784051179885864 40.5673942565917969
 15.3642473220825195  9.7631826400756836 40.4712638854980540
  0.1076018437743187  4.5100402832031250 39.4772605895996165
  1.0230263471603394 14.7587471008300781 40.8007431030273509
  9.1494407653808594  4.6274952888488770 39.3230781555175781
  8.9354162216186523 13.4164657592773438 39.3974266052246165
  4.7310146549716592 18.0312884673476219 39.3544197082519531
  4.5419754981994629  8.9333343505859375 39.4418067932128977
 13.4969949722290039  0.0012345034629107 39.4697875976562571
 13.1012744903564453 10.1279153823852539 40.0192947387695312
  8.1032123565673828  5.4420318603515616 48.0459518432617259
  8.1007528305053711 14.4734306335449219 48.0459518432617259
 17.1336116790771484  5.4420318603515616 48.0459518432617259
 17.1311531066894531 14.4734306335449219 48.0459518432617259
  5.4410333633422852  0.9265221953392029 48.0449485778808594
  5.4385743141174316  9.9579219818115234 48.0449485778808594
 14.4714326858520490  0.9265221953392029 48.0449485778808594
 14.4689741134643555  9.9579219818115234 48.0449485778808594
  1.4218254089355467  3.0919990539550781 46.4558296203613281
  1.4193661212921143 12.1233978271484375 46.4558296203613281
 10.4522256851196289  3.0919990539550781 46.4558296203613281
 10.4497661590576172 12.1233978271484375 46.4558296203613281
  3.0899283885955806  7.6075901985168457 46.4545211791992188
  3.0874691009521484 16.6389904022216797 46.4545211791992188
 12.1203289031982422  7.6075901985168457 46.4545211791992188
 12.1178693771362305 16.6389904022216797 46.4545211791992188
  0.9247469902038573  3.5893490314483643 48.0459518432617259
  0.9222877025604248 12.6207475662231445 48.0459518432617259
  9.9551477432250977  3.5893490314483643 48.0459518432617259
  9.9526882171630859 12.6207475662231445 48.0459518432617259
  3.5868983268737793  8.1048498153686523 48.0448913574218821
  3.5844390392303462 17.1362495422363281 48.0448913574218821
 12.6172990798950195  8.1048498153686523 48.0448913574218821
 12.6148395538330078 17.1362495422363281 48.0448913574218821
  7.6061611175537109  5.9393639564514160 46.4558296203613281
  7.6037015914916992 14.9707632064819336 46.4558296203613281
 16.6365604400634766  5.9393639564514160 46.4558296203613281
 16.6341018676757812 14.9707632064819336 46.4558296203613281
  5.9380125999450684  1.4238001108169553 46.4545211791992188
  5.9355530738830566 10.4551992416381836 46.4545211791992188
 14.9684123992919904  1.4238001108169553 46.4545211791992188
 14.9659538269042951 10.4551992416381836 46.4545211791992188
 -0.0011664569610730  4.5157265663146973 45.3548011779785156
 -0.0036257810425013 13.5471258163452148 45.3548011779785156
  9.0292339324951172  4.5157265663146973 45.3548011779785156
  9.0267744064331037 13.5471258163452148 45.3548011779785156
  4.5152091979980469  0.0000000000000000 45.3536758422851562
  4.5127501487731934  9.0313997268676740 45.3536758422851562
 13.5456094741821289  0.0000000000000000 45.3536758422851562
 13.5431499481201172  9.0313997268676740 45.3536758422851562
 14.4500646591186523  9.1527547836303711 32.0883750915527344
 15.8592061996459961  9.0212497711181641 33.1641426086425781
 13.6624784469604492 11.1585168838500977 33.2365074157714844
 13.5779447555541992 11.1500892639160156 34.9944496154785156
 12.3889789581298828  7.9068427085876456 34.2516708374023438
 12.0120096206665039  9.5635976791381836 34.7319221496582031
 14.3407850265502930  7.5775151252746573 35.3301391601562500
 15.5630083084106445  8.8497238159179688 35.4975318908691406
 15.5208978652954102  6.7379436492919922 33.5957374572753977
 13.8206605911254883  6.7591295242309561 33.1530036926269531
 14.2526321411132795  6.9311909675598145 30.8253288269043004
 15.9292364120483381  7.4044451713562012 31.0550689697265661
 16.1649150848388672 11.0890913009643555 33.3021087646484375
 16.1290168762207031 10.9353303909301758 35.0737915039062500
 15.5038776397705060 12.3992805480957031 34.2922363281250000
 10.8654203414916992  9.0611848831176740 32.6796340942382884
 12.3470849990844727  8.5944986343383789 31.8146247863769531
 12.0630073547363281 10.3031454086303711 32.2865791320800781
 12.6851758956909180  8.9385929107666016 36.6332664489746094
 13.9122686386108398 10.2264041900634766 36.8525123596191406
 14.1636133193969727  8.6236648559570312 37.5273399353027344
 14.8882169723510724  4.6598000526428223 31.9441719055175781
 15.3533687591552734  4.9665880203247070 30.2758445739746094
 16.7233238220214844  2.8506851196289062 31.1992797851562536
 17.6298141479492188  6.9516234397888184 32.1837196350097656
  1.0345954895019531  2.2465820312500000 31.5564193725585938
  1.9185447692871116  6.3473658561706543 32.5458641052246094
  2.6963424682617192  4.0081939697265625 32.1991386413574219
 17.9891548156738281  4.3228917121887207 34.9021644592285156
  0.4013404846191428 14.0393457412719727 34.9923019409179688
  9.3857641220092773  4.9630298614501953 34.8803901672363281
  8.7976722717285156 13.8660135269165021 34.6825828552246165
  4.3085651397705078  9.1979179382324219 34.7305679321289062
  4.8691004971042275 17.9213064014911652 34.8198738098144531
 14.0899738529697061 17.9524633586406708 35.0434761047363281
  0.1292677968740463  4.4048242568969727 40.5632591247558594
  0.3780757188796997 13.8973484039306641 40.9707221984863281
  9.1169643402099609  4.5492854118347168 40.4112167358398509
  8.9122257232666016 13.5841445922851545 40.4732360839843750
  4.5780005455017081  9.0177965164184570 40.5307464599609446
  4.5550708035007119 18.0383926145732403 40.4324111938476634
 13.4007520675659180  9.3043003082275391 40.6705322265625071
 13.5023769596591574 18.0543078444898129 40.5643882751464844
  9.0289716720581055  4.5156092643737793 46.4455223083496165
  9.0265130996704102 13.5470085144042969 46.4455223083496165
 18.0593719482421875  4.5156092643737793 46.4455223083496165
 18.0569133758544922 13.5470085144042969 46.4455223083496165
  4.5152091979980469  0.0000180629995157 46.4442062377929759
  4.5127501487731934  9.0314178466796857 46.4442062377929759
 13.5456094741821289  0.0000180629995157 46.4442062377929759
 13.5431499481201172  9.0314178466796857 46.4442062377929759
 16.9937515258789062  4.9558997154235840 31.6301841735839879
 17.4399623870849609  3.6296353340148926 31.4806671142578125
 17.9283142089843750  5.9185633659362793 32.0225639343261719
  0.7198066711425769  3.2847471237182617 31.6819839477539098
  1.2111549377441402  5.5839552879333496 32.2188377380371094
  1.6480083465576194  4.2686443328857422 32.0435066223144531
 14.8258295059204102  8.6912021636962891 33.0016899108886719
 14.1607017517089844 10.7899770736694336 34.1382484436035227
 12.5225601196289062  8.9622526168823242 33.9701766967773438
 14.4832878112792969  8.6606969833374023 35.4434509277343750
 14.8023691177368164  7.1739139556884766 32.8868217468261719
 15.1369924545288086  6.7498788833618164 31.4511890411376989
 15.5804615020751953 11.3088779449462891 34.2024955749511719
 11.9437856674194336  9.2529735565185547 32.5978965759277344
 13.7521085739135742  9.1599941253662109 36.6651954650878906
 15.5494441986083967  5.2821512222290030 31.3141231536865270
  1.0551586151123056  4.6402139663696289 35.4931755065917969
  0.5430660247802749 12.8808498382568359 35.5941925048828196
  9.5361328125000000  3.6976130008697510 35.1976432800292969
  9.9338045120239258 13.4327878952026367 35.1649398803711009
  8.2406997680664062  5.5975875854492179 34.7667922973632812
  7.6294407844543457 13.3241291046142560 34.9410552978515625
 16.8008460998535156  4.6983504295349121 35.3155288696289062
 17.4144229888916016 14.8315258026123047 35.0998878479003977
  4.6786627769470206  8.0004281997680664 35.1207466125488281
  3.6539342403411861  0.2192310094833374 35.1460113525390625
 12.8381771305575967 17.8257934153079987 35.4111595153808594
  5.9048676490783691  0.6674704551696777 34.8237304687500000
  5.0061478614807129 10.2948045730590820 34.9243621826171946
 14.7624063491821289  1.0153849124908447 35.0105514526367188
  1.0046917200088501  3.5748047828674316 41.0786094665527415
  0.9329764246940613 12.7111301422119141 41.0319442749023438
  9.8548870086669922  3.6308290958404541 40.9817314147949219
  9.7401514053344727 12.8664636611938477 41.1944961547851634
  3.8802938461303706  8.1404123306274414 41.2173957824707031
  3.5368139008060098 17.3296573758125305 40.8715591430664062
 12.4370975494384748  8.5609426498413086 41.1673088073730469
 12.7280172565951943 17.1750849485397339 41.1568527221679688
  8.3445711135864258  5.4074149131774902 41.0433273315429759
  8.0607709884643555 14.4682579040527326 40.9283142089843750
 17.3349401950836182  5.1328458786010742 41.2377853393554759
 17.1504479050636292 14.1375532150268555 41.0904121398925781
  5.3954062461853027  0.6753261089324951 41.1747970581054688
  5.3137640953063965  9.9811849594116211 41.0316505432128977
 14.2920837402343750  0.8602504730224609 41.1569061279296946
 14.6784257888793945  9.1433515548706055 40.8996734619140625
  0.8273094892501831  3.6869695186614990 47.0359649658203125
  0.8248501420021057 12.7183685302734375 47.0359649658203125
  9.8577098846435547  3.6869695186614990 47.0359649658203125
  9.8552503585815412 12.7183685302734375 47.0359649658203125
  3.6843190193176270  8.2023353576660156 47.0346527099609375
  3.6818594932556152 17.2337341308593750 47.0346527099609375
 12.7147188186645508  8.2023353576660156 47.0346527099609375
 12.7122592926025391 17.2337341308593750 47.0346527099609375
  8.2006769180297852  5.3445744514465332 47.0360260009765696
  8.1982173919677734 14.3759746551513672 47.0360260009765696
 17.2310771942138672  5.3445744514465332 47.0360260009765696
 17.2286186218261719 14.3759746551513672 47.0360260009765696
  5.3436489105224600  0.8290914893150328 47.0346527099609375
  5.3411893844604483  9.8604917526245117 47.0346527099609375
 14.3740482330322266  0.8290914893150328 47.0346527099609375
 14.3715896606445312  9.8604917526245117 47.0346527099609375
 14.0070304870605469  9.2726392745971680 34.1355972290039062
  9.2970346668735129 17.7777219712734222 34.5768890380859446
  8.5806465148925781  9.2192049026489240 34.5653076171875000
  0.0944994240999222  0.2261341363191605 34.4716110229492188
  0.5329232215881348  8.7531185150146484 34.6178855895996094
  4.6846265792846680  4.2911782264709473 34.5894470214843750
  4.1373085975646973 13.8050794601440430 34.4077682495117188
 13.2457370758056641  4.2033634185791016 34.6403846740722656
 13.2957878112792969 14.3483943939208984 34.6104736328125071
 17.9665655726566911 17.8269446343183517 40.8891258239746094
  0.1823949217796326  9.1106948852539062 40.9270477294921946
  8.9718198776245117  0.0641643479466438 40.9212646484375000
  8.9482011795043945  9.1444959640502930 40.8707466125488352
  4.7371988296508789  4.3826379776000977 40.9275627136230469
  4.4330244064331055 13.6247520446777344 40.8412551879882812
 13.4724912643432599  4.9205098152160645 40.9380073547363281
 13.5640048980712891 13.2568550109863281 40.8746261596679759
  2.4361376762390137  2.1024103164672852 37.9985885620117259
  2.6424012184143066 10.9946565628051758 37.8721885681152344
 11.4862966537475586  2.0682039260864258 37.9744491577148438
 11.1858510971069336 11.4042282104492188 37.8913116455078196
  6.6432037353515625  6.9352002143859854 37.9651145935058665
  6.5816092491149902 15.9752626419067383 37.7788200378417969
 16.0353164672851562  6.6466507911682129 38.1670303344726562
 15.5646162033081055 16.0962619781494141 37.9339447021484375
  2.2805545330047607  6.6360149383544922 38.2308654785156250
  2.0768895149230957 15.7743711471557617 37.8460426330566406
 11.0319375991821289  6.5834431648254395 37.6535644531250000
 11.1501274108886719 15.6182298660278320 38.2750167846679688
  7.1240482330322266  2.4692397117614746 37.7466506958007884
  6.8546218872070312 11.4655523300170898 37.9194641113281250
 15.9217882156372070  2.4645290374755859 38.2579040527343821
 16.2827625274658203 11.6690473556518555 38.0806961059570312
  0.0000000000000000  0.0000000000000000 47.1735610961914062
 -0.0024593239650130  9.0313997268676740 47.1735610961914062
  9.0304002761840803  0.0000000000000000 47.1735610961914062
  9.0279407501220685  9.0313997268676740 47.1735610961914062
  4.5139794349670410  4.5156998634338379 47.1742515563964844
  4.5115203857421875 13.5470991134643537 47.1742515563964844
 13.5443792343139648  4.5156998634338379 47.1742515563964844
 13.5419197082519531 13.5470991134643537 47.1742515563964844
  2.4519233703613277  2.0629522800445557 44.0401268005371165
  2.4494640827178955 11.0943517684936523 44.0401268005371165
 11.4823226928710920  2.0629522800445557 44.0401268005371165
 11.4798641204833984 11.0943517684936523 44.0401268005371165
  6.5760178565979004  6.9684472084045410 44.0401268005371165
  6.5735583305358887 15.9998464584350586 44.0401268005371165
 15.6064186096191406  6.9684472084045410 44.0401268005371165
 15.6039590835571289 15.9998464584350586 44.0401268005371165
  2.0610768795013428  6.5788145065307617 44.0400009155273509
  2.0586175918579102 15.6102142333984375 44.0400009155273509
 11.0914773941040039  6.5788145065307617 44.0400009155273509
 11.0890178680419922 15.6102142333984375 44.0400009155273509
  6.9668641090393066  2.4525938034057613 44.0400657653808665
  6.9644045829772949 11.4839935302734375 44.0400657653808665
 15.9972639083862305  2.4525938034057613 44.0400657653808665
 15.9948053359985352 11.4839935302734375 44.0400657653808665
  2.4316265583038330  2.0832188129425049 50.0684852600097656
  2.4291670322418213 11.1146183013915998 50.0684852600097656
 11.4620265960693359  2.0832188129425049 50.0684852600097656
 11.4595670700073224 11.1146183013915998 50.0684852600097656
  6.5963144302368164  6.9481806755065918 50.0684852600097656
  6.5938549041748047 15.9795799255371076 50.0684852600097656
 15.6267137527465803  6.9481806755065918 50.0684852600097656
 15.6242542266845703 15.9795799255371076 50.0684852600097656
  2.0811281204223633  6.5990090370178223 50.0690460205078125
  2.0786688327789307 15.6304082870483398 50.0690460205078125
 11.1115283966064453  6.5990090370178223 50.0690460205078125
 11.1090688705444336 15.6304082870483398 50.0690460205078125
  6.9468131065368652  2.4323906898498531 50.0690460205078125
  6.9443535804748535 11.4637899398803711 50.0690460205078125
 15.9772129058837891  2.4323906898498531 50.0690460205078125
 15.9747543334960938 11.4637899398803711 50.0690460205078125
 17.9876150563359261  0.1222354397177696 37.7379341125488281
  0.1910679638385772  9.0488109588623047 37.7129516601562571
  9.0585035542026162 17.9373601973056793 37.7194328308105469
  9.0310068130493146  9.0443048477172852 37.6747741699218750
  4.6281313896179199  4.4553389549255371 37.8239555358886719
  4.3767280578613281 13.6356372833251953 37.6778640747070384
 13.4910736083984375  4.5611081123352042 37.8486366271972656
 13.5834798812866211 13.6738386154174805 37.7299461364746094
  0.0000090280000222  0.0000090310004452 44.0429992675781250
 -0.0024502959568053  9.0314083099365234 44.0429992675781250
  9.0304088592529297  0.0000090310004452 44.0429992675781250
  9.0279493331909180  9.0314083099365234 44.0429992675781250
  4.5139703750610352  4.5156903266906738 44.0427513122558594
  4.5115113258361816 13.5470905303955078 44.0427513122558594
 13.5443706512451172  4.5156903266906738 44.0427513122558594
 13.5419111251831037 13.5470905303955078 44.0427513122558594
  0.0000000000000000  0.0000000000000000 50.4472808837890696
 -0.0024593239650130  9.0313997268676740 50.4472808837890696
  9.0304002761840803  0.0000000000000000 50.4472808837890696
  9.0279407501220685  9.0313997268676740 50.4472808837890696
  4.5139703750610352  4.5156998634338379 50.4472808837890696
  4.5115113258361816 13.5470991134643537 50.4472808837890696
 13.5443706512451172  4.5156998634338379 50.4472808837890696
 13.5419111251831055 13.5470991134643537 50.4472808837890696
