PerovskiteSurface_12951678_2            
    1.000000000000000     
    18.0608005523999999    0.0000000000000000    0.0000000000000000
    -0.0049186487000000   18.0627987840000017    0.0000000000000000
     0.0000000000000000    0.0000000000000000   62.4874992371000033
   H    C    N    I    Pb
   143    39    47    72    24
Selective dynamics
Direct
  0.4605890555290896  0.3458050475728548  0.5586054854152076   T   T   T
  0.4219711664592460  0.7283991880399038  0.5731019699488122   T   T   T
  0.9048032947940082  0.2436944649962381  0.5610853967482485   T   T   T
  0.9081999411261907  0.7684958501195369  0.5650708811983409   T   T   T
  0.2527469987094186  0.0769484338139056  0.5692202909654174   T   T   T
  0.2670036974802110  0.5851941659167237  0.5630494004934450   T   T   T
  0.8169347229738042 -0.0258221790262252  0.5704255266819431   T   T   T
  0.0987835171149373  0.1797286879400510  0.5589482936775864   T   T   T
  0.0893420360666540  0.6800736258475200  0.5620136119807316   T   T   T
  0.5677435686995913  0.1828826801782990  0.5736066210679834   T   T   T
  0.6112640174013054  0.7046306927401303  0.5545912923468589   T   T   T
  0.3431774502887457  0.0529281943369752  0.5614668211629928   T   T   T
  0.3556347888829473  0.5478555174425287  0.5584818024407574   T   T   T
  0.8079410405357859  0.0700925238583007  0.5677004680806228   T   T   T
  0.0098694003867868  0.1420233382331627  0.5593892575857680   T   T   T
 -0.0032190649398514  0.6604518506468856  0.5684978262499513   T   T   T
  0.5732953213220675  0.2786161757446077  0.5726934943421412   T   T   T
  0.5324232344904163  0.6518249726004951  0.5611383144975465   T   T   T
  0.1639533092894193  0.4857889937453369  0.5662080340031720   T   T   T
  0.1609441324564473  0.9705061793055484  0.5693864160830898   T   T   T
  0.7042147293838982  0.8993620583666305  0.5574539008090847   T   T   T
  0.3839039363413684  0.2884860559311351  0.5533427542407170   T   T   T
  0.4314694911551509  0.8236619044514112  0.5708291040441592   T   T   T
  0.9403357462163320  0.3340747132000940  0.5616769366791109   T   T   T
  0.9504507371555255  0.8530387505696523  0.5583534304686982   T   T   T
  0.1955378869981067  0.3947931045922138  0.5627624336534091   T   T   T
  0.1992338027241153  0.8835755900336493  0.5631334866605695   T   T   T
  0.6257812619709339  0.9547023798997188  0.5521736559370721   T   T   T
  0.4479666843370682  0.1802039343158407  0.5598928324516276   T   T   T
  0.5510614816972673  0.8162130582153088  0.5575139231339227   T   T   T
  0.0610345890188766  0.3003308755583334  0.5596240905994455   T   T   T
  0.0661533723231181  0.8018211269198183  0.5541915801971932   T   T   T
  0.3163666612755814  0.4283900570254673  0.5575420715932319   T   T   T
  0.3154534320734141 -0.0693091524380917  0.5565387832207874   T   T   T
  0.6885464766025318  0.0651130423779716  0.5559191295623979   T   T   T
  0.4472493432060604  0.2970958378969815  0.6728045736310466   T   T   T
  0.4499376150995822  0.7971658197453967  0.6718683900880997   T   T   T
  0.9495060143981249  0.3020750265007242  0.6728651633563066   T   T   T
  0.9765174014648402  0.8176899802164427  0.6722017373777515   T   T   T
  0.2954340995654884  0.0491321895745238  0.6731990926799066   T   T   T
  0.2977192610905923  0.5454886178456612  0.6730667612640424   T   T   T
  0.7991717576190501  0.0458544998530595  0.6725516674544161   T   T   T
  0.7932972632346483  0.5446575251642933  0.6735925358734757   T   T   T
  0.0749992318132990  0.1686141414597771  0.6473475408228225   T   T   T
  0.0638172442843983  0.6552536703182863  0.6483915964550987   T   T   T
  0.5791630471158977  0.1703576872692728  0.6468829970348015   T   T   T
  0.5811949815488198  0.6692706918033205  0.6461587003995475   T   T   T
  0.1686553984255583  0.4194652739943188  0.6457801115429168   T   T   T
  0.1713615746538150  0.9167387055135736  0.6465239658433196   T   T   T
  0.6737441848874974  0.4148067740926019  0.6445145854539156   T   T   T
  0.6690032469521779  0.9197499930342400  0.6457216312854818   T   T   T
  0.0504264473605659  0.1991626580704015  0.6726080181079594   T   T   T
  0.0698566739729338  0.7112629216278714  0.6708388753796087   T   T   T
  0.5500366689668575  0.1951804213668116  0.6724385381555182   T   T   T
  0.5541222660765165  0.6967127049193939  0.6717429487189763   T   T   T
  0.1931079665391380  0.4460590448967034  0.6715903095517342   T   T   T
  0.1944267071763046  0.9462669701403360  0.6721609726106049   T   T   T
  0.6954496806168403  0.4399722616842254  0.6706811961639633   T   T   T
  0.6960093639175359  0.9446939943931039  0.6714877094032421   T   T   T
  0.4211730406860587  0.3272845295967531  0.6474850200329656   T   T   T
  0.4205194477569765  0.8233977310739048  0.6464809995958933   T   T   T
  0.9193688260856838  0.3281712318794097  0.6474906520685915   T   T   T
  0.9170401708740505  0.8233022722235827  0.6504383762667281   T   T   T
  0.3275959484117522  0.0757545067939147  0.6481555499870130   T   T   T
  0.3310163676958291  0.5719870116174143  0.6481696161970982   T   T   T
  0.8281205128130655  0.0757010676299806  0.6475207358199608   T   T   T
  0.8243827291173619  0.5785639038884203  0.6493386466308394   T   T   T
 -0.0047801504837120  0.2475180724104808  0.6295706922813515   T   T   T
  0.9691211022900738  0.7231707487446019  0.6328593453253902   T   T   T
  0.5010881519744732  0.2507579876770758  0.6295052472342350   T   T   T
  0.5004710006262174  0.7459757130612716  0.6286720519201676   T   T   T
  0.2529838335925856 -0.0048045360688988  0.6295679020751854   T   T   T
  0.2526898635948138  0.4957632062135310  0.6292024586720676   T   T   T
  0.7493353498481582 -0.0009718810566092  0.6288775345478229   T   T   T
  0.7523711488992414  0.4991693042679739  0.6290019430907918   T   T   T
  0.4487450123026875  0.3012839853932547  0.7688890099553589   F   F   F
  0.4487450122585699  0.8012839555529183  0.7688890099553589   F   F   F
  0.9487449526597018  0.3012839853932547  0.7688890099553589   F   F   F
  0.9487450123028651  0.8012839555529183  0.7688890099553589   F   F   F
  0.3012759983606372  0.0512944981605372  0.7688729763004289   F   F   F
  0.3012759983266733  0.5512945055790937  0.7688729763004289   F   F   F
  0.8012759685612991  0.0512944981605372  0.7688729763004289   F   F   F
  0.8012759685273281  0.5512945055790937  0.7688729763004289   F   F   F
  0.0787710025712300  0.1711805015919765  0.7434419989625454   F   F   F
  0.0787710025865564  0.6711804866994839  0.7434419989625454   F   F   F
  0.5787709951407791  0.1711805015919765  0.7434419989625454   F   F   F
  0.5787709951560984  0.6711804866994839  0.7434419989625454   F   F   F
  0.1711995005657982  0.4211744964317958  0.7434210181261207   F   F   F
  0.1711995005379165  0.9211745262167668  0.7434210181261207   F   F   F
  0.6711995005547209  0.4211744964317958  0.7434210181261207   F   F   F
  0.6711995005822118  0.9211745262167668  0.7434210181261207   F   F   F
  0.0512560010060099  0.1987150013639862  0.7688890099553589   F   F   F
  0.0512560010172578  0.6987149715236498  0.7688890099553589   F   F   F
  0.5512560009949325  0.1987150013639862  0.7688890099553589   F   F   F
  0.5512560010061875  0.6987149715236498  0.7688890099553589   F   F   F
  0.1987234949972319  0.4487039745014059  0.7688720226216859   F   F   F
  0.1987234950247228  0.9487040042863839  0.7688720226216859   F   F   F
  0.6987234949861616  0.4487039745014059  0.7688720226216859   F   F   F
  0.6987234950136525  0.9487040042863839  0.7688720226216859   F   F   F
  0.4212315082396927  0.3288174867596396  0.7434419989625454   F   F   F
  0.4212315082590763  0.8288174867596396  0.7434419989625454   F   F   F
  0.9212314486520796  0.3288174867596396  0.7434419989625454   F   F   F
  0.9212315082479989  0.8288174867596396  0.7434419989625454   F   F   F
  0.3288004994152729  0.0788249969468282  0.7434210181261207   F   F   F
  0.3288004994346494  0.5788249969468282  0.7434210181261207   F   F   F
  0.8288004994595681  0.0788249969468282  0.7434210181261207   F   F   F
  0.8288004994235791  0.5788249969468282  0.7434210181261207   F   F   F
  0.0000034999835279  0.2500014901345224  0.7258219718940495   F   F   F
  0.0000035000029044  0.7500014901345224  0.7258219718940495   F   F   F
  0.5000035166937522  0.2500014901345224  0.7258219718940495   F   F   F
  0.5000035166577632  0.7500014901345224  0.7258219718940495   F   F   F
  0.2500005066165230  0.0000000000000000  0.7258039712857141   F   F   F
  0.2500005066359066  0.5000000000000000  0.7258039712857141   F   F   F
  0.7500004768171777  0.0000000000000000  0.7258039712857141   F   F   F
  0.7500004768365613  0.5000000000000000  0.7258039712857141   F   F   F
  0.7090074158694246  0.5116323704853386  0.5036105196259172   T   T   T
  0.7686432892089352  0.5742044405723068  0.5169728498059157   T   T   T
  0.8920562181456825  0.4239872672934455  0.5104811971909796   T   T   T
  0.8548615738257290  0.4913963733393595  0.5276442976081210   T   T   T
  0.9322395391370670  0.5074278104549697  0.4855212476725852   T   T   T
  0.8725965357607404  0.5750621894936745  0.4742504519005286   T   T   T
  0.7451117220582164  0.4278991903082965  0.4806897538618825   T   T   T
  0.7885481287069382  0.4907702629709959  0.4631623639926940   T   T   T
  0.7750951784282157  0.6555445873730998  0.4862576840384115   T   T   T
  0.7361491827289499  0.5889463922262868  0.4688305481744002   T   T   T
  0.6442386120986300  0.6326109223297797  0.5073897274723473   T   T   T
  0.6549850841157152  0.6994191566051779  0.4872998375547650   T   T   T
  0.7667308433857541  0.3580534498642505  0.5095529595792733   T   T   T
  0.8022732610502140  0.3684079923522148  0.5355772379416898   T   T   T
  0.7302145460320606  0.4268701077425779  0.5270773784307657   T   T   T
  0.8713427689589260  0.6420562305849021  0.5105190000424767   T   T   T
  0.9352300307687991  0.5744997063153640  0.5204268072096203   T   T   T
  0.9603266745212871  0.6331853647790021  0.4990136032136213   T   T   T
  0.8617650933944687  0.3512574494504758  0.4824525781986572   T   T   T
  0.8307406228503401  0.3645823973131422  0.4559299264447604   T   T   T
  0.9077847975383435  0.4153576031725792  0.4652929780192658   T   T   T
  0.5414553870639662  0.6256796924796233  0.4818647010657440   T   T   T
  0.6021715145157905  0.6195411621395785  0.4598119624585963   T   T   T
  0.5597881358552851  0.5167837553557096  0.5113072961418872   T   T   T
  0.6226429031612833  0.5014984521471805  0.4448757167453173   T   T   T
  0.5608853644711073  0.3815184841114743  0.5141881841993253   T   T   T
  0.6227685732705147  0.3642260912280596  0.4476356522900020   T   T   T
  0.5934120474236635  0.3033281333363255  0.4824672384385323   T   T   T
  0.0191097031896278  0.2566737458648327  0.5596141328575518   T   T   T
  0.0199087994631481  0.7660807218521137  0.5587420929876185   T   T   T
  0.4764892950915842  0.2332123245366319  0.5615911516914524   T   T   T
  0.5204654120857850  0.7653581370765795  0.5608011373855261   T   T   T
  0.2751907179232762  0.4717276308628485  0.5600463920740514   T   T   T
  0.2711224193258283 -0.0315913172029823  0.5612389873215485   T   T   T
  0.7176993695128986  0.0129495108233092  0.5587480630190977   T   T   T
 -0.0025992509434473  0.2488050135679637  0.6470099523066465   T   T   T
 -0.0085045204929887  0.7404032415055195  0.6483476131093651   T   T   T
  0.4999907448123011  0.2488025294173923  0.6469602787431199   T   T   T
  0.5010497138203760  0.7464388457969918  0.6461327782038809   T   T   T
  0.2497141695181386  0.4958508835896164  0.6466427336900106   T   T   T
  0.2496914941309391 -0.0038557783395713  0.6470025948980495   T   T   T
  0.7492574746494011  0.4964411870980459  0.6464213719128390   T   T   T
  0.7487502296855199 -0.0024629548133661  0.6463304852987529   T   T   T
  0.4999889731548066  0.2499949931900858  0.7432770133073987   F   F   F
  0.4999890327507259  0.7499949931900858  0.7432770133073987   F   F   F
  0.9999889731437364  0.2499949931900858  0.7432770133073987   F   F   F
  0.9999890327396557  0.7499949931900858  0.7432770133073987   F   F   F
  0.2500005066120252  0.0000010000111388  0.7432559728590533   F   F   F
  0.2500005066350184  0.5000010132981174  0.7432559728590533   F   F   F
  0.7500004768126800  0.0000010000111388  0.7432559728590533   F   F   F
  0.7500004768356803  0.5000010132981174  0.7432559728590533   F   F   F
  0.7555611806879128  0.5495972386625493  0.5013578255858261   T   T   T
  0.8407767375999716  0.4529258751883816  0.5147197427056861   T   T   T
  0.8880533924829587  0.5470634337690540  0.4891905634641921   T   T   T
  0.7986360891052675  0.4525115751179461  0.4764634029935875   T   T   T
  0.7348387625663835  0.6099764600291662  0.4853724883914156   T   T   T
  0.6562555305547378  0.6394098898648327  0.4902113157035337   T   T   T
  0.7810841027643708  0.3993531348605184  0.5217601424111529   T   T   T
  0.9140778656990677  0.6019097818863415  0.5059618034687678   T   T   T
  0.8536609796750765  0.3930784004983166  0.4699614394898010   T   T   T
  0.5949793151824824  0.6028478978055529  0.4766486649229541   T   T   T
  0.5926554881190466  0.5194072636953689  0.4779425307310672   T   T   T
  0.5745886932719926  0.4840387974753024  0.4972564187750402   T   T   T
  0.6096253512322529  0.4751559216684526  0.4601649699281820   T   T   T
  0.5750951883155657  0.4070850618919650  0.4989046475682007   T   T   T
  0.6097406386420521  0.3978211251730112  0.4616736530074199   T   T   T
  0.5930762637357169  0.3634773108298712  0.4811366737020600   T   T   T
  0.0429460144848360  0.1880642815324364  0.5586692832367022   T   T   T
  0.0350186362090704  0.6957913227533125  0.5619774132375770   T   T   T
  0.5454544552364776  0.2315501057826175  0.5681863173038860   T   T   T
  0.5553721889089901  0.7023555594631299  0.5577622429621426   T   T   T
  0.4394797314284279  0.2935367773923136  0.5565343314074218   T   T   T
  0.4514159944792381  0.7723406464545773  0.5671115053365136   T   T   T
  0.9498127727847253  0.2783745769584703  0.5604283933360711   T   T   T
  0.9541039204594199  0.7966175304791444  0.5600563342540955   T   T   T
  0.2063824445361407  0.4503969831898477  0.5626815261820872   T   T   T
  0.2051380071208445  0.9399473238411806  0.5642899045553910   T   T   T
  0.6814636322303610  0.9509895132922833  0.5552841827054521   T   T   T
  0.2886828987422273  0.0388038857372709  0.5630391888643705   T   T   T
  0.2995484578723147  0.5402436166487542  0.5599083177255197   T   T   T
  0.7867558098948492  0.0184575541001685  0.5650917789489083   T   T   T
  0.0436445942390608  0.2031539863597632  0.6564412921666667   T   T   T
  0.0464003364353232  0.7014577860052036  0.6562529101294816   T   T   T
  0.5454233463151043  0.2020879892457789  0.6562587986728727   T   T   T
  0.5484172475954280  0.7019933582151895  0.6555504863194501   T   T   T
  0.2009705484530908  0.4514338026743190  0.6554831977804418   T   T   T
  0.2025779792551330  0.9504367643212965  0.6560331432140115   T   T   T
  0.7035041170922378  0.4476996075788197  0.6546470774626092   T   T   T
  0.7021289307285250  0.9512830668565474  0.6553418327443215   T   T   T
  0.4533813150594444  0.2934222753692713  0.6566205030951250   T   T   T
  0.4544266127190597  0.7913644121090221  0.6556818787969400   T   T   T
  0.9533173761446507  0.2959688773087181  0.6566543047841537   T   T   T
  0.9608702432507267  0.7980216672760470  0.6575937645180459   T   T   T
  0.2933334193140367  0.0429120229886537  0.6569855321748105   T   T   T
  0.2951609087974345  0.5403713384390526  0.6568198043670826   T   T   T
  0.7946706957245159  0.0420580876055472  0.6563222648685960   T   T   T
  0.7915300700160657  0.5421564769317156  0.6573014366283162   T   T   T
  0.0458624996011352  0.2041195035215679  0.7527260184237576   F   F   F
  0.0458624996205117  0.7041195035215679  0.7527260184237576   F   F   F
  0.5458624958803711  0.2041195035215679  0.7527260184237576   F   F   F
  0.5458624958997476  0.7041195035215679  0.7527260184237576   F   F   F
  0.2041189968698021  0.4541010260417480  0.7527049779914137   F   F   F
  0.2041189968729569  0.9541009664717990  0.7527049779914137   F   F   F
  0.7041189670704568  0.4541010260417480  0.7527049779914137   F   F   F
  0.7041189670736117  0.9541009664717990  0.7527049779914137   F   F   F
  0.4541400075181912  0.2958885133423621  0.7527269721025078   F   F   F
  0.4541400074903166  0.7958885431273401  0.7527269721025078   F   F   F
  0.9541400075071209  0.2958885133423621  0.7527269721025078   F   F   F
  0.9541400671111475  0.7958885431273401  0.7527269721025078   F   F   F
  0.2958824932447897  0.0459005012963090  0.7527049779914137   F   F   F
  0.2958824932702626  0.5459005236627235  0.7527049779914137   F   F   F
  0.7958824634454515  0.0459005012963090  0.7527049779914137   F   F   F
  0.7958824634709174  0.5459005236627235  0.7527049779914137   F   F   F
  0.8211017780208560  0.5007366379138787  0.4953919954769480   T   T   T
  0.4858168150169051 -0.0036394424400834  0.5526781697930980   T   T   T
  0.4921182781949678  0.4983462044797078  0.5533029383633373   T   T   T
 -0.0016040796491617 -0.0099261830130581  0.5531017520029852   T   T   T
  0.0056750194906331  0.4732315696874203  0.5522768831878594   T   T   T
  0.2424066096937701  0.2523996448361439  0.5527006509397114   T   T   T
  0.2347051364573208  0.7433938497925706  0.5533180092790745   T   T   T
  0.7573814928332644  0.2174787633405142  0.5532834082629083   T   T   T
  0.7450786742123693  0.7556776510069682  0.5501251850803941   T   T   T
 -0.0001491595719576  0.0013621814270793  0.6546385085587412   T   T   T
 -0.0020216063009441  0.5041678515877205  0.6536870129142041   T   T   T
  0.4977741546010044 -0.0042156684730649  0.6544998047493247   T   T   T
  0.4985194982757628  0.4975136476784176  0.6546507804174387   T   T   T
  0.2469081286383584  0.2448505919261112  0.6545608626128963   T   T   T
  0.2480242068832435  0.7438911032737860  0.6547732136559886   T   T   T
  0.7491231952782139  0.2449313472419362  0.6544342681266911   T   T   T
  0.7587995691851946  0.7463835420764533  0.6531970803559269   T   T   T
  0.1446113553243478  0.0994824162513518  0.6031640424570650   T   T   T
  0.1438701971659207  0.5960106536907870  0.6024281386803328   T   T   T
  0.6328904007933438  0.1097275020556285  0.6067742960002828   T   T   T
  0.6336383581242924  0.6123632120451140  0.6070463243543988   T   T   T
  0.3645525062824713  0.3809051468190261  0.6072388843868713   T   T   T
  0.3584766996158527  0.8816344260995285  0.6072182173392195   T   T   T
  0.8626489969855636  0.3807368182586249  0.6070670554803059   T   T   T
  0.8576162642152786  0.8862986915025426  0.6047280111056345   T   T   T
  0.1100452197716042  0.3552681785480776  0.6074113826312397   T   T   T
  0.1039866732572776  0.8502066643708692  0.6088297448982449   T   T   T
  0.6189289720649556  0.3645781073895086  0.6046981833603458   T   T   T
  0.6135712395619852  0.8611147878381064  0.6062474295045143   T   T   T
  0.3869741139081374  0.1339338869640193  0.6073882044744567   T   T   T
  0.3861537797725972  0.6346427548356433  0.6056633788681313   T   T   T
  0.8916997537625828  0.1341958261565468  0.6057641202279112   T   T   T
  0.8888921460045599  0.6353040540364873  0.5992695240858099   T   T   T
  0.0000000000000000  0.0000000000000000  0.7549279928135135   F   F   F
  0.0000000000193765  0.5000000000000000  0.7549279928135135   F   F   F
  0.4999999999889297  0.0000000000000000  0.7549279928135135   F   F   F
  0.5000000000083062  0.5000000000000000  0.7549279928135135   F   F   F
  0.2500005066262148  0.2500000000000000  0.7549390196750210   F   F   F
  0.2500005066455913  0.7500000000000000  0.7549390196750210   F   F   F
  0.7500004768268695  0.2500000000000000  0.7549390196750210   F   F   F
  0.7500004768462460  0.7500000000000000  0.7549390196750210   F   F   F
  0.1357904970913637  0.1142100020970958  0.7047830224073479   F   F   F
  0.1357904970574069  0.6142100095710177  0.7047830224073479   F   F   F
  0.6357904672366530  0.1142100020970958  0.7047830224073479   F   F   F
  0.6357904672580617  0.6142100095710177  0.7047830224073479   F   F   F
  0.3642095029149104  0.3857899904289823  0.7047830224073479   F   F   F
  0.3642095029342869  0.8857899904289823  0.7047830224073479   F   F   F
  0.8642095327474735  0.3857899904289823  0.7047830224073479   F   F   F
  0.8642095327114845  0.8857899904289823  0.7047830224073479   F   F   F
  0.1142179891403217  0.3642190098927216  0.7047809958420075   F   F   F
  0.1142179891596982  0.8642190098927216  0.7047809958420075   F   F   F
  0.6142179966039976  0.3642190098927216  0.7047809958420075   F   F   F
  0.6142179965680086  0.8642190098927216  0.7047809958420075   F   F   F
  0.3857820034204806  0.1357814967840127  0.7047820091166770   F   F   F
  0.3857820033926060  0.6357815265689908  0.7047820091166770   F   F   F
  0.8857820034094104  0.1357814967840127  0.7047820091166770   F   F   F
  0.8857820033815287  0.6357815265689908  0.7047820091166770   F   F   F
  0.1346669942216394  0.1153320073988340  0.8012560009966521   F   F   F
  0.1346669941856504  0.6153320073988340  0.8012560009966521   F   F   F
  0.6346669793164352  0.1153320073988340  0.8012560009966521   F   F   F
  0.6346669793358117  0.6153320073988340  0.8012560009966521   F   F   F
  0.3653329908925258  0.3846679926011660  0.8012560009966521   F   F   F
  0.3653329908565368  0.8846679926011589  0.8012560009966521   F   F   F
  0.8653329610931877  0.3846679926011660  0.8012560009966521   F   F   F
  0.8653329610571987  0.8846679926011589  0.8012560009966521   F   F   F
  0.1153285056432978  0.3653370142087482  0.8012650012928191   F   F   F
  0.1153285056073088  0.8653370142087482  0.8012650012928191   F   F   F
  0.6153284907380936  0.3653370142087482  0.8012650012928191   F   F   F
  0.6153284907574701  0.8653370142087482  0.8012650012928191   F   F   F
  0.3846715092631925  0.1346630006837373  0.8012650012928191   F   F   F
  0.3846715092785189  0.6346629857912518  0.8012650012928191   F   F   F
  0.8846715092521222  0.1346630006837373  0.8012650012928191   F   F   F
  0.8846715092674415  0.6346629857912518  0.8012650012928191   F   F   F
 -0.0008614642646773 -0.0075404128350082  0.6042331702625844   T   T   T
 -0.0036122718910222  0.4917340872590486  0.6031221644542317   T   T   T
  0.4963687342665812 -0.0051093437465819  0.6044587585787821   T   T   T
  0.5001735569604852  0.4968177068817007  0.6046904925196951   T   T   T
  0.2494286857840069  0.2465193305292872  0.6047074577741425   T   T   T
  0.2421317256724441  0.7424965142914280  0.6046948533895389   T   T   T
  0.7524369493715581  0.2434499586496827  0.6036854457312359   T   T   T
  0.7471944048819006  0.7450207322571504  0.6027620981041870   T   T   T
  0.0000005000032601  0.0000004999778866  0.7048289775829417   F   F   F
  0.0000005000163412  0.5000004768364050  0.7048289775829417   F   F   F
  0.5000004768481432  0.0000004999778866  0.7048289775829417   F   F   F
  0.5000004768612172  0.5000004768364050  0.7048289775829417   F   F   F
  0.2499999999728644  0.2499994784861386  0.7048249840801901   F   F   F
  0.2500000000044054  0.7499995231635950  0.7048249840801901   F   F   F
  0.7500000000171596  0.2499994784861386  0.7048249840801901   F   F   F
  0.7499999999933351  0.7499995231635950  0.7048249840801901   F   F   F
  0.0000000000000000  0.0000000000000000  0.8073179721848831   F   F   F
  0.0000000000193765  0.5000000000000000  0.8073179721848831   F   F   F
  0.4999999999889297  0.0000000000000000  0.8073179721848831   F   F   F
  0.5000000000083062  0.5000000000000000  0.8073179721848831   F   F   F
  0.2500000000041496  0.2500000000000000  0.8073179721848831   F   F   F
  0.2500000000235332  0.7500000000000000  0.8073179721848831   F   F   F
  0.7499999999930793  0.2500000000000000  0.8073179721848831   F   F   F
  0.7500000000124558  0.7500000000000000  0.8073179721848831   F   F   F
 
  0.00000000E+00  0.00000000E+00  0.00000000E+00
  0.00000000E+00  0.00000000E+00  0.00000000E+00
  0.00000000E+00  0.00000000E+00  0.00000000E+00
  0.00000000E+00  0.00000000E+00  0.00000000E+00
  0.00000000E+00  0.00000000E+00  0.00000000E+00
  0.00000000E+00  0.00000000E+00  0.00000000E+00
  0.00000000E+00  0.00000000E+00  0.00000000E+00
  0.00000000E+00  0.00000000E+00  0.00000000E+00
  0.00000000E+00  0.00000000E+00  0.00000000E+00
  0.00000000E+00  0.00000000E+00  0.00000000E+00
  0.00000000E+00  0.00000000E+00  0.00000000E+00
  0.00000000E+00  0.00000000E+00  0.00000000E+00
  0.00000000E+00  0.00000000E+00  0.00000000E+00
  0.00000000E+00  0.00000000E+00  0.00000000E+00
  0.00000000E+00  0.00000000E+00  0.00000000E+00
  0.00000000E+00  0.00000000E+00  0.00000000E+00
  0.00000000E+00  0.00000000E+00  0.00000000E+00
  0.00000000E+00  0.00000000E+00  0.00000000E+00
  0.00000000E+00  0.00000000E+00  0.00000000E+00
  0.00000000E+00  0.00000000E+00  0.00000000E+00
  0.00000000E+00  0.00000000E+00  0.00000000E+00
  0.00000000E+00  0.00000000E+00  0.00000000E+00
  0.00000000E+00  0.00000000E+00  0.00000000E+00
  0.00000000E+00  0.00000000E+00  0.00000000E+00
  0.00000000E+00  0.00000000E+00  0.00000000E+00
  0.00000000E+00  0.00000000E+00  0.00000000E+00
  0.00000000E+00  0.00000000E+00  0.00000000E+00
  0.00000000E+00  0.00000000E+00  0.00000000E+00
  0.00000000E+00  0.00000000E+00  0.00000000E+00
  0.00000000E+00  0.00000000E+00  0.00000000E+00
  0.00000000E+00  0.00000000E+00  0.00000000E+00
  0.00000000E+00  0.00000000E+00  0.00000000E+00
  0.00000000E+00  0.00000000E+00  0.00000000E+00
  0.00000000E+00  0.00000000E+00  0.00000000E+00
  0.00000000E+00  0.00000000E+00  0.00000000E+00
  0.00000000E+00  0.00000000E+00  0.00000000E+00
  0.00000000E+00  0.00000000E+00  0.00000000E+00
  0.00000000E+00  0.00000000E+00  0.00000000E+00
  0.00000000E+00  0.00000000E+00  0.00000000E+00
  0.00000000E+00  0.00000000E+00  0.00000000E+00
  0.00000000E+00  0.00000000E+00  0.00000000E+00
  0.00000000E+00  0.00000000E+00  0.00000000E+00
  0.00000000E+00  0.00000000E+00  0.00000000E+00
  0.00000000E+00  0.00000000E+00  0.00000000E+00
  0.00000000E+00  0.00000000E+00  0.00000000E+00
  0.00000000E+00  0.00000000E+00  0.00000000E+00
  0.00000000E+00  0.00000000E+00  0.00000000E+00
  0.00000000E+00  0.00000000E+00  0.00000000E+00
  0.00000000E+00  0.00000000E+00  0.00000000E+00
  0.00000000E+00  0.00000000E+00  0.00000000E+00
  0.00000000E+00  0.00000000E+00  0.00000000E+00
  0.00000000E+00  0.00000000E+00  0.00000000E+00
  0.00000000E+00  0.00000000E+00  0.00000000E+00
  0.00000000E+00  0.00000000E+00  0.00000000E+00
  0.00000000E+00  0.00000000E+00  0.00000000E+00
  0.00000000E+00  0.00000000E+00  0.00000000E+00
  0.00000000E+00  0.00000000E+00  0.00000000E+00
  0.00000000E+00  0.00000000E+00  0.00000000E+00
  0.00000000E+00  0.00000000E+00  0.00000000E+00
  0.00000000E+00  0.00000000E+00  0.00000000E+00
  0.00000000E+00  0.00000000E+00  0.00000000E+00
  0.00000000E+00  0.00000000E+00  0.00000000E+00
  0.00000000E+00  0.00000000E+00  0.00000000E+00
  0.00000000E+00  0.00000000E+00  0.00000000E+00
  0.00000000E+00  0.00000000E+00  0.00000000E+00
  0.00000000E+00  0.00000000E+00  0.00000000E+00
  0.00000000E+00  0.00000000E+00  0.00000000E+00
  0.00000000E+00  0.00000000E+00  0.00000000E+00
  0.00000000E+00  0.00000000E+00  0.00000000E+00
  0.00000000E+00  0.00000000E+00  0.00000000E+00
  0.00000000E+00  0.00000000E+00  0.00000000E+00
  0.00000000E+00  0.00000000E+00  0.00000000E+00
  0.00000000E+00  0.00000000E+00  0.00000000E+00
  0.00000000E+00  0.00000000E+00  0.00000000E+00
  0.00000000E+00  0.00000000E+00  0.00000000E+00
  0.00000000E+00  0.00000000E+00  0.00000000E+00
  0.00000000E+00  0.00000000E+00  0.00000000E+00
  0.00000000E+00  0.00000000E+00  0.00000000E+00
  0.00000000E+00  0.00000000E+00  0.00000000E+00
  0.00000000E+00  0.00000000E+00  0.00000000E+00
  0.00000000E+00  0.00000000E+00  0.00000000E+00
  0.00000000E+00  0.00000000E+00  0.00000000E+00
  0.00000000E+00  0.00000000E+00  0.00000000E+00
  0.00000000E+00  0.00000000E+00  0.00000000E+00
  0.00000000E+00  0.00000000E+00  0.00000000E+00
  0.00000000E+00  0.00000000E+00  0.00000000E+00
  0.00000000E+00  0.00000000E+00  0.00000000E+00
  0.00000000E+00  0.00000000E+00  0.00000000E+00
  0.00000000E+00  0.00000000E+00  0.00000000E+00
  0.00000000E+00  0.00000000E+00  0.00000000E+00
  0.00000000E+00  0.00000000E+00  0.00000000E+00
  0.00000000E+00  0.00000000E+00  0.00000000E+00
  0.00000000E+00  0.00000000E+00  0.00000000E+00
  0.00000000E+00  0.00000000E+00  0.00000000E+00
  0.00000000E+00  0.00000000E+00  0.00000000E+00
  0.00000000E+00  0.00000000E+00  0.00000000E+00
  0.00000000E+00  0.00000000E+00  0.00000000E+00
  0.00000000E+00  0.00000000E+00  0.00000000E+00
  0.00000000E+00  0.00000000E+00  0.00000000E+00
  0.00000000E+00  0.00000000E+00  0.00000000E+00
  0.00000000E+00  0.00000000E+00  0.00000000E+00
  0.00000000E+00  0.00000000E+00  0.00000000E+00
  0.00000000E+00  0.00000000E+00  0.00000000E+00
  0.00000000E+00  0.00000000E+00  0.00000000E+00
  0.00000000E+00  0.00000000E+00  0.00000000E+00
  0.00000000E+00  0.00000000E+00  0.00000000E+00
  0.00000000E+00  0.00000000E+00  0.00000000E+00
  0.00000000E+00  0.00000000E+00  0.00000000E+00
  0.00000000E+00  0.00000000E+00  0.00000000E+00
  0.00000000E+00  0.00000000E+00  0.00000000E+00
  0.00000000E+00  0.00000000E+00  0.00000000E+00
  0.00000000E+00  0.00000000E+00  0.00000000E+00
  0.00000000E+00  0.00000000E+00  0.00000000E+00
  0.00000000E+00  0.00000000E+00  0.00000000E+00
  0.00000000E+00  0.00000000E+00  0.00000000E+00
  0.00000000E+00  0.00000000E+00  0.00000000E+00
  0.00000000E+00  0.00000000E+00  0.00000000E+00
  0.00000000E+00  0.00000000E+00  0.00000000E+00
  0.00000000E+00  0.00000000E+00  0.00000000E+00
  0.00000000E+00  0.00000000E+00  0.00000000E+00