 H  C  N  I Pb 
 1.0000000000000000
    18.0608005523681641    0.0000000000000000    0.0000000000000000
    -0.0049186488613486   18.0627994537353516    0.0000000000000000
     0.0000000000000000    0.0000000000000000   62.4874992370605469
 H   C   N   I   Pb 
 143  39  47  72  24
Cartesian
  8.0399522781372070  5.9795565605163574 35.4177246093750000
  7.6221466064453125 15.0030307769775391 35.5224990844726562
 17.3557357788085938  5.8396410942077637 36.0801200866699219
 17.1073284149169922 14.7207269668579102 35.8665237426757812
  5.8533047894015908 17.2002148628234899 35.8557891845703125
  6.2718787193298340 10.0728063583374006 35.2252883911132884
 14.5346555709838867  1.5096206665039062 35.6893653869628906
  0.2591838836669925  2.5315394401550293 35.0316390991211009
  1.1750679016113279 11.8232936859130859 35.5364761352539062
 10.0974054336547852  3.0828940868377686 34.6969833374023438
  9.0255374908447266 11.6964664459228516 35.1355972290039062
  6.5715870857238770  0.3646803796291351 34.8603897094726634
  5.2327933311462402 11.3830556869506836 34.6745910644531321
 15.7904014587402344  0.4137171804904938 35.1329498291015625
 17.3873691558837891  3.3666391372680660 36.1972694396972656
 17.9025440216064453 12.4513101577758789 36.4678497314453125
 10.1621904373168945  4.6605811119079590 35.4666748046875000
  7.7929801940917960 12.5573940277099609 35.9722709655761719
  5.1175723075866690  7.9149532318115234 35.7842941284179759
  3.4341527679935098 16.7981313467025757 35.6447029113769531
 12.2159919738769531  0.6069719791412354 35.6440353393554688
  6.6605954170227051  5.1724333763122559 34.6912117004394602
  8.8599939346313477 15.7105989456176758 34.5335121154785156
  0.3262882232666003  6.6191802024841300 34.8970489501953125
 18.0099945068359375 15.5877542495727539 34.6558723449707031
  3.4601299762725830  7.8082370758056632 35.3013534545898509
  2.5129727581515904 17.9061861038208008 34.6991081237793040
 12.0376133183017373 17.0381739139556885 35.0699424743652415
  7.8759274482727051  3.3041322231292725 34.1148414611816477
  9.9220676422119141 13.6485099792480469 34.1855888366699290
  1.0722675323486337  4.5213561058044434 34.0508384704589844
  1.4487037658691431 13.7874641418457013 34.3168869018554688
  3.3601350784301753  9.9878768920898420 34.5708274841308665
  4.4391722679138184  1.0609053373336792 34.0623550415039062
 14.2742265919223410 16.7731291055679321 34.6717681884765625
  8.7591505050659180  6.1045145988464355 41.6046180725097656
  8.0509662628173828 14.6750602722167951 42.1033782958984375
 17.4626827239990234  5.0803670883178711 42.3624534606933594
 16.7244405746459996 13.0954322814941406 42.0617713928222727
  5.5887374877929688  0.9492140412330627 41.9504776000976562
  5.4095120429992676  9.9464960098266584 42.1781272888183594
 14.4085397720336914  1.0613621473312378 42.1771774291992188
 13.5829286575317383 10.7952709197998047 41.3234176635742188
  1.5202732086181641  2.9373054504394531 40.2967071533203196
  1.9994815587997439 12.9973983764648438 40.6417846679687500
 10.4618768692016602  3.0659029483795166 40.5545845031738281
 10.1645526885986328 12.0189571380615234 40.6838340759277344
  3.2694475650787354  7.4778833389282227 40.5191192626953125
  3.1516882637515660 16.6575663089752197 40.5155525207519531
 12.8369331359863281  7.2233767509460440 41.3530387878418040
 12.1902717808261496 16.6831337213516235 40.5752639770507812
  1.1410018205642700  3.2107400894165039 41.9786109924316406
  1.0267794132232666 12.2088069915771484 41.8259506225585938
 10.7783308029174805  4.6329407691955566 41.2216606140136719
  9.5681352615356445 12.5876607894897461 42.2295036315917969
  3.6068108081817627  8.0619659423828125 42.1141242980957031
  3.7160298088565469 17.1650052070617676 42.0673942565917969
 12.1273899078369141  8.7753658294677734 41.7478752136230469
 12.5050453403964639 17.3543125391006470 42.1475448608398438
  7.2161908149719229  5.3730320930480957 41.2292556762695312
  7.7944197654724121 15.2679901123046857 40.4888534545898438
 16.9199861288070679  5.8872299194335938 40.9190025329589844
 16.2849494218826294 14.3787460327148438 40.9603424072265625
  6.0108580589294434  1.4111434221267700 40.3346366882324219
  6.0081582069396973 10.3980875015258789 40.6094665527343750
 15.1137619018554688  1.3780473470687866 40.6324272155761719
 15.1146926879882812 10.4766702651977539 40.5643157958984446
  0.1439002603292465  4.6025834083557129 39.5134277343750000
  0.3257895410060883 14.4427890777587891 39.9649391174316406
  8.1592550277709961  3.4205968379974365 40.4533157348632884
  9.1054944992065430 13.6424016952514631 39.4805793762207031
  4.5237411716952920 18.0498536918312311 39.3171730041503906
  4.7223515510559082  8.8815450668334961 39.4570770263671875
 13.8096327045932412 17.9126651883125305 39.5089988708496094
 14.7675008773803711  8.1613321304321289 40.4834365844726634
  8.1032123565673828  5.4420318603515616 48.0459518432617259
  8.1007528305053711 14.4734306335449219 48.0459518432617259
 17.1336116790771484  5.4420318603515616 48.0459518432617259
 17.1311531066894531 14.4734306335449219 48.0459518432617259
  5.4410333633422852  0.9265221953392029 48.0449485778808594
  5.4385743141174316  9.9579219818115234 48.0449485778808594
 14.4714326858520490  0.9265221953392029 48.0449485778808594
 14.4689741134643555  9.9579219818115234 48.0449485778808594
  1.4218254089355467  3.0919990539550781 46.4558296203613281
  1.4193661212921143 12.1233978271484375 46.4558296203613281
 10.4522256851196289  3.0919990539550781 46.4558296203613281
 10.4497661590576172 12.1233978271484375 46.4558296203613281
  3.0899283885955806  7.6075901985168457 46.4545211791992188
  3.0874691009521484 16.6389904022216797 46.4545211791992188
 12.1203289031982422  7.6075901985168457 46.4545211791992188
 12.1178693771362305 16.6389904022216797 46.4545211791992188
  0.9247469902038573  3.5893490314483643 48.0459518432617259
  0.9222877025604248 12.6207475662231445 48.0459518432617259
  9.9551477432250977  3.5893490314483643 48.0459518432617259
  9.9526882171630859 12.6207475662231445 48.0459518432617259
  3.5868983268737793  8.1048498153686523 48.0448913574218821
  3.5844390392303462 17.1362495422363281 48.0448913574218821
 12.6172990798950195  8.1048498153686523 48.0448913574218821
 12.6148395538330078 17.1362495422363281 48.0448913574218821
  7.6061611175537109  5.9393639564514160 46.4558296203613281
  7.6037015914916992 14.9707632064819336 46.4558296203613281
 16.6365604400634766  5.9393639564514160 46.4558296203613281
 16.6341018676757812 14.9707632064819336 46.4558296203613281
  5.9380125999450684  1.4238001108169553 46.4545211791992188
  5.9355530738830566 10.4551992416381836 46.4545211791992188
 14.9684123992919904  1.4238001108169553 46.4545211791992188
 14.9659538269042951 10.4551992416381836 46.4545211791992188
 -0.0011664569610730  4.5157265663146973 45.3548011779785156
 -0.0036257810425013 13.5471258163452148 45.3548011779785156
  9.0292339324951172  4.5157265663146973 45.3548011779785156
  9.0267744064331037 13.5471258163452148 45.3548011779785156
  4.5152091979980469  0.0000000000000000 45.3536758422851562
  4.5127501487731934  9.0313997268676740 45.3536758422851562
 13.5456094741821289  0.0000000000000000 45.3536758422851562
 13.5431499481201172  9.0313997268676740 45.3536758422851562
 14.0150852203369141 10.0437660217285156 32.4653587341308594
 13.0248556137084961  8.6297607421875000 32.8314552307128906
 15.7070865631103516  9.0543737411499023 33.7712783813476634
 15.4751701354980469  8.6993055343627930 35.4830017089843750
 13.4172582626342773 11.5858621597290039 34.9871597290039062
 14.5963811874389648 10.7800283432006836 36.0468826293945312
 12.0274772644042951  9.9156713485717773 35.5911407470703125
 12.2472858428955078  8.2625541687011719 35.0310630798339844
 11.1240806579589844 10.0483198165893555 33.5797691345214844
 12.1365947723388672 11.4913492202758789 33.4541664123535156
 10.9416942596435547 11.6558313369750959 31.4944248199462891
 12.4012403488159180 10.8621454238891602 30.9100589752197301
 14.2027864456176758  7.0841598510742188 33.1553344726562500
 14.0647115707397461  6.6627264022827148 34.8896751403808594
 15.6397714614868164  6.6561617851257324 34.0787353515625000
 15.5879306793212891 12.5489082336425781 34.6769561767578125
 15.2492599487304670 11.6918077468872070 33.1863746643066406
 16.4025764465332031 11.0083341598510742 34.3809013366699219
 13.7609500885009766  9.5588760375976562 37.3975982666015625
 13.9658756256103516  7.8741412162780762 36.8598670959472656
 12.4165525436401367  8.4212846755981445 37.4960098266601562
  9.6698026657104492  9.5783271789550781 31.4572067260742223
 10.4349212646484357  9.9001026153564453 29.9068870544433594
 12.5857276916503906  8.6225090026855469 29.2819347381591797
 10.1184129714965820  7.5200324058532715 32.6380462646484375
 13.7706680297851545  6.4473609924316397 29.4556274414062536
 11.3233404159545898  5.3642926216125479 32.8221359252929688
 13.1629552841186523  4.8238024711608887 31.2538051605224645
  0.3565349578857415  4.5750284194946280 34.8739013671875000
  0.6270580291748072 13.7030324935913086 35.0269851684570312
  8.3758220672607422  4.1288452148437500 34.6081237792968750
  8.9976882934570312 13.6928462982177734 34.7634925842285227
  4.3168301582336426  9.5905466079711914 34.9116401672363281
  4.5334539413452148  0.1906048357486725 34.7163543701171875
 13.9203867176547647 17.7284620404243469 35.0606307983398438
  0.1880367249250412  4.4140090942382812 40.5774345397949290
  0.1204989850521088 13.7231912612915039 40.7515144348144531
  8.8063621520996094  4.2011723518371582 40.8362922668457102
  8.9857778549194336 13.6416873931884766 40.5611076354980469
  4.6355624198913574  8.9273338317871094 40.5407066345214844
  4.5830097198486328  0.0053375838324428 40.4002380371093750
 14.0102128982543945  8.8157520294189453 40.9180221557617259
 13.6629318455234170 18.0538264922797715 40.5732765197753906
  9.0289716720581055  4.5156092643737793 46.4455223083496165
  9.0265130996704102 13.5470085144042969 46.4455223083496165
 18.0593719482421875  4.5156092643737793 46.4455223083496165
 18.0569133758544922 13.5470085144042969 46.4455223083496165
  4.5152091979980469  0.0000180629995157 46.4442062377929759
  4.5127501487731934  9.0314178466796857 46.4442062377929759
 13.5456094741821289  0.0000180629995157 46.4442062377929759
 13.5431499481201172  9.0314178466796857 46.4442062377929759
 11.2749004364013672  8.2335929870605469 30.9658832550048864
 12.2998332977294922  7.9081978797912598 30.0657367706298828
 10.9183816909790039  7.2962760925292969 31.9381465911865234
 12.9763441085815430  6.6891770362854004 30.1657199859619141
 11.5854759216308576  6.0787892341613770 32.0421524047851562
 12.6278600692749023  5.7690567970275879 31.1683845520019567
 13.2259798049926740  9.6584339141845703 33.1265068054199219
 14.9997501373290998  8.6309061050415039 34.4955520629882884
 14.2953662872314435 10.9246482849121094 35.0041046142578125
 12.7558135986328125  9.0999269485473633 35.5199623107910227
 11.9509000778198224 10.5019979476928711 33.0113525390625000
 11.5139722824096680 10.7081031799316388 31.5475711822509766
 14.6826610565185547  7.1901135444641113 34.1384162902832031
 15.4491586685180664 11.5452423095703125 34.2549057006835938
 13.2793989181518555  8.7251567840576172 36.8837509155273438
 10.6386556625366211  9.5951881408691406 30.9415607452392578
 18.0428009033203125  3.4333331584930420 35.4198417663574219
  0.5654830932617183 12.6117639541625977 35.7405357360839844
  9.6525249481201172  3.9849026203155518 34.8755760192871094
  8.5531435012817383 12.5830383300781250 35.2942466735839915
  7.6688027381896964  5.1909198760986328 34.8809165954589915
  8.4238042831420898 14.8565235137939453 34.8928985595703196
 17.9903583526611328  5.7487874031066895 35.2752609252929688
 17.8343544006347656 14.6976099014282227 35.1404953002929688
  4.3394956588745117  8.3190088272094727 35.2534599304199290
  3.4368406990543008 17.5864422321319580 35.0023384094238281
 12.6216205814853293 17.8469484895467758 35.2070846557617188
  5.7221421459689736 17.9396887198090553 35.1554069519042969
  5.3466649055480957 10.3986234664916992 34.9323959350585938
 14.8058919906616211  0.5856955051422119 35.3533210754394531
  0.9877568483352661  3.4575748443603516 41.0026206970214915
  1.0916990041732788 12.9004478454589844 41.0774917602539062
 10.0938501358032227  3.9589519500732422 40.8922157287597656
  9.6075706481933594 12.6872282028198242 41.2156753540039134
  3.7938854694366455  8.1083307266235352 41.1059341430664062
  3.7622081497684121 17.2545064091682434 41.0458183288574219
 12.9003906250000000  8.2434406280517578 41.3372955322265625
 12.7311424473300576 17.3177188038825989 41.1455001831054688
  8.2351016998291016  5.3073682785034180 41.2222518920898438
  8.2448520660400391 14.5853643417358381 41.1010169982910156
 17.4930161237716675  5.1703443527221680 41.3515205383300852
 17.0036522150039673 13.7594385147094727 41.3275108337402415
  5.4397644996643066  0.8236525058746338 40.9378738403320312
  5.4047918319702148  9.8076353073120117 41.1582794189453125
 14.4284954071044922  0.8575978875160217 41.1742591857910156
 14.2445611953735334 10.0926160812377930 40.9698600769043040
  0.8273094892501831  3.6869695186614990 47.0359649658203125
  0.8248501420021057 12.7183685302734375 47.0359649658203125
  9.8577098846435547  3.6869695186614990 47.0359649658203125
  9.8552503585815412 12.7183685302734375 47.0359649658203125
  3.6843190193176270  8.2023353576660156 47.0346527099609375
  3.6818594932556152 17.2337341308593750 47.0346527099609375
 12.7147188186645508  8.2023353576660156 47.0346527099609375
 12.7122592926025391 17.2337341308593750 47.0346527099609375
  8.2006769180297852  5.3445744514465332 47.0360260009765696
  8.1982173919677734 14.3759746551513672 47.0360260009765696
 17.2310771942138672  5.3445744514465332 47.0360260009765696
 17.2286186218261719 14.3759746551513672 47.0360260009765696
  5.3436489105224600  0.8290914893150328 47.0346527099609375
  5.3411893844604483  9.8604917526245117 47.0346527099609375
 14.3740482330322266  0.8290914893150328 47.0346527099609375
 14.3715896606445312  9.8604917526245117 47.0346527099609375
 13.8167676925659180  9.5695095062255859 34.5283508300781250
  9.1533279418945312  0.3074717819690704 34.4472389221191406
  8.6174974441528320  9.0126562118530273 34.6808853149414062
  0.0624549016356468  0.0653252601623535 34.3315124511718750
  0.7163163423538208  9.1326951980590820 34.5822105407714844
  4.2105207443237305  4.3805246353149414 34.4839057922363281
  4.5850052833557129 13.8024253845214844 34.5670585632324219
 13.2830886840820312  3.6434755325317383 34.6949539184570312
 12.7076530456542951 14.3141784667968750 34.5844497680664062
  0.0068483538925648 17.7513042390346527 40.8781738281250000
 18.0482477582991123  9.0247697830200195 40.9426498413086009
  9.0850000381469709  0.2698291838169098 40.8628845214843750
  9.2677621841430664  8.8180093765258789 40.9378051757812500
  4.7138228416442871  4.4378628730773926 40.8822517395019531
  4.6336059570312500 13.6131372451782227 40.9069747924804759
 13.6318311691284180  4.7670626640319824 40.9079093933105540
 13.4488534927368164 13.5747976303100586 40.8870544433593750
  2.4333808422088623  1.9721764326095581 37.9794464111328125
  2.7114174365997314 10.9192075729370117 38.0774002075195312
 11.6987199783325195  1.8924564123153687 38.1509170532226562
 11.1380300521850586 11.3949823379516602 38.1968879699707031
  6.5109257698059073  6.9265704154968262 37.8808403015136719
  6.7224721908569336 15.9374570846557617 37.9264144897460938
 16.1064548492431641  6.5864286422729492 38.1928291320800781
 15.7465934753417969 15.7692108154296875 37.8853569030761719
  2.2583436965942383  6.6397953033447266 38.0746154785156250
  2.2374298572540283 15.6765403747558594 37.9738235473632812
 10.6194658279418945  6.0477485656738281 37.6021041870117188
 11.1511869430541992 15.7680940628051758 38.2405052185058594
  6.9536242485046387  2.4237668514251709 37.7978935241699219
  6.9406371116638184 11.3785867691040039 38.1921958923339844
 15.9948434829711914  2.3899750709533687 38.2508277893066406
 16.2764625549316406 11.5696258544921875 38.2477912902832102
  0.0000000000000000  0.0000000000000000 47.1735610961914062
 -0.0024593239650130  9.0313997268676740 47.1735610961914062
  9.0304002761840803  0.0000000000000000 47.1735610961914062
  9.0279407501220685  9.0313997268676740 47.1735610961914062
  4.5139794349670410  4.5156998634338379 47.1742515563964844
  4.5115203857421875 13.5470991134643537 47.1742515563964844
 13.5443792343139648  4.5156998634338379 47.1742515563964844
 13.5419197082519531 13.5470991134643537 47.1742515563964844
  2.4519233703613277  2.0629522800445557 44.0401268005371165
  2.4494640827178955 11.0943517684936523 44.0401268005371165
 11.4823226928710920  2.0629522800445557 44.0401268005371165
 11.4798641204833984 11.0943517684936523 44.0401268005371165
  6.5760178565979004  6.9684472084045410 44.0401268005371165
  6.5735583305358887 15.9998464584350586 44.0401268005371165
 15.6064186096191406  6.9684472084045410 44.0401268005371165
 15.6039590835571289 15.9998464584350586 44.0401268005371165
  2.0610768795013428  6.5788145065307617 44.0400009155273509
  2.0586175918579102 15.6102142333984375 44.0400009155273509
 11.0914773941040039  6.5788145065307617 44.0400009155273509
 11.0890178680419922 15.6102142333984375 44.0400009155273509
  6.9668641090393066  2.4525938034057613 44.0400657653808665
  6.9644045829772949 11.4839935302734375 44.0400657653808665
 15.9972639083862305  2.4525938034057613 44.0400657653808665
 15.9948053359985352 11.4839935302734375 44.0400657653808665
  2.4316265583038330  2.0832188129425049 50.0684852600097656
  2.4291670322418213 11.1146183013915998 50.0684852600097656
 11.4620265960693359  2.0832188129425049 50.0684852600097656
 11.4595670700073224 11.1146183013915998 50.0684852600097656
  6.5963144302368164  6.9481806755065918 50.0684852600097656
  6.5938549041748047 15.9795799255371076 50.0684852600097656
 15.6267137527465803  6.9481806755065918 50.0684852600097656
 15.6242542266845703 15.9795799255371076 50.0684852600097656
  2.0811281204223633  6.5990090370178223 50.0690460205078125
  2.0786688327789307 15.6304082870483398 50.0690460205078125
 11.1115283966064453  6.5990090370178223 50.0690460205078125
 11.1090688705444336 15.6304082870483398 50.0690460205078125
  6.9468131065368652  2.4323906898498531 50.0690460205078125
  6.9443535804748535 11.4637899398803711 50.0690460205078125
 15.9772129058837891  2.4323906898498531 50.0690460205078125
 15.9747543334960938 11.4637899398803711 50.0690460205078125
 18.0287855742499232 18.0236251130700111 37.8307189941406250
  0.1542404741048813  9.0474052429199219 37.8156814575195312
  9.0823755264282209  0.1439903676509857 37.7082862854003906
  8.9933347702026367  8.8971452713012695 37.8042488098144531
  4.4358258247375488  4.4262475967407227 37.6389427185058665
  4.4992847442626953 13.4489450454711914 37.7371406555175781
 13.4096879959106428  4.4250769615173340 37.6674270629882812
 13.3062772750854492 13.6590166091918945 37.6683158874511719
  0.0000090280000222  0.0000090310004452 44.0429992675781250
 -0.0024502959568053  9.0314083099365234 44.0429992675781250
  9.0304088592529297  0.0000090310004452 44.0429992675781250
  9.0279493331909180  9.0314083099365234 44.0429992675781250
  4.5139703750610352  4.5156903266906738 44.0427513122558594
  4.5115113258361816 13.5470905303955078 44.0427513122558594
 13.5443706512451172  4.5156903266906738 44.0427513122558594
 13.5419111251831037 13.5470905303955078 44.0427513122558594
  0.0000000000000000  0.0000000000000000 50.4472808837890696
 -0.0024593239650130  9.0313997268676740 50.4472808837890696
  9.0304002761840803  0.0000000000000000 50.4472808837890696
  9.0279407501220685  9.0313997268676740 50.4472808837890696
  4.5139703750610352  4.5156998634338379 50.4472808837890696
  4.5115113258361816 13.5470991134643537 50.4472808837890696
 13.5443706512451172  4.5156998634338379 50.4472808837890696
 13.5419111251831055 13.5470991134643537 50.4472808837890696
