 H  C  N  I Pb 
 1.0000000000000000
    18.0608005523681641    0.0000000000000000    0.0000000000000000
    -0.0049186488613486   18.0627994537353516    0.0000000000000000
     0.0000000000000000    0.0000000000000000   62.4874992370605469
 H   C   N   I   Pb 
 143  39  47  72  24
Cartesian
  7.6068663597106925  4.6271324157714844 36.0482292175292969
  7.4049272537231445 13.0337390899658203 35.9140205383300781
 16.6623153686523438  5.0870041847229004 36.3040428161621094
 16.9647865295410156 14.7333164215087891 36.0338363647460938
  5.7283382415771475  1.3157677650451660 35.8623504638671875
  5.5568456649780273 10.5030059814453125 35.8100738525390625
 14.4246959686279297  1.4133965969085693 36.0987701416015696
  1.9587478637695301  4.0346627235412598 35.3224449157714844
  1.4534263610839866 12.1674852371215820 35.5725593566894531
 11.0228834152221662  3.6303048133850098 35.3152122497558594
 10.8812847137451172 13.4426145553588849 35.0727157592773438
  6.7575554847717285  0.2129440456628799 34.9652366638183594
  4.5995979309082031 11.2338523864746094 34.5286903381347656
 15.7525253295898438  0.6307736039161682 35.2406997680664062
  1.0900573730468723  4.9849548339843750 36.5145187377929688
 18.0337047576904297 12.4733619689941406 36.4444923400878906
  9.5482311248779297  3.1397376060485840 36.2020492553710938
  9.8070201873779297 12.4620676040649396 36.0995483398437500
  5.2371082305908203  8.0716152191162109 36.2396240234375000
  3.2910737991333008  0.8889794349670410 35.7636032104492188
 12.2282018661499023  0.3591862916946411 35.9348106384277344
  7.8236303329467773  6.1138696670532218 35.0904464721679688
  6.9713392257690430 14.3259391784667969 34.8091239929199290
 15.9461565017700195  4.1885652542114258 34.9907341003417969
 17.7949485778808594 15.7646646499633789 34.9181060791015625
  3.9908628463745117  7.2844109535217285 35.3119392395019531
  2.7407106617465615 17.6613662242889404 34.7261886596679759
 12.1655897358432412 16.8776814937591588 35.0559539794921875
 10.0030632019042951  5.4974489212036133 34.4149665832519531
  9.2316884994506836 14.6665096282958984 34.1697845458984375
 18.0452480316162109  3.4823882579803467 34.1653327941894531
  1.4189052581787129 14.2123327255249023 34.4635696411132812
  3.4488890171051025  9.2125778198242188 34.1029624938964844
  4.9567870358005166 17.0571368932723999 34.1288414001464844
 14.3667864063754678 16.9335274696350098 34.4876708984375071
  7.9875931739807129  5.0987677574157715 42.2483367919921875
  7.7825827598571777 14.8390178680419922 41.9913635253906250
 17.5696920156478882  4.9701862335205078 42.6085777282714844
 16.7653031349182129 13.8984575271606445 42.0890884399414134
  5.3025655746459961  0.8399006128311156 42.2302665710449219
  5.5165390968322754 10.0003232955932617 42.0536422729492188
 14.3435840606689435  1.0827388763427734 42.1993331909179688
 14.6987743377685547  9.7875509262084961 42.2058982849121094
  1.5466945171356199  2.9796648025512695 40.2904663085937500
  1.8211901187896729 12.4500732421875000 40.8284111022949290
 10.4949235916137695  3.1379387378692627 40.4341468811035156
 10.1488103866577148 12.2285099029541016 40.9795265197753906
  3.2715363502502441  7.3517136573791504 40.8550987243652344
  3.0031906822696328 16.6771914958953857 40.4605789184570312
 11.9567127227783203  7.9108762741088867 40.6203346252441406
 12.0876983860507607 16.6413390636444127 40.7312431335449219
  1.3153831958770752  3.1783330440521240 42.0147399902343750
  0.6404666304588318 12.1470775604248047 42.0659141540527344
  9.7451639175415039  3.2078166007995605 42.0021018981933665
  9.4838895797729492 12.9328460693359375 42.4241065979003977
  3.9302456378936763  7.9704556465148926 42.3451614379882884
  3.3625425556674600 17.2109305858612061 42.0868949890136719
 12.7704973220825195  8.0163526535034180 42.1517715454101562
 12.5151428440585732 17.3042042255401611 42.2858772277832031
  7.7836971282958975  6.0850806236267081 40.8259162902832031
  7.5113573074340820 15.1634674072265625 40.2849693298339844
 16.8495295047760010  5.7277240753173828 41.2450790405273509
 16.8791152238845861 15.1245851516723633 40.8658027648925781
  6.0635557174682617  1.1861507892608643 40.7154083251953125
  5.6602821350097647 10.5438385009765625 40.4097442626953196
 14.9424562454223633  1.3943859338760376 40.5852394104003977
 14.9394216537475586 10.6494884490966797 40.7449645996093750
 18.0549022853374481  4.5583858489990234 39.6716842651367259
  0.7694962620735167 14.2766437530517578 39.9478149414062500
  9.3176403045654297  4.9483528137207031 39.5745048522949290
  8.9805946350097656 13.5481252670288086 39.5359649658203196
  4.6615332821384072 17.8835847973823547 39.5002059936523438
  4.2749128341674805  8.8915719985961914 39.5350151062011790
 13.5579933384433389 17.9050839841365850 39.5612564086914134
 13.2171096801757812  9.5752038955688477 39.6148529052734375
  8.1032123565673828  5.4420318603515616 48.0459518432617259
  8.1007528305053711 14.4734306335449219 48.0459518432617259
 17.1336116790771484  5.4420318603515616 48.0459518432617259
 17.1311531066894531 14.4734306335449219 48.0459518432617259
  5.4410333633422852  0.9265221953392029 48.0449485778808594
  5.4385743141174316  9.9579219818115234 48.0449485778808594
 14.4714326858520490  0.9265221953392029 48.0449485778808594
 14.4689741134643555  9.9579219818115234 48.0449485778808594
  1.4218254089355467  3.0919990539550781 46.4558296203613281
  1.4193661212921143 12.1233978271484375 46.4558296203613281
 10.4522256851196289  3.0919990539550781 46.4558296203613281
 10.4497661590576172 12.1233978271484375 46.4558296203613281
  3.0899283885955806  7.6075901985168457 46.4545211791992188
  3.0874691009521484 16.6389904022216797 46.4545211791992188
 12.1203289031982422  7.6075901985168457 46.4545211791992188
 12.1178693771362305 16.6389904022216797 46.4545211791992188
  0.9247469902038573  3.5893490314483643 48.0459518432617259
  0.9222877025604248 12.6207475662231445 48.0459518432617259
  9.9551477432250977  3.5893490314483643 48.0459518432617259
  9.9526882171630859 12.6207475662231445 48.0459518432617259
  3.5868983268737793  8.1048498153686523 48.0448913574218821
  3.5844390392303462 17.1362495422363281 48.0448913574218821
 12.6172990798950195  8.1048498153686523 48.0448913574218821
 12.6148395538330078 17.1362495422363281 48.0448913574218821
  7.6061611175537109  5.9393639564514160 46.4558296203613281
  7.6037015914916992 14.9707632064819336 46.4558296203613281
 16.6365604400634766  5.9393639564514160 46.4558296203613281
 16.6341018676757812 14.9707632064819336 46.4558296203613281
  5.9380125999450684  1.4238001108169553 46.4545211791992188
  5.9355530738830566 10.4551992416381836 46.4545211791992188
 14.9684123992919904  1.4238001108169553 46.4545211791992188
 14.9659538269042951 10.4551992416381836 46.4545211791992188
 -0.0011664569610730  4.5157265663146973 45.3548011779785156
 -0.0036257810425013 13.5471258163452148 45.3548011779785156
  9.0292339324951172  4.5157265663146973 45.3548011779785156
  9.0267744064331037 13.5471258163452148 45.3548011779785156
  4.5152091979980469  0.0000000000000000 45.3536758422851562
  4.5127501487731934  9.0313997268676740 45.3536758422851562
 13.5456094741821289  0.0000000000000000 45.3536758422851562
 13.5431499481201172  9.0313997268676740 45.3536758422851562
 14.3082294464111328  9.1983070373535156 32.3042831420898438
 15.7602224349975586  9.1211585998535156 33.2925872802734375
 13.6341562271118164 11.3330469131469727 33.5326309204101634
 13.8562364578247070 11.2780981063842756 35.2677879333496094
 12.3338747024536133  8.1910324096679688 34.6214065551757812
 12.0857257843017578  9.8610267639160138 35.0849075317382812
 14.4211940765380859  7.7724442481994620 35.5774269104003906
 15.6291723251342773  9.0367336273193359 35.6644401550292969
 15.5466146469116211  6.8480315208435059 33.7650146484375000
 13.8347520828247053  6.7548499107360840 33.4404067993164134
 14.0536918640136719  6.8452363014221191 31.1412029266357457
 15.6908740997314453  7.5046086311340332 31.1597995758056676
 16.1832923889160156 11.0862331390380859 33.2271347045898438
 16.2898082733154297 11.0129632949829102 35.0106086730957031
 15.7051639556884748 12.4666872024536115 34.2147064208984375
 10.7416381835937500  9.4054918289184570 33.0696372985839844
 12.1768922805786133  8.7779455184936523 32.1963539123535156
 12.0173826217651367 10.4993820190429688 32.6236419677734375
 12.9265785217285156  8.8216266632080078 37.1692581176757812
 13.7701263427734375 10.4048719406127930 36.9830436706543040
 14.5686902999877930  9.0602588653564453 37.7628517150878906
 14.9982242584228516  4.7112727165222168 32.2066688537597656
 15.3109750747680664  5.0258369445800781 30.5289783477783203
 16.8583736419677734  3.0437173843383789 31.2628879547119141
 17.5724105834960938  7.1744723320007324 32.2445602416992188
  1.2398338317871076  2.5968842506408691 31.4471569061279332
  1.9495677947998047  6.7200880050659171 32.4153976440429688
  2.8178653717040998  4.4402031898498535 31.9966716766357422
 17.9912719726562500  4.0987482070922852 35.0698585510253906
  0.5895862579345732 13.9425239562988281 35.1287727355957102
  9.4194736480712891  4.8516764640808105 35.0760841369628977
  8.9592437744140625 13.8738975524902326 34.8674201965332031
  4.2322196960449219  9.2588272094726562 34.8688201904296875
  4.7603606441989541 17.9247203618288040 34.7836532592773438
 13.9552005985751748 17.7683439254760742 35.0764274597167969
  0.1593116223812103  4.3602333068847656 40.7347640991210938
  0.3175747990608215 13.7869224548339844 40.8022918701171875
  9.1442899703979492  4.6262636184692383 40.5938873291015625
  8.8397789001464844 13.6991062164306641 40.5955963134765625
  4.4703879356384277  8.9482383728027344 40.5981979370117188
  4.5328821400180459 17.9640556648373604 40.5593414306640625
 13.4408292770385742  9.2874736785888672 40.6491622924804688
 13.5218939045444113 18.0447357967495954 40.6346054077148509
  9.0289716720581055  4.5156092643737793 46.4455223083496165
  9.0265130996704102 13.5470085144042969 46.4455223083496165
 18.0593719482421875  4.5156092643737793 46.4455223083496165
 18.0569133758544922 13.5470085144042969 46.4455223083496165
  4.5152091979980469  0.0000180629995157 46.4442062377929759
  4.5127501487731934  9.0314178466796857 46.4442062377929759
 13.5456094741821289  0.0000180629995157 46.4442062377929759
 13.5431499481201172  9.0314178466796857 46.4442062377929759
 17.0374145507812500  5.1680874824523926 31.7409076690673864
 17.5566673278808594  3.8641982078552246 31.5308685302734411
 17.9308910369873047  6.1768364906311035 32.0636558532714844
  0.8573513031005853  3.6082010269165035 31.6017436981201207
  1.2437705993652346  5.9140048027038574 32.1796569824218750
  1.7490520477294929  4.6379604339599609 31.9280071258544957
 14.7412061691284162  8.7526388168334961 33.2064895629882812
 14.2602949142456055 10.9233760833740234 34.3186759948730469
 12.4956645965576172  9.2107515335082990 34.3074264526367188
 14.5452175140380859  8.8439054489135742 35.6731948852539062
 14.7564897537231428  7.2356939315795898 33.1125030517578125
 15.0214538574218750  6.7853479385375977 31.6743793487548828
 15.6984138488769531 11.3735618591308594 34.1707687377929688
 11.8364248275756836  9.4801378250122070 32.9661331176757812
 13.8921213150024414  9.3257112503051740 36.9493141174316477
 15.5523443222045881  5.3718514442443848 31.5385932922363246
  1.0482597351074194  4.3388314247131348 35.7194137573242188
  0.6590976715087904 12.7758760452270508 35.7276153564453196
 10.0193719863891602  3.7560772895812988 35.5089569091796875
  9.9294996261596680 13.1261034011840820 35.3197517395019531
  8.1880979537963867  5.2040848731994629 35.3973121643066406
  7.7117538452148438 13.7677440643310547 35.2213439941406250
 16.8033905029296875  4.5444402694702148 35.4405403137207102
 17.6888790130615234 14.8264217376708967 35.3074913024902344
  4.4880704879760742  8.1532745361328125 35.5406570434570312
  3.5118660926818848  0.1306908428668976 35.1148719787597656
 12.6650909641757607 17.7210049629211426 35.3292579650878977
  5.8092389106750488  0.5435606241226196 35.2001419067382812
  4.8395552635192871 10.4093952178955078 35.0716934204101562
 14.7673826217651367  0.6601419448852539 35.5017776489257884
  1.0536562204360962  3.4561841487884521 41.0513000488281250
  0.9538345932960509 12.7257080078125000 41.2772789001464844
  9.8246917724609375  3.5927047729492188 41.0472450256347656
  9.5474758148193359 12.9266119003295898 41.3851127624511719
  3.8521747589111328  8.0239896774291992 41.3156394958496165
  3.5615586498752236 17.2375739812850952 41.0749397277832031
 12.6961994171142578  8.3580331802368164 41.1879272460937571
 12.6534580448642373 17.2747267484664917 41.2616996765136790
  8.2534694671630859  5.3006038665771484 41.2715110778808665
  8.0045824050903320 14.6226873397827148 40.9965095520019531
 17.5077804327011108  5.0589094161987305 41.6045036315918040
 17.2599540352821386 14.2765188217163086 41.2777976989746165
  5.3683452606201172  0.6963230371475220 41.2115173339843750
  5.2595367431640616  9.8756589889526367 41.0590362548828125
 14.3112630844116193  0.8584927320480347 41.1872711181640625
 14.4161338806152344  9.9242515563964844 41.2361450195312500
  0.8273094892501831  3.6869695186614990 47.0359649658203125
  0.8248501420021057 12.7183685302734375 47.0359649658203125
  9.8577098846435547  3.6869695186614990 47.0359649658203125
  9.8552503585815412 12.7183685302734375 47.0359649658203125
  3.6843190193176270  8.2023353576660156 47.0346527099609375
  3.6818594932556152 17.2337341308593750 47.0346527099609375
 12.7147188186645508  8.2023353576660156 47.0346527099609375
 12.7122592926025391 17.2337341308593750 47.0346527099609375
  8.2006769180297852  5.3445744514465332 47.0360260009765696
  8.1982173919677734 14.3759746551513672 47.0360260009765696
 17.2310771942138672  5.3445744514465332 47.0360260009765696
 17.2286186218261719 14.3759746551513672 47.0360260009765696
  5.3436489105224600  0.8290914893150328 47.0346527099609375
  5.3411893844604483  9.8604917526245117 47.0346527099609375
 14.3740482330322266  0.8290914893150328 47.0346527099609375
 14.3715896606445312  9.8604917526245117 47.0346527099609375
 14.0092134475707990  9.4174394607543945 34.3689002990722656
  9.1093782642856240 17.6609790623188019 34.6731452941894531
  8.2185611724853516  8.7238540649414062 34.6450080871582031
  0.0440787188708782  0.2829214036464691 34.5493659973144602
  0.6751632690429688  8.9082460403442383 34.7586975097656321
  4.4846587181091309  4.4460110664367676 34.7652549743652344
  4.2127456665039062 13.8709716796875000 34.4943237304687500
 13.4352960586547852  4.0395908355712891 34.6877479553222656
 12.9198026657104492 14.3476219177246094 34.2223129272460938
 18.0465707248076797 17.9153325408697164 40.9228591918945312
  0.0793305486440659  9.0571422576904297 40.9956359863281250
  8.9943590164184570  0.1415068209171295 40.9616622924804688
  9.0123205184936523  9.0733270645141602 40.8920021057128977
  4.6614284515380859  4.3060617446899414 41.0080795288086009
  4.4579153060913086 13.5392389297485352 40.8740425109863281
 13.3780899047851545  4.5981779098510742 40.9604682922363281
 13.6063156127929688 13.5799808502197266 40.8687438964843750
  2.5856194496154785  1.9513990879058838 38.0597305297851634
  2.5948219299316406 11.0168609619140625 38.1263809204101634
 11.6595478057861328  1.9313284158706665 38.0737075805664134
 11.0343713760375977 11.5247774124145508 38.3445396423339844
  6.5673470497131348  6.9672384262084961 38.3266258239746165
  6.5512928962707520 16.0138301849365234 37.9211540222167969
 16.0828952789306641  6.5106120109558105 38.4827461242675852
 15.6314334869384766 16.0053901672363281 37.9757156372070312
  2.1455051898956299  6.5756716728210440 38.3399887084960938
  2.1394374370574951 15.8318929672241211 37.9612770080566406
 11.1140260696411133  6.6718163490295410 37.9059944152832031
 11.2026739120483398 15.6862583160400373 38.2545547485351562
  7.1587305068969727  2.5649106502532959 37.8717117309570312
  6.8238649368286124 11.4768457412719727 37.8893165588378977
 16.0173530578613281  2.4811041355133057 38.3566589355468750
 16.4850292205810547 11.9507007598876953 38.3422241210937500
  0.0000000000000000  0.0000000000000000 47.1735610961914062
 -0.0024593239650130  9.0313997268676740 47.1735610961914062
  9.0304002761840803  0.0000000000000000 47.1735610961914062
  9.0279407501220685  9.0313997268676740 47.1735610961914062
  4.5139794349670410  4.5156998634338379 47.1742515563964844
  4.5115203857421875 13.5470991134643537 47.1742515563964844
 13.5443792343139648  4.5156998634338379 47.1742515563964844
 13.5419197082519531 13.5470991134643537 47.1742515563964844
  2.4519233703613277  2.0629522800445557 44.0401268005371165
  2.4494640827178955 11.0943517684936523 44.0401268005371165
 11.4823226928710920  2.0629522800445557 44.0401268005371165
 11.4798641204833984 11.0943517684936523 44.0401268005371165
  6.5760178565979004  6.9684472084045410 44.0401268005371165
  6.5735583305358887 15.9998464584350586 44.0401268005371165
 15.6064186096191406  6.9684472084045410 44.0401268005371165
 15.6039590835571289 15.9998464584350586 44.0401268005371165
  2.0610768795013428  6.5788145065307617 44.0400009155273509
  2.0586175918579102 15.6102142333984375 44.0400009155273509
 11.0914773941040039  6.5788145065307617 44.0400009155273509
 11.0890178680419922 15.6102142333984375 44.0400009155273509
  6.9668641090393066  2.4525938034057613 44.0400657653808665
  6.9644045829772949 11.4839935302734375 44.0400657653808665
 15.9972639083862305  2.4525938034057613 44.0400657653808665
 15.9948053359985352 11.4839935302734375 44.0400657653808665
  2.4316265583038330  2.0832188129425049 50.0684852600097656
  2.4291670322418213 11.1146183013915998 50.0684852600097656
 11.4620265960693359  2.0832188129425049 50.0684852600097656
 11.4595670700073224 11.1146183013915998 50.0684852600097656
  6.5963144302368164  6.9481806755065918 50.0684852600097656
  6.5938549041748047 15.9795799255371076 50.0684852600097656
 15.6267137527465803  6.9481806755065918 50.0684852600097656
 15.6242542266845703 15.9795799255371076 50.0684852600097656
  2.0811281204223633  6.5990090370178223 50.0690460205078125
  2.0786688327789307 15.6304082870483398 50.0690460205078125
 11.1115283966064453  6.5990090370178223 50.0690460205078125
 11.1090688705444336 15.6304082870483398 50.0690460205078125
  6.9468131065368652  2.4323906898498531 50.0690460205078125
  6.9443535804748535 11.4637899398803711 50.0690460205078125
 15.9772129058837891  2.4323906898498531 50.0690460205078125
 15.9747543334960938 11.4637899398803711 50.0690460205078125
 18.0327903646975791  0.1412077844142914 37.8023071289062500
  0.1440831124782562  9.1005353927612305 37.8296165466308665
  9.1184810856357217 17.9583902582526207 37.7924804687500000
  8.9170961380004883  9.0184621810913086 37.6826667785644531
  4.5642480850219727  4.5174756050109854 37.8854751586914062
  4.3647427558898926 13.6778392791748047 37.7118377685546875
 13.5578575134277326  4.6017518043518058 37.8775520324707031
 13.5333404541015625 13.6444873809814453 37.7626991271972727
  0.0000090280000222  0.0000090310004452 44.0429992675781250
 -0.0024502959568053  9.0314083099365234 44.0429992675781250
  9.0304088592529297  0.0000090310004452 44.0429992675781250
  9.0279493331909180  9.0314083099365234 44.0429992675781250
  4.5139703750610352  4.5156903266906738 44.0427513122558594
  4.5115113258361816 13.5470905303955078 44.0427513122558594
 13.5443706512451172  4.5156903266906738 44.0427513122558594
 13.5419111251831037 13.5470905303955078 44.0427513122558594
  0.0000000000000000  0.0000000000000000 50.4472808837890696
 -0.0024593239650130  9.0313997268676740 50.4472808837890696
  9.0304002761840803  0.0000000000000000 50.4472808837890696
  9.0279407501220685  9.0313997268676740 50.4472808837890696
  4.5139703750610352  4.5156998634338379 50.4472808837890696
  4.5115113258361816 13.5470991134643537 50.4472808837890696
 13.5443706512451172  4.5156998634338379 50.4472808837890696
 13.5419111251831055 13.5470991134643537 50.4472808837890696
