 H  C  N  I Pb 
 1.0000000000000000
    18.0608005523681641    0.0000000000000000    0.0000000000000000
    -0.0049186488613486   18.0627994537353516    0.0000000000000000
     0.0000000000000000    0.0000000000000000   62.4874992370605469
 H   C   N   I   Pb 
 143  39  47  72  24
Cartesian
  8.0565958023071289  5.4275722503662109 36.4130058288574290
  8.0058889389038086 15.0387392044067383 36.1844177246093750
 17.2558059692382812  4.8395366668701172 36.6270217895507884
 17.5028266906738281 14.5685148239135742 36.6344451904296946
  5.4138002395629883  0.7978778481483459 36.4595413208007812
  5.4650006294250488  9.9369659423828125 36.4156417846679688
 14.0161008834838867  1.1987217664718628 36.3422126770019531
  1.8501510620117190  3.4567258358001705 34.6085128784179759
  1.4603672027587877 12.2441816329956055 34.7815208435058665
 10.5186929702758789  3.2066645622253418 34.8305358886718750
  9.7391452789306641 11.8830652236938477 35.3889160156250000
  6.3794970512390137  0.9106385111808777 34.9773330688476562
  5.6614165306091309 10.7826128005981445 34.8892173767089844
 15.0455694198608398  1.4113318920135498 34.9274864196777344
  1.3475894927978525  3.6393597126007080 36.2850379943847656
  0.8417282104492222 12.4992847442626953 36.3746871948242259
 10.1642990112304688  4.0148277282714844 36.3249931335449219
  9.1889038085937500 12.8411502838134766 36.7004661560058594
  3.9824149608612061  7.8910841941833496 36.3931770324707031
  3.2690972546115513 17.5401531457901001 36.3118171691894531
 12.4459852436557412 17.3268662691116333 36.3195266723632884
  7.0561738014221191  5.3611354827880850 34.9704322814941406
  7.9197578430175781 15.4246625900268555 34.4847564697265625
 16.3848323822021484  5.3023281097412109 35.2228279113769531
 17.2398395538330078 15.5491056442260742 35.2571678161621094
  3.2869188785552979  7.4547390937805176 34.8339004516601562
  2.8573691109195347 16.8860085010528564 34.7270812988281250
 12.4975694874301553 16.2563459873199498 34.8768310546875000
  8.5538139343261719  3.9464414119720459 33.8129196166992259
  9.0367221832275373 13.4728078842163086 33.7581634521484375
 17.9809436798095703  4.5213832855224609 33.7570877075195312
  0.4664115905761729 14.1648006439208984 33.8625526428222727
  4.3124289512634277  9.2710361480712891 33.7417488098144531
  4.8385833958163857 17.7399026155471802 33.7528228759765696
 14.1058296421542764 17.5440413951873779 33.8665390014648438
  8.1705398559570312  5.5395298004150391 42.2288284301757884
  7.9326200485229492 14.6514301300048828 42.1821975708007812
 17.1711156368255615  5.2440752983093262 42.3400268554687500
 17.0600136518478394 14.5610933303832990 42.1991462707519531
  5.4401035308837891  0.8661013841629028 42.1864776611328196
  5.3209910392761230  9.9913473129272461 42.2803993225097656
 14.6406383514404297  0.8981620073318481 42.1791801452636790
 15.0233097076416016  9.7271661758422852 42.1295814514160156
  1.5400457382202146  3.1030130386352539 40.5239257812500000
  1.5700088739395139 12.3454618453979492 40.8415336608886719
 10.3212423324584961  2.9811089038848877 40.6622810363769531
 10.2922391891479492 12.0540390014648438 40.9509544372558594
  3.3659491539001465  7.4278612136840811 40.4591636657714844
  3.0556351402774453 16.6069130897521973 40.5663032531738281
 11.9076452255249006  7.9974703788757324 40.8325462341308594
 12.0000604847446084 16.8468172550201416 40.6781616210937571
  1.1138538122177124  3.4721655845642090 42.1472816467285156
  0.7966430187225342 12.7091741561889648 42.3430480957031250
 10.0090427398681641  3.6287496089935303 42.2094421386718821
  9.7321634292602539 12.7044286727905273 42.4703102111816406
  3.6949853897094727  7.9175291061401358 42.0990791320800852
  3.5670241573825479 17.0769420862197876 42.1789207458496094
 12.9224739074707031  8.0371017456054688 42.2874679565429759
 12.5930332401767373 17.2874989509582520 42.2570457458496094
  7.5208873748779297  5.8516430854797363 40.6589050292968750
  7.6146569252014151 15.0534992218017578 40.5290946960449219
 16.5930223464965856  5.7658324241638184 40.7898216247558665
 16.7612754106521606 15.1720237731933576 40.6082878112792969
  5.9334931373596191  1.3636302947998047 40.6043548583984375
  5.8804788589477539 10.5904340744018555 40.7266960144042969
 15.1202793121337891  1.3449287414550781 40.5613555908203196
 15.1676807403564453 10.4440736770629883 40.5260238647460938
 17.9945912659168243  4.5367794036865234 39.5622329711914062
  0.3623582124710083 13.8578138351440430 39.6515388488769531
  8.7775897979736328  4.2768669128417969 39.5609588623046875
  9.0817956924438477 13.4432191848754883 39.6450004577636719
  4.4843167522922158 17.9925907254219055 39.4626960754394531
  4.6849627494812012  9.0561733245849609 39.4752693176269531
 13.5154256820678711  0.0228529423475266 39.5004692077636719
 13.2522068023681641  9.4422292709350586 39.6458892822265625
  8.1032123565673828  5.4420318603515616 48.0459518432617259
  8.1007528305053711 14.4734306335449219 48.0459518432617259
 17.1336116790771484  5.4420318603515616 48.0459518432617259
 17.1311531066894531 14.4734306335449219 48.0459518432617259
  5.4410333633422852  0.9265221953392029 48.0449485778808594
  5.4385743141174316  9.9579219818115234 48.0449485778808594
 14.4714326858520490  0.9265221953392029 48.0449485778808594
 14.4689741134643555  9.9579219818115234 48.0449485778808594
  1.4218254089355467  3.0919990539550781 46.4558296203613281
  1.4193661212921143 12.1233978271484375 46.4558296203613281
 10.4522256851196289  3.0919990539550781 46.4558296203613281
 10.4497661590576172 12.1233978271484375 46.4558296203613281
  3.0899283885955806  7.6075901985168457 46.4545211791992188
  3.0874691009521484 16.6389904022216797 46.4545211791992188
 12.1203289031982422  7.6075901985168457 46.4545211791992188
 12.1178693771362305 16.6389904022216797 46.4545211791992188
  0.9247469902038573  3.5893490314483643 48.0459518432617259
  0.9222877025604248 12.6207475662231445 48.0459518432617259
  9.9551477432250977  3.5893490314483643 48.0459518432617259
  9.9526882171630859 12.6207475662231445 48.0459518432617259
  3.5868983268737793  8.1048498153686523 48.0448913574218821
  3.5844390392303462 17.1362495422363281 48.0448913574218821
 12.6172990798950195  8.1048498153686523 48.0448913574218821
 12.6148395538330078 17.1362495422363281 48.0448913574218821
  7.6061611175537109  5.9393639564514160 46.4558296203613281
  7.6037015914916992 14.9707632064819336 46.4558296203613281
 16.6365604400634766  5.9393639564514160 46.4558296203613281
 16.6341018676757812 14.9707632064819336 46.4558296203613281
  5.9380125999450684  1.4238001108169553 46.4545211791992188
  5.9355530738830566 10.4551992416381836 46.4545211791992188
 14.9684123992919904  1.4238001108169553 46.4545211791992188
 14.9659538269042951 10.4551992416381836 46.4545211791992188
 -0.0011664569610730  4.5157265663146973 45.3548011779785156
 -0.0036257810425013 13.5471258163452148 45.3548011779785156
  9.0292339324951172  4.5157265663146973 45.3548011779785156
  9.0267744064331037 13.5471258163452148 45.3548011779785156
  4.5152091979980469  0.0000000000000000 45.3536758422851562
  4.5127501487731934  9.0313997268676740 45.3536758422851562
 13.5456094741821289  0.0000000000000000 45.3536758422851562
 13.5431499481201172  9.0313997268676740 45.3536758422851562
 12.9748849868774414  8.1206903457641602 34.1153106689453125
 13.3696174621582031  9.2135715484619141 32.7785758972167969
 11.7399778366088849  9.8035249710083008 35.0454826354980469
 12.3608903884887695 11.4912090301513672 35.2039146423339844
 15.1022748947143555  9.2384347915649414 36.1721000671386719
 13.9641056060791016 10.4191417694091797 36.7142562866210938
 15.7249326705932617 10.1078081130981445 33.8749122619628906
 14.5994377136230469 11.1991710662841797 33.0246810913085938
 15.6902608871459961  8.6770830154418945 32.8510246276855469
 15.6036844253540039  8.0952119827270508 34.4804649353027344
 16.0348587036132812  6.3607463836669922 32.9547843933105469
 14.3965826034545898  6.0972065925598145 33.6001777648925781
 11.1608028411865217  9.9740476608276367 32.9250450134277344
 12.4719114303588867 11.0510005950927734 32.4284934997558594
 11.0929393768310547 11.7087802886962891 33.2676239013671875
 13.1706132888793928  8.2158861160278320 37.6167259216308594
 13.3990087509155273  7.4615912437438965 36.0919227600097656
 12.0784463882446271  8.5583829879760742 36.3490905761718750
 15.1178131103515625 12.2190341949462891 35.7611351013183594
 15.8057107925415021 12.7954502105712891 34.2516975402832031
 16.6088600158691406 11.4885473251342773 35.1849403381347656
 15.1617021560668945  7.2182364463806152 30.8459091186523438
 14.5164880752563477  5.5807471275329590 31.2450180053710938
 12.1112718582153320  5.7354826927185059 32.6837387084960938
 13.5950851440429688  8.8100996017456055 30.0330581665039098
  9.7805280685424805  6.6129288673400879 32.4428253173828196
 11.2589941024780273  9.7184734344482422 29.7827434539794922
  9.3475446701049787  8.6891927719116211 31.0412979125976562
  0.0581779479980458  4.4088697433471680 34.8541564941406250
  0.3261146545410172 13.9128332138061506 34.9373054504394531
  8.7636432647705078  4.2852215766906738 34.8300819396972656
  8.8632326126098633 13.6754446029663086 34.8570976257324290
  4.4511399269104004  9.1083412170410156 34.8177032470703196
  4.6403927067294717 17.9373393654823303 34.8134384155273438
 13.7537569263949990 17.8526617884635925 34.8604087829589844
  0.0239677801728249  4.4467368125915527 40.6216926574707031
  0.1483779549598694 13.7664318084716797 40.6827239990234375
  8.9023685455322266  4.4215149879455566 40.6104812622070384
  8.9468946456909180 13.5798768997192383 40.6983108520507812
  4.6238856315612793  8.9991464614868164 40.5499572753906321
  4.5063814381137490 18.0351452175527811 40.5395736694335938
 13.5605840682983398  9.2307586669921875 40.6863899230957102
 13.5774126052856445  0.0694771483540535 40.5753860473632812
  9.0289716720581055  4.5156092643737793 46.4455223083496165
  9.0265130996704102 13.5470085144042969 46.4455223083496165
 18.0593719482421875  4.5156092643737793 46.4455223083496165
 18.0569133758544922 13.5470085144042969 46.4455223083496165
  4.5152091979980469  0.0000180629995157 46.4442062377929759
  4.5127501487731934  9.0314178466796857 46.4442062377929759
 13.5456094741821289  0.0000180629995157 46.4442062377929759
 13.5431499481201172  9.0314178466796857 46.4442062377929759
 13.0024595260620117  7.1773977279663077 31.3807792663574219
 11.8864402770996094  6.5794444084167480 32.0433158874511719
 12.7408752441406250  8.3126983642578125 30.5318984985351562
 10.6064863204956055  7.0928869247436523 31.9196987152099645
 11.4198389053344727  8.8069906234741211 30.4321346282958984
 10.3858442306518555  8.2249097824096680 31.0979900360107422
 13.7365140914916992  8.7606363296508789 33.6743316650390625
 12.3674392700195312 10.5960931777954102 34.5900077819824219
 14.0386304855346680  9.5269432067871076 36.0925483703613352
 14.9361972808837891 10.8489265441894531 34.0494613647460938
 15.0411262512207031  8.1289539337158203 33.5314331054687500
 14.9966325759887695  6.7653689384460449 32.9792938232421946
 11.7644338607788068 10.8330259323120099 33.2103767395019531
 13.1325292587280273  8.4052124023437500 36.5427703857421875
 15.6580400466918945 11.9138126373291016 34.8722763061523509
 14.4591531753540039  6.6622128486633301 31.5408229827880895
  1.1390857696533183  3.8041753768920898 35.2832908630371094
  0.9011363983154276 12.8258876800537092 35.3701438903808594
  9.8524084091186523  3.7733206748962402 35.3776321411132812
  9.3379812240600586 12.7767505645751953 35.6909370422363281
  7.9282546043395996  5.0817575454711914 35.4222602844238352
  8.2432527542114258 14.7515468597412109 35.1695747375488352
 17.2114620208740234  4.8826065063476554 35.6142654418945312
 17.6814594268798828 14.7311468124389648 35.6544837951660156
  3.8932137489318848  8.0960197448730469 35.4085502624511719
  3.5164977768436074 17.4275078177452087 35.3466072082519602
 12.8327116230502725 17.1386022567749023 35.4088363647460938
  5.5044293403625488  0.5693724751472473 35.4824028015136790
  5.2337365150451660  9.9924869537353516 35.4446067810058665
 14.3108549118041974  0.8641287088394165 35.4473381042480469
  0.9643875360488890  3.6126503944396973 41.1493568420410227
  0.9038400650024413 12.8580217361450195 41.3615913391113281
  9.8225135803222638  3.6208665370941162 41.2163238525390696
  9.6774682998657227 12.7520170211791974 41.4330329895019531
  3.8753149509429932  8.0623092651367188 41.0569953918457031
  3.6359485844150186 17.1764674186706543 41.1248664855957031
 12.7473793029785138  8.3740396499633789 41.3232612609863281
 12.6488498905673623 17.3592258691787720 41.2014732360839844
  8.1752452850341797  5.2972097396850586 41.1927947998046875
  8.1373414993286133 14.4527835845947248 41.1521949768066406
 17.2610129117965698  5.1720805168151855 41.3080596923828125
 17.2723970413208043 14.5356779098510742 41.2256011962890625
  5.3227138519287109  0.7574848532676696 41.1324424743652344
  5.2939200401306152  9.9211359024047852 41.2208061218261719
 14.4776782989501935  0.7875484228134155 41.1275711059570312
 14.6138744354248047  9.8013381958007795 41.1482086181640625
  0.8273094892501831  3.6869695186614990 47.0359649658203125
  0.8248501420021057 12.7183685302734375 47.0359649658203125
  9.8577098846435547  3.6869695186614990 47.0359649658203125
  9.8552503585815412 12.7183685302734375 47.0359649658203125
  3.6843190193176270  8.2023353576660156 47.0346527099609375
  3.6818594932556152 17.2337341308593750 47.0346527099609375
 12.7147188186645508  8.2023353576660156 47.0346527099609375
 12.7122592926025391 17.2337341308593750 47.0346527099609375
  8.2006769180297852  5.3445744514465332 47.0360260009765696
  8.1982173919677734 14.3759746551513672 47.0360260009765696
 17.2310771942138672  5.3445744514465332 47.0360260009765696
 17.2286186218261719 14.3759746551513672 47.0360260009765696
  5.3436489105224600  0.8290914893150328 47.0346527099609375
  5.3411893844604483  9.8604917526245117 47.0346527099609375
 14.3740482330322266  0.8290914893150328 47.0346527099609375
 14.3715896606445312  9.8604917526245117 47.0346527099609375
 13.7664680480957031 10.0084514617919922 34.6484909057617259
  8.8777971267700195  0.2662576138973236 34.4683532714843750
  8.7276611328125000  9.3535051345825195 34.7450942993164062
 17.8859815150499379  0.0554427094757557 34.5515823364257884
  0.4698389172554016  9.2143878936767578 34.7560005187988281
  4.5236206054687491  4.4539656639099121 34.4564666748046875
  4.4835948944091797 13.6088247299194336 34.4919700622558594
 13.2313661575317383  4.0185418128967285 34.9207458496093750
 13.0705232620239258 14.0400228500366211 34.1248397827148438
  0.0931053310632706  0.0300704427063465 40.9400939941406250
  0.3335457444190978  9.0663633346557617 40.9996948242187571
  9.0561413029208779 18.0550047056749463 40.8979072570800852
  9.0684986114501953  8.9274711608886719 40.9596366882324219
  4.5133442878723145  4.4330787658691406 40.8522872924804688
  4.5625443458557129 13.6491823196411115 40.9295654296875000
 13.3580989837646484  4.6398868560791016 41.0182762145996165
 13.5965633392333984 13.6502780914306623 40.8525505065917969
  2.5687048435211182  1.9147328138351440 37.9337844848632812
  2.6384267807006831 10.9865655899047852 38.0621337890625000
 11.6121120452880842  1.8625419139862061 38.0758361816406250
 11.2080135345458984 11.4067945480346662 38.3998413085937500
  6.4346036911010742  7.1227831840515137 37.9579811096191406
  6.5282993316650391 16.1086559295654297 38.0049209594726634
 15.8496923446655273  6.7576928138732910 38.3107566833496094
 15.4683752059936506 16.1969394683837891 38.0653800964355540
  2.0815069675445557  6.3961439132690430 37.9871749877929688
  2.0716495513916016 15.6220378875732422 38.1300277709960938
 10.6399116516113281  6.1954369544982910 38.0158882141113352
 10.9573650360107422 15.5516538619995117 38.1506500244140625
  7.0848746299743652  2.5488586425781250 38.0444564819336009
  6.9695134162902832 11.5651245117187500 38.2284088134765625
 16.0485935211181641  2.4684977531433105 38.1468772888183665
 16.5042247772216797 11.7238759994506836 38.4326210021972727
  0.0000000000000000  0.0000000000000000 47.1735610961914062
 -0.0024593239650130  9.0313997268676740 47.1735610961914062
  9.0304002761840803  0.0000000000000000 47.1735610961914062
  9.0279407501220685  9.0313997268676740 47.1735610961914062
  4.5139794349670410  4.5156998634338379 47.1742515563964844
  4.5115203857421875 13.5470991134643537 47.1742515563964844
 13.5443792343139648  4.5156998634338379 47.1742515563964844
 13.5419197082519531 13.5470991134643537 47.1742515563964844
  2.4519233703613277  2.0629522800445557 44.0401268005371165
  2.4494640827178955 11.0943517684936523 44.0401268005371165
 11.4823226928710920  2.0629522800445557 44.0401268005371165
 11.4798641204833984 11.0943517684936523 44.0401268005371165
  6.5760178565979004  6.9684472084045410 44.0401268005371165
  6.5735583305358887 15.9998464584350586 44.0401268005371165
 15.6064186096191406  6.9684472084045410 44.0401268005371165
 15.6039590835571289 15.9998464584350586 44.0401268005371165
  2.0610768795013428  6.5788145065307617 44.0400009155273509
  2.0586175918579102 15.6102142333984375 44.0400009155273509
 11.0914773941040039  6.5788145065307617 44.0400009155273509
 11.0890178680419922 15.6102142333984375 44.0400009155273509
  6.9668641090393066  2.4525938034057613 44.0400657653808665
  6.9644045829772949 11.4839935302734375 44.0400657653808665
 15.9972639083862305  2.4525938034057613 44.0400657653808665
 15.9948053359985352 11.4839935302734375 44.0400657653808665
  2.4316265583038330  2.0832188129425049 50.0684852600097656
  2.4291670322418213 11.1146183013915998 50.0684852600097656
 11.4620265960693359  2.0832188129425049 50.0684852600097656
 11.4595670700073224 11.1146183013915998 50.0684852600097656
  6.5963144302368164  6.9481806755065918 50.0684852600097656
  6.5938549041748047 15.9795799255371076 50.0684852600097656
 15.6267137527465803  6.9481806755065918 50.0684852600097656
 15.6242542266845703 15.9795799255371076 50.0684852600097656
  2.0811281204223633  6.5990090370178223 50.0690460205078125
  2.0786688327789307 15.6304082870483398 50.0690460205078125
 11.1115283966064453  6.5990090370178223 50.0690460205078125
 11.1090688705444336 15.6304082870483398 50.0690460205078125
  6.9468131065368652  2.4323906898498531 50.0690460205078125
  6.9443535804748535 11.4637899398803711 50.0690460205078125
 15.9772129058837891  2.4323906898498531 50.0690460205078125
 15.9747543334960938 11.4637899398803711 50.0690460205078125
 18.0278982669115067  0.0868232697248459 37.7237930297851634
  0.1255041658878326  9.0666685104370117 37.9076156616211009
  8.9710130691528320  0.1269438862800598 37.6719131469726634
  8.9673891067504883  8.9909849166870117 37.7994499206543040
  4.4830904006958008  4.5051527023315430 37.6584548950195312
  4.5568599700927734 13.5641994476318359 37.7114105224609375
 13.4175662994384766  4.5562715530395508 37.9811630249023509
 13.4239578247070312 13.7691173553466797 37.7933425903320312
  0.0000090280000222  0.0000090310004452 44.0429992675781250
 -0.0024502959568053  9.0314083099365234 44.0429992675781250
  9.0304088592529297  0.0000090310004452 44.0429992675781250
  9.0279493331909180  9.0314083099365234 44.0429992675781250
  4.5139703750610352  4.5156903266906738 44.0427513122558594
  4.5115113258361816 13.5470905303955078 44.0427513122558594
 13.5443706512451172  4.5156903266906738 44.0427513122558594
 13.5419111251831037 13.5470905303955078 44.0427513122558594
  0.0000000000000000  0.0000000000000000 50.4472808837890696
 -0.0024593239650130  9.0313997268676740 50.4472808837890696
  9.0304002761840803  0.0000000000000000 50.4472808837890696
  9.0279407501220685  9.0313997268676740 50.4472808837890696
  4.5139703750610352  4.5156998634338379 50.4472808837890696
  4.5115113258361816 13.5470991134643537 50.4472808837890696
 13.5443706512451172  4.5156998634338379 50.4472808837890696
 13.5419111251831055 13.5470991134643537 50.4472808837890696
