 H  C  N  I Pb 
 1.0000000000000000
    18.0608005523681641    0.0000000000000000    0.0000000000000000
    -0.0049186488613486   18.0627994537353516    0.0000000000000000
     0.0000000000000000    0.0000000000000000   62.4874992370605469
 H   C   N   I   Pb 
 143  39  47  72  24
Cartesian
  8.0371818542480469  5.3981847763061523 36.4203414916992188
  7.9967312812805176 14.9530916213989258 36.2020072937011719
 17.3201503753662109  4.8742675781250000 36.6467933654785156
 17.5121307373046875 14.5730495452880842 36.6220245361328125
  5.4027748107910156  0.8160349726676940 36.4718742370605469
  5.4284162521362296  9.9057073593139648 36.4192733764648509
 14.0894145965576172  1.1892358064651489 36.3303260803222656
  1.7696285247802750  3.3585693836212158 34.6276473999023509
  1.4220218658447275 12.1990947723388672 34.7217712402343821
 10.5967683792114240  3.2339315414428711 34.7701454162597656
  9.8762941360473633 11.9174194335937500 35.3635787963867188
  6.2579255104064941  1.0704553127288818 34.9480781555175781
  5.7561721801757812 10.7042551040649414 34.8836517333984375
 14.9878854751586914  1.4806796312332153 34.8456916809082031
  1.3246250152587924  3.5838966369628906 36.2627410888671946
  0.8901252746582036 12.5221462249755859 36.3483543395996094
 10.1869268417358398  3.9442706108093262 36.3416519165039062
  9.2952766418457013 12.8429975509643555 36.6955718994140696
  3.8179101943969727  7.8985080718994141 36.3381652832031250
  3.2845491627231240 17.4101465940475464 36.3332366943359446
 12.5189155796542764 17.2364568114280701 36.3139839172363281
  7.1325397491455069  5.4293398857116699 34.8978500366210938
  7.8321871757507324 15.3445310592651367 34.4922447204589915
 16.4282436370849609  5.4327054023742676 35.3026618957519531
 17.1489200592041016 15.4925088882446289 35.2151718139648438
  3.2028715610504150  7.4999928474426270 34.7401351928710938
  2.8649481991305943 16.8267443180084229 34.7257652282714844
 12.4913429478183389 16.2786980867385864 34.8113861083984446
  8.6932325363159180  4.0654788017272949 33.7189140319824219
  9.0760107040405273 13.4015340805053711 33.7659721374511719
 17.9453277587890625  4.5487723350524902 33.7747154235839844
  0.2960567474365234 14.0933532714843750 33.7956733703613281
  4.4068956375122070  9.2643442153930646 33.6795654296875000
  4.7300023296847939 17.8693727552890778 33.7126922607421875
 14.0227016666904092 17.6749552786350250 33.7494392395019531
  8.1562261581420898  5.5260295867919922 42.1909980773925781
  7.9534010887145996 14.5128040313720703 42.2410049438476562
 17.0681214928627014  5.3395037651062012 42.2062377929687500
 17.1036190986633301 14.5526208877563477 42.2041549682617259
  5.3842258453369141  0.8193762898445128 42.2182159423828125
  5.3185358047485352 10.0067348480224609 42.2195281982421875
 14.6307353973388672  0.9614140987396240 42.0987014770507812
 14.9681501388549805  9.7232484817504865 42.1974487304687500
  1.5354931354522705  3.1011600494384766 40.5912933349609375
  1.5272374153137207 12.2737312316894531 40.7682876586914062
 10.3456296920776367  2.9976515769958496 40.6222076416015625
 10.3314962387084961 12.0808582305908203 40.7677192687988281
  3.3389847278594971  7.4352612495422363 40.4939651489257812
  3.0537122944369912 16.6103131771087646 40.4135627746582031
 11.9088230133056641  8.0247888565063477 40.7527542114257884
 12.0301460484042764 16.7528918981552124 40.7140922546386719
  1.0335791110992432  3.5471091270446777 42.1902961730957031
  0.8084814548492432 12.7148075103759766 42.3099517822265625
  9.9669256210327148  3.6460347175598145 42.2091751098632812
  9.8140316009521484 12.6366147994995117 42.3213310241699219
  3.7093343734741211  7.9781494140625000 42.1213645935058594
  3.5054408768191934 17.0267443656921387 42.0664482116699219
 12.7900629043579084  8.0631284713745117 42.2525291442871094
 12.6521677235141397 17.2662053108215332 42.2715606689453125
  7.5462741851806641  5.8902788162231436 40.6015968322753906
  7.5247445106506348 14.9980497360229492 40.6219978332519531
 16.5770103931427037  5.7845807075500488 40.6218948364257884
 16.7149568796157872 15.1146717071533185 40.5923652648925781
  5.9449324607849121  1.3775093555450439 40.6659622192382812
  5.8560581207275391 10.5813722610473633 40.6568145751953125
 15.0380487442016602  1.3861171007156372 40.4518432617187571
 15.1966609954833984 10.4090442657470703 40.5992012023925781
 18.0528619196265936  4.4860072135925293 39.4938125610351562
  0.2513077855110168 13.7279090881347656 39.5853271484375071
  8.8397541046142578  4.3063015937805176 39.5080223083496094
  9.0010175704956055 13.4801788330078125 39.5811462402343750
  4.5117172459140420 18.0319407507777250 39.4222602844238352
  4.6738100051879883  9.0573196411132812 39.4462776184082031
 13.4406255939975381 18.0208262056112289 39.4730796813964915
 13.2886676788330078  9.4206008911132812 39.6087417602539062
  8.1032123565673828  5.4420318603515616 48.0459518432617259
  8.1007528305053711 14.4734306335449219 48.0459518432617259
 17.1336116790771484  5.4420318603515616 48.0459518432617259
 17.1311531066894531 14.4734306335449219 48.0459518432617259
  5.4410333633422852  0.9265221953392029 48.0449485778808594
  5.4385743141174316  9.9579219818115234 48.0449485778808594
 14.4714326858520490  0.9265221953392029 48.0449485778808594
 14.4689741134643555  9.9579219818115234 48.0449485778808594
  1.4218254089355467  3.0919990539550781 46.4558296203613281
  1.4193661212921143 12.1233978271484375 46.4558296203613281
 10.4522256851196289  3.0919990539550781 46.4558296203613281
 10.4497661590576172 12.1233978271484375 46.4558296203613281
  3.0899283885955806  7.6075901985168457 46.4545211791992188
  3.0874691009521484 16.6389904022216797 46.4545211791992188
 12.1203289031982422  7.6075901985168457 46.4545211791992188
 12.1178693771362305 16.6389904022216797 46.4545211791992188
  0.9247469902038573  3.5893490314483643 48.0459518432617259
  0.9222877025604248 12.6207475662231445 48.0459518432617259
  9.9551477432250977  3.5893490314483643 48.0459518432617259
  9.9526882171630859 12.6207475662231445 48.0459518432617259
  3.5868983268737793  8.1048498153686523 48.0448913574218821
  3.5844390392303462 17.1362495422363281 48.0448913574218821
 12.6172990798950195  8.1048498153686523 48.0448913574218821
 12.6148395538330078 17.1362495422363281 48.0448913574218821
  7.6061611175537109  5.9393639564514160 46.4558296203613281
  7.6037015914916992 14.9707632064819336 46.4558296203613281
 16.6365604400634766  5.9393639564514160 46.4558296203613281
 16.6341018676757812 14.9707632064819336 46.4558296203613281
  5.9380125999450684  1.4238001108169553 46.4545211791992188
  5.9355530738830566 10.4551992416381836 46.4545211791992188
 14.9684123992919904  1.4238001108169553 46.4545211791992188
 14.9659538269042951 10.4551992416381836 46.4545211791992188
 -0.0011664569610730  4.5157265663146973 45.3548011779785156
 -0.0036257810425013 13.5471258163452148 45.3548011779785156
  9.0292339324951172  4.5157265663146973 45.3548011779785156
  9.0267744064331037 13.5471258163452148 45.3548011779785156
  4.5152091979980469  0.0000000000000000 45.3536758422851562
  4.5127501487731934  9.0313997268676740 45.3536758422851562
 13.5456094741821289  0.0000000000000000 45.3536758422851562
 13.5431499481201172  9.0313997268676740 45.3536758422851562
 12.9811487197875977  8.1683511734008789 34.1845397949218750
 13.3711566925048828  9.2938451766967773 32.8507080078125000
 11.8132886886596662  9.8906192779541016 35.1018257141113281
 12.4009561538696289 11.5560932159423828 35.2054748535156250
 15.1486263275146484  9.2957382202148438 36.2758636474609375
 13.9953536987304688 10.5088624954223633 36.7422332763671875
 15.8064718246459961 10.1022996902465820 33.9819335937500000
 14.6941413879394531 11.2034482955932617 33.0799865722656321
 15.7253456115722656  8.6870737075805664 32.9572944641113281
 15.6084375381469727  8.1628417968750000 34.6229820251464844
 16.0272998809814453  6.3772201538085929 33.0935859680175781
 14.3545761108398420  6.1362304687500000 33.7363204956054688
 11.1883735656738281 10.0707368850708008 32.9486961364746165
 12.5655937194824201 11.0592336654663086 32.4539070129394531
 11.2493019104003906 11.8131713867187500 33.2733612060546875
 13.0810384750366211  8.3539419174194336 37.6701354980468750
 13.4177551269531232  7.5262727737426749 36.1546897888183594
 12.0722360610961914  8.6600027084350586 36.3083724975585938
 15.1688919067382812 12.2316341400146484 35.8345870971679688
 15.8155326843261719 12.8550720214843732 34.3449630737304688
 16.6685333251953125 11.5012264251708984 35.2385940551757812
 15.1998872756958008  7.2076830863952628 30.9616947174072301
 14.5164508819580078  5.5905203819274902 31.3806304931640661
 12.1614189147949219  5.7654705047607422 32.7287673950195312
 13.6138772964477539  8.8444862365722656 30.0655975341796911
  9.8254289627075195  6.6267232894897461 32.5304985046386719
 11.2691822052001953  9.7461423873901367 29.8447761535644567
  9.3987531661987305  8.7284145355224609 31.1085777282714844
  0.0628738403320312  4.4124293327331543 34.8662071228027344
  0.2667579650878893 13.8556251525878906 34.8866958618164134
  8.8501424789428711  4.3295359611511230 34.7663688659667969
  8.8963203430175781 13.6279010772705078 34.8476638793945384
  4.4630880355834961  9.0993318557739258 34.7704238891601562
  4.5721401432529092 17.9841128140687943 34.7994766235351562
 13.7302107075229269 17.9035293459892273 34.7892799377441406
  0.0108812358230352  4.4573421478271484 40.5781440734863281
  0.0863438099622726 13.7108201980590803 40.6542015075683594
  8.9354295730590820  4.4459776878356934 40.5737648010253977
  8.9285545349121094 13.5532817840576154 40.6638565063476562
  4.5962347984313965  8.9959640502929688 40.5355339050292969
  4.5126089313998818 18.0441537648439407 40.5026359558105540
 13.5476493835449219  9.2071390151977539 40.6892242431640696
 13.5574569702148420  0.0436634346842766 40.5436630249023438
  9.0289716720581055  4.5156092643737793 46.4455223083496165
  9.0265130996704102 13.5470085144042969 46.4455223083496165
 18.0593719482421875  4.5156092643737793 46.4455223083496165
 18.0569133758544922 13.5470085144042969 46.4455223083496165
  4.5152091979980469  0.0000180629995157 46.4442062377929759
  4.5127501487731934  9.0314178466796857 46.4442062377929759
 13.5456094741821289  0.0000180629995157 46.4442062377929759
 13.5431499481201172  9.0314178466796857 46.4442062377929759
 13.0375738143920898  7.2192511558532715 31.3908882141113317
 11.9483985900878906  6.6087083816528320 32.0786056518554759
 12.7701387405395508  8.3348875045776367 30.5742797851562500
 10.6491851806640625  7.1184439659118652 31.9913139343261754
 11.4694089889526349  8.8422117233276367 30.4823417663574254
 10.4186668395996094  8.2673559188842773 31.1695652008056676
 13.7475833892822266  8.8222990036010742 33.7608451843261790
 12.4138164520263654 10.6439552307128888 34.6122779846191477
 14.0853834152221662  9.5876808166503906 36.1588516235351562
 15.0290098190307617 10.8702297210693359 34.1012573242187500
 15.0730524063110352  8.1480159759521484 33.6524314880371094
 14.9944086074829102  6.7924308776855469 33.0979194641113352
 11.8280458450317383 10.8960437774658203 33.2437744140625000
 13.1262807846069318  8.4962797164916992 36.5839157104492188
 15.7087841033935547 11.9369316101074219 34.9400215148925781
 14.4959392547607422  6.6618719100952148 31.6594905853271484
  1.1238746643066413  3.7388761043548584 35.2760925292968750
  0.8695907592773447 12.8096942901611328 35.3287429809570312
  9.9191150665283203  3.7638733386993408 35.3309059143066477
  9.4292783737182617 12.7590141296386719 35.6957359313964844
  7.9683065414428711  5.1002883911132804 35.3811149597167969
  8.2162628173828125 14.6842527389526367 35.1961212158203125
 17.2545223236083984  4.9451498985290527 35.6369018554687500
 17.6680107116699219 14.7078361511230469 35.6002197265625000
  3.8142635822296138  8.1250629425048828 35.3531265258789134
  3.5195330837741490 17.3786576390266418 35.3516464233398438
 12.8587583759799600 17.1298977732658386 35.3730697631836009
  5.4329051971435538  0.6363745927810669 35.4803237915039062
  5.2528824806213379  9.9432764053344727 35.4282569885253977
 14.2967786788940430  0.8903902769088744 35.3912963867187500
  0.9247620701789856  3.6443510055541992 41.1613159179687500
  0.8809264898300171 12.8239822387695312 41.3153152465820312
  9.8247165679931623  3.6331770420074463 41.1876983642578125
  9.7168674468994141 12.7375898361206055 41.3312187194824219
  3.8645725250244141  8.0762481689453125 41.0834999084472727
  3.6380366543307900 17.1845866441726685 41.0421562194824290
 12.7040491104125977  8.3948135375976562 41.2880058288574290
 12.6985553959384561 17.3328128457069397 41.2305030822753977
  8.1770277023315430  5.3258757591247559 41.1543502807617188
  8.0937719345092773 14.3920211791992188 41.2019119262695312
 17.2329288125038182  5.2005162239074707 41.1980285644531250
 17.2721724510192871 14.4965419769287109 41.2031784057617188
  5.3211269378662109  0.7605099678039551 41.1661605834960938
  5.2972044944763184  9.9609928131103498 41.1747970581054688
 14.4569225311279279  0.8273128271102905 41.0625762939453196
 14.6015443801879883  9.7826547622680664 41.2039146423339915
  0.8273094892501831  3.6869695186614990 47.0359649658203125
  0.8248501420021057 12.7183685302734375 47.0359649658203125
  9.8577098846435547  3.6869695186614990 47.0359649658203125
  9.8552503585815412 12.7183685302734375 47.0359649658203125
  3.6843190193176270  8.2023353576660156 47.0346527099609375
  3.6818594932556152 17.2337341308593750 47.0346527099609375
 12.7147188186645508  8.2023353576660156 47.0346527099609375
 12.7122592926025391 17.2337341308593750 47.0346527099609375
  8.2006769180297852  5.3445744514465332 47.0360260009765696
  8.1982173919677734 14.3759746551513672 47.0360260009765696
 17.2310771942138672  5.3445744514465332 47.0360260009765696
 17.2286186218261719 14.3759746551513672 47.0360260009765696
  5.3436489105224600  0.8290914893150328 47.0346527099609375
  5.3411893844604483  9.8604917526245117 47.0346527099609375
 14.3740482330322266  0.8290914893150328 47.0346527099609375
 14.3715896606445312  9.8604917526245117 47.0346527099609375
 13.7925529479980469 10.0726327896118164 34.6872100830078125
  8.9588985443115234  0.2406027764081955 34.4866943359375000
  8.7500267028808594  9.3260602951049805 34.7145881652832102
 17.9680045098066365  0.0406808443367481 34.5204467773437500
  0.4029887914657593  9.2441663742065430 34.7727661132812500
  4.5365486145019522  4.4307746887207031 34.4273681640625071
  4.4982252120971680 13.6251802444458008 34.4906387329101562
 13.2096929550170898  4.0934576988220215 34.8770446777343750
 13.1408300399780273 13.9635190963745117 34.1485977172851562
  0.1148865818977356  0.0179642233997583 40.9064521789550852
  0.2688685059547424  9.0906600952148420 41.0134086608886719
  9.0558280944824219  0.0385568998754025 40.9147872924804688
  9.0790061950683594  8.9797534942626953 40.9717826843261719
  4.4947786331176758  4.4195756912231445 40.9032363891601562
  4.4885559082031250 13.6114835739135742 40.9048538208007884
 13.3941564559936523  4.5961623191833496 41.0140075683593750
 13.5667171478271484 13.6594581604003906 40.8563919067382884
  2.5731415748596191  1.9106613397598267 37.9342765808105469
  2.6716933250427242 10.9831991195678711 38.0641555786132812
 11.6113605499267578  1.8573100566864014 38.0874900817871165
 11.2456331253051758 11.3627538681030273 38.3466758728027344
  6.4276471138000488  7.1166777610778809 37.9997482299804688
  6.4805116653442383 16.1481876373291016 38.0620689392089844
 15.8074808120727521  6.7882237434387207 38.2787055969238281
 15.4241075515747070 16.1895465850830078 38.0817298889160227
  2.0252559185028076  6.4131627082824707 38.0139198303222656
  2.0817620754241943 15.6265697479248029 38.1558609008789062
 10.6871814727783203  6.2279086112976074 37.9740447998046875
 10.9124383926391602 15.5518207550048828 38.1579666137695312
  7.1252112388610840  2.5330133438110352 38.0329399108886719
  7.0334372520446768 11.5773468017578125 38.1959686279296875
 16.0681018829345703  2.4942619800567627 38.0598068237304688
 16.4711151123046875 11.6978425979614258 38.3666114807128906
  0.0000000000000000  0.0000000000000000 47.1735610961914062
 -0.0024593239650130  9.0313997268676740 47.1735610961914062
  9.0304002761840803  0.0000000000000000 47.1735610961914062
  9.0279407501220685  9.0313997268676740 47.1735610961914062
  4.5139794349670410  4.5156998634338379 47.1742515563964844
  4.5115203857421875 13.5470991134643537 47.1742515563964844
 13.5443792343139648  4.5156998634338379 47.1742515563964844
 13.5419197082519531 13.5470991134643537 47.1742515563964844
  2.4519233703613277  2.0629522800445557 44.0401268005371165
  2.4494640827178955 11.0943517684936523 44.0401268005371165
 11.4823226928710920  2.0629522800445557 44.0401268005371165
 11.4798641204833984 11.0943517684936523 44.0401268005371165
  6.5760178565979004  6.9684472084045410 44.0401268005371165
  6.5735583305358887 15.9998464584350586 44.0401268005371165
 15.6064186096191406  6.9684472084045410 44.0401268005371165
 15.6039590835571289 15.9998464584350586 44.0401268005371165
  2.0610768795013428  6.5788145065307617 44.0400009155273509
  2.0586175918579102 15.6102142333984375 44.0400009155273509
 11.0914773941040039  6.5788145065307617 44.0400009155273509
 11.0890178680419922 15.6102142333984375 44.0400009155273509
  6.9668641090393066  2.4525938034057613 44.0400657653808665
  6.9644045829772949 11.4839935302734375 44.0400657653808665
 15.9972639083862305  2.4525938034057613 44.0400657653808665
 15.9948053359985352 11.4839935302734375 44.0400657653808665
  2.4316265583038330  2.0832188129425049 50.0684852600097656
  2.4291670322418213 11.1146183013915998 50.0684852600097656
 11.4620265960693359  2.0832188129425049 50.0684852600097656
 11.4595670700073224 11.1146183013915998 50.0684852600097656
  6.5963144302368164  6.9481806755065918 50.0684852600097656
  6.5938549041748047 15.9795799255371076 50.0684852600097656
 15.6267137527465803  6.9481806755065918 50.0684852600097656
 15.6242542266845703 15.9795799255371076 50.0684852600097656
  2.0811281204223633  6.5990090370178223 50.0690460205078125
  2.0786688327789307 15.6304082870483398 50.0690460205078125
 11.1115283966064453  6.5990090370178223 50.0690460205078125
 11.1090688705444336 15.6304082870483398 50.0690460205078125
  6.9468131065368652  2.4323906898498531 50.0690460205078125
  6.9443535804748535 11.4637899398803711 50.0690460205078125
 15.9772129058837891  2.4323906898498531 50.0690460205078125
 15.9747543334960938 11.4637899398803711 50.0690460205078125
 18.0409064050763845  0.0452271550893784 37.7028312683105469
  0.0793786793947220  9.0858726501464844 37.9048919677734446
  8.9531850814819336  0.1150825619697571 37.6311836242675781
  8.9804906845092773  8.9784240722656250 37.8147659301757812
  4.5230960845947257  4.5254626274108887 37.6907653808593750
  4.5055761337280273 13.5368232727050781 37.6879234313964844
 13.4118185043334961  4.5456414222717285 37.9273529052734375
 13.4404525756835938 13.7757434844970703 37.8222427368164134
  0.0000090280000222  0.0000090310004452 44.0429992675781250
 -0.0024502959568053  9.0314083099365234 44.0429992675781250
  9.0304088592529297  0.0000090310004452 44.0429992675781250
  9.0279493331909180  9.0314083099365234 44.0429992675781250
  4.5139703750610352  4.5156903266906738 44.0427513122558594
  4.5115113258361816 13.5470905303955078 44.0427513122558594
 13.5443706512451172  4.5156903266906738 44.0427513122558594
 13.5419111251831037 13.5470905303955078 44.0427513122558594
  0.0000000000000000  0.0000000000000000 50.4472808837890696
 -0.0024593239650130  9.0313997268676740 50.4472808837890696
  9.0304002761840803  0.0000000000000000 50.4472808837890696
  9.0279407501220685  9.0313997268676740 50.4472808837890696
  4.5139703750610352  4.5156998634338379 50.4472808837890696
  4.5115113258361816 13.5470991134643537 50.4472808837890696
 13.5443706512451172  4.5156998634338379 50.4472808837890696
 13.5419111251831055 13.5470991134643537 50.4472808837890696
