 H  C  N  I Pb 
 1.0000000000000000
    18.0608005523681641    0.0000000000000000    0.0000000000000000
    -0.0049186488613486   18.0627994537353516    0.0000000000000000
     0.0000000000000000    0.0000000000000000   62.4874992370605469
 H   C   N   I   Pb 
 143  39  47  72  24
Cartesian
  7.5792007446289062  4.6692132949829093 35.8765640258789062
  7.3960523605346680 12.9609031677246094 35.8773460388183594
 16.6268863677978516  5.0630774497985840 36.3087081909179688
 16.9312992095947266 14.7154798507690430 35.9658851623535156
  5.7635703086853027  1.4364796876907349 35.7290992736816406
  5.6095490455627441 10.4835672378540039 35.7222213745117259
 14.4344263076782227  1.4924664497375488 35.9836158752441406
  1.9596824645996105  4.1973676681518555 35.3015861511230469
  1.4691123962402350 12.1916494369506836 35.5879707336425852
 10.9808874130249023  3.5883023738861084 35.3525581359863352
 10.8530502319335938 13.3441953659057599 35.0108680725097656
  6.7861180305480957  0.2569220960140228 34.9151992797851634
  4.5550975799560547 11.2395534515380859 34.5423393249511790
 15.7574882507324219  0.6122516989707947 35.2128791809082102
  1.0766296386718790  5.0937118530273438 36.4867057800292969
 18.0161972045898438 12.4794044494628906 36.4088401794433594
  9.4548101425170898  3.1043016910552979 36.0808258056640625
  9.8157310485839844 12.3979654312133789 36.0333366394043040
  5.3531236648559570  8.0278701782226562 36.0912628173828125
  3.2891871929168701  0.9847699403762817 35.6711769104003977
 12.1801137924194336  0.4432767927646637 35.8083343505859375
  7.9315881729125977  6.2217187881469727 35.0613517761230469
  6.9193749427795410 14.2499513626098633 34.7889137268066477
 15.9463500976562500  4.1247158050537109 35.0305709838867188
 17.7800884246826172 15.7761363983154279 34.8889541625976562
  4.0477395057678223  7.2644152641296387 35.2266426086425781
  2.7619828442111611 17.7106800079345703 34.6993904113769531
 12.1418279865756631 16.9140502214431763 35.0225410461425852
 10.0986146926879883  5.5633587837219238 34.5199127197265696
  9.1683607101440430 14.6193532943725586 34.1241798400878977
  0.0144348144531279  3.4889850616455078 34.1750373840332031
  1.4399032592773449 14.2448911666870117 34.4764289855957031
  3.3729047775268555  9.2151546478271484 34.1519432067871094
  4.9530309895053506 17.0454083681106603 34.1710090637207031
 14.3706373432651144 16.9069222211837769 34.5341529846191406
  8.1121358871459961  5.1300282478332520 42.2628898620605540
  7.7955951690673828 14.8178977966308594 41.9537162780761790
 17.5154141187667847  5.0190362930297852 42.5416831970214844
 16.7111732959747314 13.7912282943725586 42.0369873046875071
  5.3551783561706543  0.8539410829544067 42.1559448242187571
  5.6139430999755859  9.9802255630493164 42.0191879272460938
 14.3478069305419922  1.0951631069183350 42.1713905334472727
 14.7560882568359375  9.6265830993652344 42.1335296630859375
  1.5620630979537964  2.9904944896697998 40.3401260375976562
  1.8001931905746458 12.4205179214477539 40.7687034606933594
 10.4647493362426758  3.1367833614349365 40.2927055358886719
 10.1936817169189453 12.2190809249877930 41.0085105895996165
  3.2638399600982666  7.3956518173217765 40.9142684936523438
  2.9587673405185342 16.6791009902954137 40.5084457397461009
 11.8469448089599592  8.0309619903564453 40.6055488586425781
 12.1232771137729287 16.6141145229339600 40.7560768127441477
  1.2548918724060056  3.2548041343688965 42.0445175170898438
  0.5620304942131042 12.0687189102172852 41.9317703247070312
  9.8108549118041992  3.2451117038726807 41.9146842956542969
  9.4978895187377930 12.9513502120971680 42.4314346313476634
  3.9822373390197754  8.0294799804687500 42.3782539367675852
  3.3861319283023477 17.2365564107894897 42.1150779724121165
 12.7460470199584943  8.0194482803344727 42.1023521423339915
 12.5849251011386514 17.2863093018531799 42.3033294677734446
  7.8237342834472656  6.1455464363098145 40.8746566772461009
  7.5082778930664062 15.1237831115722656 40.2358894348144531
 16.8118456602096593  5.7587351799011222 41.1487617492675781
 16.8506926298141479 15.1280765533447266 40.9368591308593821
  6.0742402076721191  1.1580677032470701 40.6020202636718750
  5.7552614212036133 10.5226688385009766 40.3505439758300781
 14.9125680923461914  1.4484851360321043 40.5351676940917969
 15.0108728408813477 10.5268049240112287 40.7136726379394531
  0.0010644495487213  4.5619854927062988 39.6591529846191406
  0.7744452953338623 14.3422985076904279 39.9947891235351562
  9.2824039459228498  4.9812803268432617 39.5077476501464844
  9.0018939971923828 13.5148391723632812 39.5221023559570312
  4.6228756168857217 17.8368484675884247 39.4552345275878906
  4.3011794090270996  8.9076013565063477 39.5360221862792969
 13.5604900578036904 17.9363442361354828 39.5418930053710938
 13.1678113937377912  9.6344528198242188 39.6203041076660156
  8.1032123565673828  5.4420318603515616 48.0459518432617259
  8.1007528305053711 14.4734306335449219 48.0459518432617259
 17.1336116790771484  5.4420318603515616 48.0459518432617259
 17.1311531066894531 14.4734306335449219 48.0459518432617259
  5.4410333633422852  0.9265221953392029 48.0449485778808594
  5.4385743141174316  9.9579219818115234 48.0449485778808594
 14.4714326858520490  0.9265221953392029 48.0449485778808594
 14.4689741134643555  9.9579219818115234 48.0449485778808594
  1.4218254089355467  3.0919990539550781 46.4558296203613281
  1.4193661212921143 12.1233978271484375 46.4558296203613281
 10.4522256851196289  3.0919990539550781 46.4558296203613281
 10.4497661590576172 12.1233978271484375 46.4558296203613281
  3.0899283885955806  7.6075901985168457 46.4545211791992188
  3.0874691009521484 16.6389904022216797 46.4545211791992188
 12.1203289031982422  7.6075901985168457 46.4545211791992188
 12.1178693771362305 16.6389904022216797 46.4545211791992188
  0.9247469902038573  3.5893490314483643 48.0459518432617259
  0.9222877025604248 12.6207475662231445 48.0459518432617259
  9.9551477432250977  3.5893490314483643 48.0459518432617259
  9.9526882171630859 12.6207475662231445 48.0459518432617259
  3.5868983268737793  8.1048498153686523 48.0448913574218821
  3.5844390392303462 17.1362495422363281 48.0448913574218821
 12.6172990798950195  8.1048498153686523 48.0448913574218821
 12.6148395538330078 17.1362495422363281 48.0448913574218821
  7.6061611175537109  5.9393639564514160 46.4558296203613281
  7.6037015914916992 14.9707632064819336 46.4558296203613281
 16.6365604400634766  5.9393639564514160 46.4558296203613281
 16.6341018676757812 14.9707632064819336 46.4558296203613281
  5.9380125999450684  1.4238001108169553 46.4545211791992188
  5.9355530738830566 10.4551992416381836 46.4545211791992188
 14.9684123992919904  1.4238001108169553 46.4545211791992188
 14.9659538269042951 10.4551992416381836 46.4545211791992188
 -0.0011664569610730  4.5157265663146973 45.3548011779785156
 -0.0036257810425013 13.5471258163452148 45.3548011779785156
  9.0292339324951172  4.5157265663146973 45.3548011779785156
  9.0267744064331037 13.5471258163452148 45.3548011779785156
  4.5152091979980469  0.0000000000000000 45.3536758422851562
  4.5127501487731934  9.0313997268676740 45.3536758422851562
 13.5456094741821289  0.0000000000000000 45.3536758422851562
 13.5431499481201172  9.0313997268676740 45.3536758422851562
 14.3553895950317365  9.2181501388549805 32.2759742736816406
 15.7994699478149414  9.1050729751586914 33.3011779785156250
 13.6877794265747070 11.3472156524658203 33.4582405090332031
 13.8648900985717773 11.3162755966186523 35.2104339599609375
 12.3556060791015625  8.1655206680297852 34.5773620605468750
 12.1045703887939435  9.8513383865356445 35.0671081542968750
 14.4423637390136719  7.7426295280456534 35.5457077026367188
 15.6582174301147461  9.0436305999755859 35.6526184082031250
 15.5438070297241211  6.8287768363952637 33.7560768127441406
 13.8118171691894513  6.7760682106018058 33.4386138916015625
 14.0400438308715820  6.8717827796936026 31.0847606658935582
 15.6907691955566406  7.4562034606933594 31.1526756286621129
 16.2075023651123047 11.1202535629272443 33.1968154907226562
 16.3737678527832031 10.9855985641479492 34.9688949584960938
 15.7452363967895508 12.4802045822143555 34.2333335876464844
 10.7720403671264648  9.3880491256713849 33.0473709106445312
 12.2016401290893555  8.8098602294921875 32.1502456665039062
 12.0371322631835938 10.5462903976440430 32.5853538513183594
 12.9274759292602539  8.9284334182739258 37.0679016113281250
 13.9200735092163086 10.4250450134277344 36.9913444519042969
 14.5532598495483398  8.9833898544311523 37.7291221618652344
 14.9246892929077131  4.6908149719238281 32.1624450683593750
 15.2728395462036115  4.9904370307922363 30.4599246978759766
 16.8069534301757812  2.9924433231353760 31.1919555664062500
 17.5338935852050781  7.0979437828063965 32.2774925231933665
  1.1735725402832033  2.4979145526885982 31.3878955841064489
  1.8989677429199223  6.5936141014099121 32.4627037048339915
  2.7711887359619136  4.3154039382934570 31.9828739166259766
 17.9898319244384766  4.1177625656127930 35.0686721801757812
  0.5866413116455079 13.9651212692260742 35.1372222900390625
  9.4555492401123047  4.8818335533142090 35.0798912048339844
  8.9276952743530273 13.8075914382934570 34.8204116821289062
  4.2287998199462891  9.2400197982788086 34.8353042602539134
  4.7843403080478302 17.9529485851526260 34.7536506652832102
 13.9512857655063272 17.7771854996681213 35.0480232238769602
  0.1593670248985291  4.3677811622619629 40.7191123962402344
  0.3066208958625793 13.7601547241210938 40.8035316467285156
  9.1516284942626953  4.6429891586303711 40.5589141845703125
  8.8664035797119141 13.6719274520874006 40.6048736572265625
  4.5060086250305176  8.9429502487182617 40.6149520874023438
  4.5098156193271279 17.9509974047541618 40.5398330688476562
 13.4197435379028320  9.2930402755737305 40.6098327636718821
 13.5133747318759543 18.0469256862998009 40.6326828002929688
  9.0289716720581055  4.5156092643737793 46.4455223083496165
  9.0265130996704102 13.5470085144042969 46.4455223083496165
 18.0593719482421875  4.5156092643737793 46.4455223083496165
 18.0569133758544922 13.5470085144042969 46.4455223083496165
  4.5152091979980469  0.0000180629995157 46.4442062377929759
  4.5127501487731934  9.0314178466796857 46.4442062377929759
 13.5456094741821289  0.0000180629995157 46.4442062377929759
 13.5431499481201172  9.0314178466796857 46.4442062377929759
 16.9995632171630859  5.0712094306945801 31.7038478851318359
 17.4874629974365234  3.7843072414398193 31.4714622497558629
 17.9085311889648438  6.0832200050354004 32.0669708251953196
  0.7942485809326170  3.5057337284088135 31.5828380584716797
  1.2087898254394547  5.8045196533203125 32.1859550476074219
  1.6984920501708980  4.5241594314575195 31.9246540069580043
 14.7617959976196289  8.7647714614868164 33.1734199523925781
 14.2960500717163086 10.9332723617553711 34.2794227600097656
 12.5221719741821289  9.2122392654418945 34.2735481262207031
 14.5817699432373047  8.8253526687622070 35.6456794738769602
 14.7575178146362305  7.2212114334106445 33.0912475585937500
 14.9915876388549805  6.7759270668029785 31.6221790313720703
 15.7434148788452148 11.3778238296508771 34.1572761535644602
 11.8675308227539062  9.5117769241333008 32.9315986633300781
 13.9237232208251953  9.3340482711791992 36.9040641784668040
 15.5195007324218750  5.3373656272888184 31.4796047210693324
  1.0379428863525408  4.4499273300170898 35.6920433044433594
  0.6401538848876983 12.7859563827514648 35.7064208984375000
  9.9678163528442383  3.7422683238983154 35.4748153686523438
  9.9023122787475586 13.0550394058227539 35.2700157165527415
  8.2010278701782227  5.2573552131652823 35.3154067993164062
  7.6676387786865234 13.6774921417236328 35.1879234313964844
 16.7930793762207031  4.5263099670410156 35.4358367919921875
 17.6541271209716797 14.8187370300292969 35.2569923400878977
  4.5474872589111328  8.1187152862548828 35.4400978088378977
  3.5449230670928951  0.1935622692108154 35.0420684814453125
 12.6562504032626748 17.7616438567638397 35.2587203979492188
  5.8337340354919434  0.5994974374771118 35.1122474670410156
  4.8446741104125968 10.3987703323364258 35.0209693908691406
 14.7617816925048828  0.6762275099754333 35.4291572570800781
  1.0378910303115845  3.4885787963867188 41.0768890380859375
  0.9041511416435242 12.6841306686401367 41.2011604309082102
  9.8302907943725586  3.6081697940826416 40.9640922546386719
  9.5733289718627930 12.9196901321411133 41.4151344299316406
  3.8889679908752441  8.0688714981079102 41.3660697937011719
  3.5500983456149697 17.2510378360748291 41.1089706420898438
 12.6210680007934570  8.3819713592529297 41.1449928283691406
 12.6949524143710715 17.2709266543388367 41.2911453247070312
  8.3035879135131836  5.3451547622680664 41.2994651794433665
  8.0064859390258789 14.6036977767944336 40.9735679626464844
 17.4745035171508789  5.0896873474121094 41.5305595397949290
 17.2339521050453186 14.2442369461059553 41.2757377624511790
  5.3635425567626953  0.6762219667434691 41.1487922668457031
  5.3536615371704093  9.8755941390991211 41.0425796508789062
 14.3140859603881836  0.9025122523307800 41.1736335754394602
 14.4641656875610352  9.8245306015014648 41.1847496032714844
  0.8273094892501831  3.6869695186614990 47.0359649658203125
  0.8248501420021057 12.7183685302734375 47.0359649658203125
  9.8577098846435547  3.6869695186614990 47.0359649658203125
  9.8552503585815412 12.7183685302734375 47.0359649658203125
  3.6843190193176270  8.2023353576660156 47.0346527099609375
  3.6818594932556152 17.2337341308593750 47.0346527099609375
 12.7147188186645508  8.2023353576660156 47.0346527099609375
 12.7122592926025391 17.2337341308593750 47.0346527099609375
  8.2006769180297852  5.3445744514465332 47.0360260009765696
  8.1982173919677734 14.3759746551513672 47.0360260009765696
 17.2310771942138672  5.3445744514465332 47.0360260009765696
 17.2286186218261719 14.3759746551513672 47.0360260009765696
  5.3436489105224600  0.8290914893150328 47.0346527099609375
  5.3411893844604483  9.8604917526245117 47.0346527099609375
 14.3740482330322266  0.8290914893150328 47.0346527099609375
 14.3715896606445312  9.8604917526245117 47.0346527099609375
 14.0389766693115234  9.4172105789184553 34.3317909240722656
  9.1789488056674600 17.6536749899387360 34.6669349670410156
  8.2437248229980469  8.8083438873291016 34.6423759460449219
  0.1123197898268700  0.2626353204250336 34.5445823669433594
  0.6720321178436279  8.9363269805908203 34.7081642150878906
  4.5460085868835449  4.4210433959960938 34.7413139343261719
  4.2461972236633301 13.9220085144042951 34.4690780639648438
 13.3997488021850586  4.0101037025451660 34.7088356018066406
 12.9459886550903320 14.3766765594482422 34.3595046997070312
 17.9882015744224226 17.8602619022130966 40.9039306640625000
  0.0710376352071762  9.0479631423950195 40.9893417358398509
  8.9894475936889648  0.1143470853567123 40.9649887084960938
  8.9804811477661133  9.0772294998168928 40.9124221801757884
  4.6939578056335440  4.2740383148193359 40.9808540344238281
  4.4698181152343750 13.5533704757690430 40.8710441589355469
 13.3776922225952131  4.5796132087707520 40.9539146423339844
 13.5984983444213867 13.5419178009033203 40.8667716979980469
  2.6054522991180415  2.0212776660919189 38.0561294555664062
  2.5799012184143066 11.0469903945922852 38.1198043823242188
 11.6391019821166992  1.9518300294876099 38.0457611083984375
 11.0557460784912109 11.4858484268188459 38.2760353088378906
  6.6005129814147940  6.9605808258056632 38.2871322631835938
  6.5878677368164062 16.0157222747802734 37.9441261291503977
 16.0741500854492188  6.5133042335510254 38.4468040466308665
 15.6455287933349592 16.0029716491699219 37.9469032287597656
  2.1841266155242920  6.6036958694458008 38.3071594238281321
  2.1379158496856689 15.8259363174438477 37.9028053283691406
 11.1412115097045898  6.6941485404968262 37.8568153381347656
 11.2027139663696289 15.6818904876708984 38.2235145568847656
  7.2089200019836426  2.6039359569549556 37.8080825805664062
  6.7926230430603018 11.4486713409423828 37.9087333679199219
 15.9892702102661133  2.4788646697998042 38.3582916259765625
 16.4369659423828125 11.8966426849365234 38.3061065673828125
  0.0000000000000000  0.0000000000000000 47.1735610961914062
 -0.0024593239650130  9.0313997268676740 47.1735610961914062
  9.0304002761840803  0.0000000000000000 47.1735610961914062
  9.0279407501220685  9.0313997268676740 47.1735610961914062
  4.5139794349670410  4.5156998634338379 47.1742515563964844
  4.5115203857421875 13.5470991134643537 47.1742515563964844
 13.5443792343139648  4.5156998634338379 47.1742515563964844
 13.5419197082519531 13.5470991134643537 47.1742515563964844
  2.4519233703613277  2.0629522800445557 44.0401268005371165
  2.4494640827178955 11.0943517684936523 44.0401268005371165
 11.4823226928710920  2.0629522800445557 44.0401268005371165
 11.4798641204833984 11.0943517684936523 44.0401268005371165
  6.5760178565979004  6.9684472084045410 44.0401268005371165
  6.5735583305358887 15.9998464584350586 44.0401268005371165
 15.6064186096191406  6.9684472084045410 44.0401268005371165
 15.6039590835571289 15.9998464584350586 44.0401268005371165
  2.0610768795013428  6.5788145065307617 44.0400009155273509
  2.0586175918579102 15.6102142333984375 44.0400009155273509
 11.0914773941040039  6.5788145065307617 44.0400009155273509
 11.0890178680419922 15.6102142333984375 44.0400009155273509
  6.9668641090393066  2.4525938034057613 44.0400657653808665
  6.9644045829772949 11.4839935302734375 44.0400657653808665
 15.9972639083862305  2.4525938034057613 44.0400657653808665
 15.9948053359985352 11.4839935302734375 44.0400657653808665
  2.4316265583038330  2.0832188129425049 50.0684852600097656
  2.4291670322418213 11.1146183013915998 50.0684852600097656
 11.4620265960693359  2.0832188129425049 50.0684852600097656
 11.4595670700073224 11.1146183013915998 50.0684852600097656
  6.5963144302368164  6.9481806755065918 50.0684852600097656
  6.5938549041748047 15.9795799255371076 50.0684852600097656
 15.6267137527465803  6.9481806755065918 50.0684852600097656
 15.6242542266845703 15.9795799255371076 50.0684852600097656
  2.0811281204223633  6.5990090370178223 50.0690460205078125
  2.0786688327789307 15.6304082870483398 50.0690460205078125
 11.1115283966064453  6.5990090370178223 50.0690460205078125
 11.1090688705444336 15.6304082870483398 50.0690460205078125
  6.9468131065368652  2.4323906898498531 50.0690460205078125
  6.9443535804748535 11.4637899398803711 50.0690460205078125
 15.9772129058837891  2.4323906898498531 50.0690460205078125
 15.9747543334960938 11.4637899398803711 50.0690460205078125
 18.0527538890019095  0.1363138258457184 37.8056526184082102
  0.1358730345964432  9.0913591384887695 37.8180809020996094
  9.0761160114780068 17.9516183212399518 37.7724533081054688
  8.9305086135864258  9.0121107101440430 37.7105484008789134
  4.5602712631225586  4.5461702346801758 37.8776588439941406
  4.3734974861145020 13.6721954345703125 37.7211036682128977
 13.5571470260620099  4.5598168373107910 37.8858871459960938
 13.5416412353515625 13.6628837585449201 37.7096672058105469
  0.0000090280000222  0.0000090310004452 44.0429992675781250
 -0.0024502959568053  9.0314083099365234 44.0429992675781250
  9.0304088592529297  0.0000090310004452 44.0429992675781250
  9.0279493331909180  9.0314083099365234 44.0429992675781250
  4.5139703750610352  4.5156903266906738 44.0427513122558594
  4.5115113258361816 13.5470905303955078 44.0427513122558594
 13.5443706512451172  4.5156903266906738 44.0427513122558594
 13.5419111251831037 13.5470905303955078 44.0427513122558594
  0.0000000000000000  0.0000000000000000 50.4472808837890696
 -0.0024593239650130  9.0313997268676740 50.4472808837890696
  9.0304002761840803  0.0000000000000000 50.4472808837890696
  9.0279407501220685  9.0313997268676740 50.4472808837890696
  4.5139703750610352  4.5156998634338379 50.4472808837890696
  4.5115113258361816 13.5470991134643537 50.4472808837890696
 13.5443706512451172  4.5156998634338379 50.4472808837890696
 13.5419111251831055 13.5470991134643537 50.4472808837890696
