PerovskiteSurface_12951678_0            
    1.000000000000000     
    18.0608005523999999    0.0000000000000000    0.0000000000000000
    -0.0049186487000000   18.0627987840000017    0.0000000000000000
     0.0000000000000000    0.0000000000000000   62.4874992371000033
   H    C    N    I    Pb
   143    39    47    72    24
Selective dynamics
Direct
  0.4504542367928110  0.3004204715694311  0.5821577730484550   T   T   T
  0.4497120432424463  0.7998460053738667  0.5821180421652337   T   T   T
  0.9497004984111550  0.2998750682894150  0.5822484891754011   T   T   T
  0.9492198656149886  0.7990207718811835  0.5820863163775538   T   T   T
  0.2997561793688106  0.0498046425072656  0.5820771900259352   T   T   T
  0.2999873549897399  0.5497014827963236  0.5821255657923708   T   T   T
  0.7996661499577197  0.0500901322237241  0.5821316960218880   T   T   T
  0.0797687226798550  0.1711722619527139  0.5572535625919532   T   T   T
  0.0794960560886197  0.6709912025527219  0.5572120676211367   T   T   T
  0.5796722917828009  0.1712346375610508  0.5572654697902178   T   T   T
  0.5799054882139834  0.6715601819589971  0.5573088404467101   T   T   T
  0.3292427899596553  0.0792893077929194  0.5572218962389590   T   T   T
  0.3300450393711771  0.5784169331118709  0.5572479825146600   T   T   T
  0.8286538662892334  0.0798514282901750  0.5572459806046312   T   T   T
  0.0502974984068093  0.2001232629000738  0.5821358882962490   T   T   T
  0.0494621728520885  0.6996246966168426  0.5820833219222875   T   T   T
  0.5508362353876703  0.2009016553634856  0.5821580310678727   T   T   T
  0.5503328257190573  0.7000162533938099  0.5821897937704572   T   T   T
  0.1999904010780587  0.4502693010229818  0.5821291647895681   T   T   T
  0.2001825044373735  0.9501733363962035  0.5820722083406544   T   T   T
  0.7002711915015842  0.9499434282190086  0.5821368585175799   T   T   T
  0.4204333811281662  0.3289388971254663  0.5572772492541450   T   T   T
  0.4201249785013264  0.8287067905055183  0.5572349347441653   T   T   T
  0.9205104583728471  0.3289470169744076  0.5573920523011875   T   T   T
  0.9200111242575980  0.8284926948577632  0.5572168121170676   T   T   T
  0.1696089797881846  0.4217966293711661  0.5572604347491544   T   T   T
  0.1707682565154713  0.9206730385546714  0.5572120091819419   T   T   T
  0.6716491659218369  0.9197858570941394  0.5572635819996257   T   T   T
  0.4998428916540330  0.2498823234222978  0.5388341926520986   T   T   T
  0.5000023718855692  0.7499879864525053  0.5388186632720557   T   T   T
 -0.0000060951584178  0.2501120091035739  0.5388539207969744   T   T   T
  0.9997259152516413  0.7497213929647307  0.5387428318058806   T   T   T
  0.2499083700536699  0.5000461108675177  0.5387247543369095   T   T   T
  0.2499984756596712 -0.0000046926293184  0.5386511722109840   T   T   T
  0.7499817824894400 -0.0000403630805370  0.5387307728959760   T   T   T
  0.4487164511897823  0.3010970970578531  0.6741837624181169   T   T   T
  0.4490129200374557  0.8010207948930567  0.6741777378405407   T   T   T
  0.9486693631834978  0.3014957706858763  0.6741077969334940   T   T   T
  0.9489231404373454  0.8012593180052663  0.6741829318136037   T   T   T
  0.3011963717476746  0.0512189910184623  0.6741767454910000   T   T   T
  0.3011481567361524  0.5512096990688117  0.6741462233864343   T   T   T
  0.8012038336705553  0.0511308189272064  0.6741469024771043   T   T   T
  0.8007998860132683  0.5508295492403289  0.6737489912797516   T   T   T
  0.0787013051346534  0.1712137294745806  0.6488844341955047   T   T   T
  0.0784618462238408  0.6707425474383600  0.6488739787645869   T   T   T
  0.5790195405150287  0.1713332713198553  0.6488774100656587   T   T   T
  0.5789404521565245  0.6710814206701602  0.6486819214078610   T   T   T
  0.1708893217125298  0.4212734987724097  0.6488267466017283   T   T   T
  0.1711014609825792  0.9210931398149446  0.6488572646997340   T   T   T
  0.6709774997855503  0.4210821587550124  0.6485236747994149   T   T   T
  0.6712507523387679  0.9208924204642037  0.6488259914884312   T   T   T
  0.0509878660055535  0.1989916544461876  0.6741785272538444   T   T   T
  0.0512005429336153  0.6988868681068030  0.6741825420497259   T   T   T
  0.5509800583460354  0.1986965586400039  0.6741848266369885   T   T   T
  0.5514004917530875  0.6985957596853396  0.6741052773683136   T   T   T
  0.1987546828471846  0.4488053154046242  0.6741441009296492   T   T   T
  0.1987834238756830  0.9487750202613916  0.6741773071456696   T   T   T
  0.6992270158712194  0.4492795471568222  0.6737543858139783   T   T   T
  0.6987960940939826  0.9487351730135563  0.6741445558896371   T   T   T
  0.4214192097390763  0.3291932588686040  0.6488744464728929   T   T   T
  0.4212748972325845  0.8287874606780341  0.6488844185028756   T   T   T
  0.9212150767280002  0.3290931406414155  0.6486814834722142   T   T   T
  0.9208314470053272  0.8285731253648387  0.6488747027202875   T   T   T
  0.3288745561050563  0.0789065849176362  0.6488585319225227   T   T   T
  0.3289911524047234  0.5787744560369941  0.6488309636775720   T   T   T
  0.8287821314741484  0.0789602906743705  0.6488320593938750   T   T   T
  0.8290239828353221  0.5790093291646758  0.6485112972688346   T   T   T
 -0.0001801151515039  0.2501892681031289  0.6310305223153523   T   T   T
  0.9995130711479989  0.7495224072243371  0.6310615388528564   T   T   T
  0.5004151174853342  0.2504561779739339  0.6310646381159323   T   T   T
  0.5001795124802196  0.7498441896034028  0.6310274387966057   T   T   T
  0.2499767903400741  0.0000041295937843  0.6310639581047193   T   T   T
  0.2499799775378334  0.4999877244471297  0.6310288393726677   T   T   T
  0.7499593405632916 -0.0000141256192326  0.6310293217759192   T   T   T
  0.7500127877718215  0.5000309032510415  0.6305032811569551   T   T   T
  0.4487450123026875  0.3012839853932547  0.7688890099553589   F   F   F
  0.4487450122585699  0.8012839555529183  0.7688890099553589   F   F   F
  0.9487449526597018  0.3012839853932547  0.7688890099553589   F   F   F
  0.9487450123028651  0.8012839555529183  0.7688890099553589   F   F   F
  0.3012759983606372  0.0512944981605372  0.7688729763004289   F   F   F
  0.3012759983266733  0.5512945055790937  0.7688729763004289   F   F   F
  0.8012759685612991  0.0512944981605372  0.7688729763004289   F   F   F
  0.8012759685273281  0.5512945055790937  0.7688729763004289   F   F   F
  0.0787710025712300  0.1711805015919765  0.7434419989625454   F   F   F
  0.0787710025865564  0.6711804866994839  0.7434419989625454   F   F   F
  0.5787709951407791  0.1711805015919765  0.7434419989625454   F   F   F
  0.5787709951560984  0.6711804866994839  0.7434419989625454   F   F   F
  0.1711995005657982  0.4211744964317958  0.7434210181261207   F   F   F
  0.1711995005379165  0.9211745262167668  0.7434210181261207   F   F   F
  0.6711995005547209  0.4211744964317958  0.7434210181261207   F   F   F
  0.6711995005822118  0.9211745262167668  0.7434210181261207   F   F   F
  0.0512560010060099  0.1987150013639862  0.7688890099553589   F   F   F
  0.0512560010172578  0.6987149715236498  0.7688890099553589   F   F   F
  0.5512560009949325  0.1987150013639862  0.7688890099553589   F   F   F
  0.5512560010061875  0.6987149715236498  0.7688890099553589   F   F   F
  0.1987234949972319  0.4487039745014059  0.7688720226216859   F   F   F
  0.1987234950247228  0.9487040042863839  0.7688720226216859   F   F   F
  0.6987234949861616  0.4487039745014059  0.7688720226216859   F   F   F
  0.6987234950136525  0.9487040042863839  0.7688720226216859   F   F   F
  0.4212315082396927  0.3288174867596396  0.7434419989625454   F   F   F
  0.4212315082590763  0.8288174867596396  0.7434419989625454   F   F   F
  0.9212314486520796  0.3288174867596396  0.7434419989625454   F   F   F
  0.9212315082479989  0.8288174867596396  0.7434419989625454   F   F   F
  0.3288004994152729  0.0788249969468282  0.7434210181261207   F   F   F
  0.3288004994346494  0.5788249969468282  0.7434210181261207   F   F   F
  0.8288004994595681  0.0788249969468282  0.7434210181261207   F   F   F
  0.8288004994235791  0.5788249969468282  0.7434210181261207   F   F   F
  0.0000034999835279  0.2500014901345224  0.7258219718940495   F   F   F
  0.0000035000029044  0.7500014901345224  0.7258219718940495   F   F   F
  0.5000035166937522  0.2500014901345224  0.7258219718940495   F   F   F
  0.5000035166577632  0.7500014901345224  0.7258219718940495   F   F   F
  0.2500005066165230  0.0000000000000000  0.7258039712857141   F   F   F
  0.2500005066359066  0.5000000000000000  0.7258039712857141   F   F   F
  0.7500004768171777  0.0000000000000000  0.7258039712857141   F   F   F
  0.7500004768365613  0.5000000000000000  0.7258039712857141   F   F   F
  0.7083353353230221  0.4826056312109124  0.4520729672208084   T   T   T
  0.6585726098379832  0.5366098222937623  0.4708708870774013   T   T   T
  0.6914002981455331  0.3761556905020009  0.5021496091120228   T   T   T
  0.6267718091971047  0.4408548968813058  0.4920738704574768   T   T   T
  0.7678574465118908  0.4622760787916757  0.5168299616071165   T   T   T
  0.8011266379032790  0.5396888630626414  0.5023809388283454   T   T   T
  0.7984372154237519  0.4059811168345066  0.4607829914272427   T   T   T
  0.8508576821517441  0.4690527465306040  0.4763100944618343   T   T   T
  0.7654784734921062  0.6193169956102114  0.4760735362050127   T   T   T
  0.8222341865581194  0.5641174802896941  0.4595001767288981   T   T   T
  0.6774327839679125  0.6242442949455153  0.4414317694633904   T   T   T
  0.7528474642773666  0.6845760183267856  0.4445452865746617   T   T   T
  0.7066894205301038  0.3219075480211973  0.4648890987828787   T   T   T
  0.6137655169616306  0.3209046145628658  0.4736671525109303   T   T   T
  0.6421546049661458  0.3873672743359229  0.4546081921226376   T   T   T
  0.6689285957208263  0.5929324528419959  0.5024997230386786   T   T   T
  0.6406384066575310  0.5167877621634935  0.5190104064439314   T   T   T
  0.7079347519736746  0.5801154928177139  0.5279945528706982   T   T   T
  0.7955485493800152  0.3171116019468218  0.4926832042881042   T   T   T
  0.8864023829352123  0.3410273036256207  0.4845843916081551   T   T   T
  0.8482474464825388  0.3814789228838299  0.5078124291084788   T   T   T
  0.7498204057010768  0.6375463577539482  0.4081954878253228   T   T   T
  0.8318543812260044  0.6095552230466375  0.4211812112044516   T   T   T
  0.6404643948790046  0.5395547320352064  0.4076006466512062   T   T   T
  0.8683441394890572  0.4848594041913672  0.4200374957762919   T   T   T
  0.6147784987802835  0.4083865888476733  0.3985674491758574   T   T   T
  0.8429022772858277  0.3534270206790835  0.4109709030370285   T   T   T
  0.7156789065284023  0.3145506232583892  0.4003591584119799   T   T   T
 -0.0000070330690470  0.2499959345186877  0.5563044496761934   T   T   T
 -0.0004606379646614  0.7495270852193535  0.5561883406507394   T   T   T
  0.5001852485310221  0.2502188785081276  0.5562795529778318   T   T   T
  0.4999504936132165  0.7499934630941060  0.5562650428074105   T   T   T
  0.2499325533554494  0.5000244819527458  0.5562024981768232   T   T   T
  0.2499839285146862 -0.0000016348221676  0.5561314348626344   T   T   T
  0.7499402907492793  0.0000284953993933  0.5562090335542099   T   T   T
 -0.0001574734493394  0.2501638001497871  0.6484736368995421   T   T   T
 -0.0001845366722492  0.7498245669403496  0.6484981202717734   T   T   T
  0.5001228213243001  0.2501691974734428  0.6485012777798753   T   T   T
  0.5001551171943376  0.7498574806415826  0.6484703915100173   T   T   T
  0.2499711372779089  0.4999892659147174  0.6484678894304859   T   T   T
  0.2499819916646627  0.0000031408656127  0.6485029293699462   T   T   T
  0.7500121200484092  0.5000333900572206  0.6479567588866652   T   T   T
  0.7499597845925077 -0.0000232151716397  0.6484684701155430   T   T   T
  0.4999889731548066  0.2499949931900858  0.7432770133073987   F   F   F
  0.4999890327507259  0.7499949931900858  0.7432770133073987   F   F   F
  0.9999889731437364  0.2499949931900858  0.7432770133073987   F   F   F
  0.9999890327396557  0.7499949931900858  0.7432770133073987   F   F   F
  0.2500005066120252  0.0000010000111388  0.7432559728590533   F   F   F
  0.2500005066350184  0.5000010132981174  0.7432559728590533   F   F   F
  0.7500004768126800  0.0000010000111388  0.7432559728590533   F   F   F
  0.7500004768356803  0.5000010132981174  0.7432559728590533   F   F   F
  0.7139602256984344  0.5166828049942994  0.4664884497434496   T   T   T
  0.6756784680823619  0.4080013492810837  0.4878797379220743   T   T   T
  0.7521052595266647  0.5051903579033548  0.5052949921505917   T   T   T
  0.8088284280990000  0.4253289171673046  0.4771834459550836   T   T   T
  0.7648480357036930  0.5823584406728017  0.4621365049481738   T   T   T
  0.7383483709277614  0.6260293479490068  0.4423703205815110   T   T   T
  0.6595672214205507  0.3573669978549662  0.4690270578498035   T   T   T
  0.6879343857128495  0.5504205704458091  0.5137785856864675   T   T   T
  0.8351083380921299  0.3629397555800043  0.4915562917791403   T   T   T
  0.7715238555144468  0.6008823957679416  0.4208125460641214   T   T   T
  0.7561466643692286  0.5213749020881966  0.4148013887609256   T   T   T
  0.6849353719911683  0.4987282440310535  0.4085479493387741   T   T   T
  0.8123807396754897  0.4679078870659000  0.4155876097143847   T   T   T
  0.6703657545779127  0.4248810326534301  0.4034462411933899   T   T   T
  0.7981466128216351  0.3939169578742432  0.4104575346818374   T   T   T
  0.7269657247022747  0.3721506055819452  0.4044265344376858   T   T   T
  0.0458697208683385  0.2046139481682628  0.5658852495954974   T   T   T
  0.0452077492031172  0.7040657452440527  0.5658227567416170   T   T   T
  0.5462203618381193  0.2050825607500034  0.5658983696310598   T   T   T
  0.5455383621451189  0.7045496937832332  0.5659225217084461   T   T   T
  0.4545462848415986  0.2956992686722737  0.5658989533133502   T   T   T
  0.4541821183560601  0.7954442264782009  0.5658681225748236   T   T   T
  0.9541863687162750  0.2951564093364459  0.5659789931180227   T   T   T
  0.9537095576223772  0.7948238806870916  0.5658264194492429   T   T   T
  0.2043925940137120  0.4544571686405720  0.5658547225508204   T   T   T
  0.2044257329709224  0.9544745904224530  0.5657959167716020   T   T   T
  0.7044994105073756  0.9543806676508233  0.5658610997707797   T   T   T
  0.2955266854888591  0.0455214181032210  0.5658002908597246   T   T   T
  0.2955003430994319  0.5455481442027197  0.5658520693424139   T   T   T
  0.7952747630201406  0.0458235346304330  0.5658555148003040   T   T   T
  0.0456387250100922  0.2043130415649108  0.6579789657998335   T   T   T
  0.0457595275556018  0.7041355999421799  0.6579874091723644   T   T   T
  0.5457845059657950  0.2041951282992905  0.6579902055991380   T   T   T
  0.5459724625500052  0.7039888458142907  0.6579125080807749   T   T   T
  0.2042279586162234  0.4540563557512048  0.6579469645561157   T   T   T
  0.2041455318495410  0.9541566401664598  0.6579806485243019   T   T   T
  0.7042546884980661  0.4542705409372378  0.6575364842663129   T   T   T
  0.7040388374896021  0.9542224520356071  0.6579473424022216   T   T   T
  0.4541952649158367  0.2958790018896384  0.6579893134624771   T   T   T
  0.4543461453260030  0.7956977567669516  0.6579781439212558   T   T   T
  0.9540206010280211  0.2960320031766977  0.6579157248151349   T   T   T
  0.9541625455378558  0.7958116977069664  0.6579881793362145   T   T   T
  0.2958244351022286  0.0458426007566900  0.6579802126645941   T   T   T
  0.2957171792248065  0.5459238549237857  0.6579491946567193   T   T   T
  0.7958893898649821  0.0457287317289847  0.6579498828138237   T   T   T
  0.7957820526296991  0.5458047599576357  0.6575314393575915   T   T   T
  0.0458624996011352  0.2041195035215679  0.7527260184237576   F   F   F
  0.0458624996205117  0.7041195035215679  0.7527260184237576   F   F   F
  0.5458624958803711  0.2041195035215679  0.7527260184237576   F   F   F
  0.5458624958997476  0.7041195035215679  0.7527260184237576   F   F   F
  0.2041189968698021  0.4541010260417480  0.7527049779914137   F   F   F
  0.2041189968729569  0.9541009664717990  0.7527049779914137   F   F   F
  0.7041189670704568  0.4541010260417480  0.7527049779914137   F   F   F
  0.7041189670736117  0.9541009664717990  0.7527049779914137   F   F   F
  0.4541400075181912  0.2958885133423621  0.7527269721025078   F   F   F
  0.4541400074903166  0.7958885431273401  0.7527269721025078   F   F   F
  0.9541400075071209  0.2958885133423621  0.7527269721025078   F   F   F
  0.9541400671111475  0.7958885431273401  0.7527269721025078   F   F   F
  0.2958824932447897  0.0459005012963090  0.7527049779914137   F   F   F
  0.2958824932702626  0.5459005236627235  0.7527049779914137   F   F   F
  0.7958824634454515  0.0459005012963090  0.7527049779914137   F   F   F
  0.7958824634709174  0.5459005236627235  0.7527049779914137   F   F   F
  0.7376768758734621  0.4640417037094600  0.4842211686280383   T   T   T
  0.5001605696636774  0.0007920884991309  0.5516298430991827   T   T   T
  0.4966427626118346  0.5031474245718807  0.5499939442459415   T   T   T
 -0.0001609014010798  0.0008239544228722  0.5516529583652927   T   T   T
  0.0019638061994351  0.4932355357896119  0.5503151499825139   T   T   T
  0.2502748288853342  0.2496607165370488  0.5516202924927978   T   T   T
  0.2503991709682102  0.7503491616064213  0.5517268128962235   T   T   T
  0.7542450526809706  0.2515652799035669  0.5488722426441530   T   T   T
  0.7441019804755620  0.7515202615793627  0.5504815663447833   T   T   T
  0.0005173067058419  0.0001519850768417  0.6539946927785326   T   T   T
  0.0011102298642503  0.5000338768366736  0.6535693496829741   T   T   T
  0.4994304930923050  0.0002013687919477  0.6539960238063065   T   T   T
  0.4988960506943483  0.4997060740501065  0.6534093074823094   T   T   T
  0.2500953041728962  0.2493631005547441  0.6539902145629574   T   T   T
  0.2500767520602045  0.7506259255216882  0.6540167389282273   T   T   T
  0.7497281219317357  0.2489534369131498  0.6530569774361399   T   T   T
  0.7500443918916648  0.7511964374221537  0.6536052204386126   T   T   T
  0.1433926523776833  0.1066009170058371  0.6070823780979473   T   T   T
  0.1425018395266633  0.6060361631929718  0.6069708425041803   T   T   T
  0.6440547046234156  0.1074974386588055  0.6069114102232660   T   T   T
  0.6383234847524952  0.6115489685750928  0.6081110738521597   T   T   T
  0.3574340626536606  0.3939186858651113  0.6069932664413967   T   T   T
  0.3566106126605486  0.8933867328357110  0.6070699873541229   T   T   T
  0.8615890382211213  0.3881788644178955  0.6082141200289404   T   T   T
  0.8560508031008223  0.8925958069222322  0.6069674058124871   T   T   T
  0.1067039979402897  0.3578070950167530  0.6071336776792694   T   T   T
  0.1069051064167332  0.8569586841153477  0.6071698832603430   T   T   T
  0.6047199963141275  0.3545921564187509  0.6066279050617629   T   T   T
  0.6078495018067790  0.8568139406314840  0.6071168088744735   T   T   T
  0.3931658741101659  0.1431607724129126  0.6071524855817934   T   T   T
  0.3933456909228993  0.6420905191410875  0.6070794733802646   T   T   T
  0.8920197681307697  0.1434052945140063  0.6070207938300006   T   T   T
  0.8953074127765978  0.6452228601658005  0.6066846553761651   T   T   T
  0.0000000000000000  0.0000000000000000  0.7549279928135135   F   F   F
  0.0000000000193765  0.5000000000000000  0.7549279928135135   F   F   F
  0.4999999999889297  0.0000000000000000  0.7549279928135135   F   F   F
  0.5000000000083062  0.5000000000000000  0.7549279928135135   F   F   F
  0.2500005066262148  0.2500000000000000  0.7549390196750210   F   F   F
  0.2500005066455913  0.7500000000000000  0.7549390196750210   F   F   F
  0.7500004768268695  0.2500000000000000  0.7549390196750210   F   F   F
  0.7500004768462460  0.7500000000000000  0.7549390196750210   F   F   F
  0.1357904970913637  0.1142100020970958  0.7047830224073479   F   F   F
  0.1357904970574069  0.6142100095710177  0.7047830224073479   F   F   F
  0.6357904672366530  0.1142100020970958  0.7047830224073479   F   F   F
  0.6357904672580617  0.6142100095710177  0.7047830224073479   F   F   F
  0.3642095029149104  0.3857899904289823  0.7047830224073479   F   F   F
  0.3642095029342869  0.8857899904289823  0.7047830224073479   F   F   F
  0.8642095327474735  0.3857899904289823  0.7047830224073479   F   F   F
  0.8642095327114845  0.8857899904289823  0.7047830224073479   F   F   F
  0.1142179891403217  0.3642190098927216  0.7047809958420075   F   F   F
  0.1142179891596982  0.8642190098927216  0.7047809958420075   F   F   F
  0.6142179966039976  0.3642190098927216  0.7047809958420075   F   F   F
  0.6142179965680086  0.8642190098927216  0.7047809958420075   F   F   F
  0.3857820034204806  0.1357814967840127  0.7047820091166770   F   F   F
  0.3857820033926060  0.6357815265689908  0.7047820091166770   F   F   F
  0.8857820034094104  0.1357814967840127  0.7047820091166770   F   F   F
  0.8857820033815287  0.6357815265689908  0.7047820091166770   F   F   F
  0.1346669942216394  0.1153320073988340  0.8012560009966521   F   F   F
  0.1346669941856504  0.6153320073988340  0.8012560009966521   F   F   F
  0.6346669793164352  0.1153320073988340  0.8012560009966521   F   F   F
  0.6346669793358117  0.6153320073988340  0.8012560009966521   F   F   F
  0.3653329908925258  0.3846679926011660  0.8012560009966521   F   F   F
  0.3653329908565368  0.8846679926011589  0.8012560009966521   F   F   F
  0.8653329610931877  0.3846679926011660  0.8012560009966521   F   F   F
  0.8653329610571987  0.8846679926011589  0.8012560009966521   F   F   F
  0.1153285056432978  0.3653370142087482  0.8012650012928191   F   F   F
  0.1153285056073088  0.8653370142087482  0.8012650012928191   F   F   F
  0.6153284907380936  0.3653370142087482  0.8012650012928191   F   F   F
  0.6153284907574701  0.8653370142087482  0.8012650012928191   F   F   F
  0.3846715092631925  0.1346630006837373  0.8012650012928191   F   F   F
  0.3846715092785189  0.6346629857912518  0.8012650012928191   F   F   F
  0.8846715092521222  0.1346630006837373  0.8012650012928191   F   F   F
  0.8846715092674415  0.6346629857912518  0.8012650012928191   F   F   F
 -0.0014719633466891  0.0003289245731233  0.6024645133147092   T   T   T
 -0.0032335356979955  0.5006918817311037  0.6013762255332241   T   T   T
  0.5014184168228271 -0.0002737577133979  0.6024492944914638   T   T   T
  0.5031621329028191  0.4990766209731965  0.6014121245636292   T   T   T
  0.2496690871281549  0.2514737361399177  0.6024628160425725   T   T   T
  0.2502861297156019  0.7484918922939060  0.6025207312917391   T   T   T
  0.7491126488876314  0.2536632632046033  0.6011967165318408   T   T   T
  0.7508686485953058  0.7466595037963943  0.6015754365931609   T   T   T
  0.0000005000032601  0.0000004999778866  0.7048289775829417   F   F   F
  0.0000005000163412  0.5000004768364050  0.7048289775829417   F   F   F
  0.5000004768481432  0.0000004999778866  0.7048289775829417   F   F   F
  0.5000004768612172  0.5000004768364050  0.7048289775829417   F   F   F
  0.2499999999728644  0.2499994784861386  0.7048249840801901   F   F   F
  0.2500000000044054  0.7499995231635950  0.7048249840801901   F   F   F
  0.7500000000171596  0.2499994784861386  0.7048249840801901   F   F   F
  0.7499999999933351  0.7499995231635950  0.7048249840801901   F   F   F
  0.0000000000000000  0.0000000000000000  0.8073179721848831   F   F   F
  0.0000000000193765  0.5000000000000000  0.8073179721848831   F   F   F
  0.4999999999889297  0.0000000000000000  0.8073179721848831   F   F   F
  0.5000000000083062  0.5000000000000000  0.8073179721848831   F   F   F
  0.2500000000041496  0.2500000000000000  0.8073179721848831   F   F   F
  0.2500000000235332  0.7500000000000000  0.8073179721848831   F   F   F
  0.7499999999930793  0.2500000000000000  0.8073179721848831   F   F   F
  0.7500000000124558  0.7500000000000000  0.8073179721848831   F   F   F
 
  0.00000000E+00  0.00000000E+00  0.00000000E+00
  0.00000000E+00  0.00000000E+00  0.00000000E+00
  0.00000000E+00  0.00000000E+00  0.00000000E+00
  0.00000000E+00  0.00000000E+00  0.00000000E+00
  0.00000000E+00  0.00000000E+00  0.00000000E+00
  0.00000000E+00  0.00000000E+00  0.00000000E+00
  0.00000000E+00  0.00000000E+00  0.00000000E+00
  0.00000000E+00  0.00000000E+00  0.00000000E+00
  0.00000000E+00  0.00000000E+00  0.00000000E+00
  0.00000000E+00  0.00000000E+00  0.00000000E+00
  0.00000000E+00  0.00000000E+00  0.00000000E+00
  0.00000000E+00  0.00000000E+00  0.00000000E+00
  0.00000000E+00  0.00000000E+00  0.00000000E+00
  0.00000000E+00  0.00000000E+00  0.00000000E+00
  0.00000000E+00  0.00000000E+00  0.00000000E+00
  0.00000000E+00  0.00000000E+00  0.00000000E+00
  0.00000000E+00  0.00000000E+00  0.00000000E+00
  0.00000000E+00  0.00000000E+00  0.00000000E+00
  0.00000000E+00  0.00000000E+00  0.00000000E+00
  0.00000000E+00  0.00000000E+00  0.00000000E+00
  0.00000000E+00  0.00000000E+00  0.00000000E+00
  0.00000000E+00  0.00000000E+00  0.00000000E+00
  0.00000000E+00  0.00000000E+00  0.00000000E+00
  0.00000000E+00  0.00000000E+00  0.00000000E+00
  0.00000000E+00  0.00000000E+00  0.00000000E+00
  0.00000000E+00  0.00000000E+00  0.00000000E+00
  0.00000000E+00  0.00000000E+00  0.00000000E+00
  0.00000000E+00  0.00000000E+00  0.00000000E+00
  0.00000000E+00  0.00000000E+00  0.00000000E+00
  0.00000000E+00  0.00000000E+00  0.00000000E+00
  0.00000000E+00  0.00000000E+00  0.00000000E+00
  0.00000000E+00  0.00000000E+00  0.00000000E+00
  0.00000000E+00  0.00000000E+00  0.00000000E+00
  0.00000000E+00  0.00000000E+00  0.00000000E+00
  0.00000000E+00  0.00000000E+00  0.00000000E+00
  0.00000000E+00  0.00000000E+00  0.00000000E+00
  0.00000000E+00  0.00000000E+00  0.00000000E+00
  0.00000000E+00  0.00000000E+00  0.00000000E+00
  0.00000000E+00  0.00000000E+00  0.00000000E+00
  0.00000000E+00  0.00000000E+00  0.00000000E+00
  0.00000000E+00  0.00000000E+00  0.00000000E+00
  0.00000000E+00  0.00000000E+00  0.00000000E+00
  0.00000000E+00  0.00000000E+00  0.00000000E+00
  0.00000000E+00  0.00000000E+00  0.00000000E+00
  0.00000000E+00  0.00000000E+00  0.00000000E+00
  0.00000000E+00  0.00000000E+00  0.00000000E+00
  0.00000000E+00  0.00000000E+00  0.00000000E+00
  0.00000000E+00  0.00000000E+00  0.00000000E+00
  0.00000000E+00  0.00000000E+00  0.00000000E+00
  0.00000000E+00  0.00000000E+00  0.00000000E+00
  0.00000000E+00  0.00000000E+00  0.00000000E+00
  0.00000000E+00  0.00000000E+00  0.00000000E+00
  0.00000000E+00  0.00000000E+00  0.00000000E+00
  0.00000000E+00  0.00000000E+00  0.00000000E+00
  0.00000000E+00  0.00000000E+00  0.00000000E+00
  0.00000000E+00  0.00000000E+00  0.00000000E+00
  0.00000000E+00  0.00000000E+00  0.00000000E+00
  0.00000000E+00  0.00000000E+00  0.00000000E+00
  0.00000000E+00  0.00000000E+00  0.00000000E+00
  0.00000000E+00  0.00000000E+00  0.00000000E+00
  0.00000000E+00  0.00000000E+00  0.00000000E+00
  0.00000000E+00  0.00000000E+00  0.00000000E+00
  0.00000000E+00  0.00000000E+00  0.00000000E+00
  0.00000000E+00  0.00000000E+00  0.00000000E+00
  0.00000000E+00  0.00000000E+00  0.00000000E+00
  0.00000000E+00  0.00000000E+00  0.00000000E+00
  0.00000000E+00  0.00000000E+00  0.00000000E+00
  0.00000000E+00  0.00000000E+00  0.00000000E+00
  0.00000000E+00  0.00000000E+00  0.00000000E+00
  0.00000000E+00  0.00000000E+00  0.00000000E+00
  0.00000000E+00  0.00000000E+00  0.00000000E+00
  0.00000000E+00  0.00000000E+00  0.00000000E+00
  0.00000000E+00  0.00000000E+00  0.00000000E+00
  0.00000000E+00  0.00000000E+00  0.00000000E+00
  0.00000000E+00  0.00000000E+00  0.00000000E+00
  0.00000000E+00  0.00000000E+00  0.00000000E+00
  0.00000000E+00  0.00000000E+00  0.00000000E+00
  0.00000000E+00  0.00000000E+00  0.00000000E+00
  0.00000000E+00  0.00000000E+00  0.00000000E+00
  0.00000000E+00  0.00000000E+00  0.00000000E+00
  0.00000000E+00  0.00000000E+00  0.00000000E+00
  0.00000000E+00  0.00000000E+00  0.00000000E+00
  0.00000000E+00  0.00000000E+00  0.00000000E+00
  0.00000000E+00  0.00000000E+00  0.00000000E+00
  0.00000000E+00  0.00000000E+00  0.00000000E+00
  0.00000000E+00  0.00000000E+00  0.00000000E+00
  0.00000000E+00  0.00000000E+00  0.00000000E+00
  0.00000000E+00  0.00000000E+00  0.00000000E+00
  0.00000000E+00  0.00000000E+00  0.00000000E+00
  0.00000000E+00  0.00000000E+00  0.00000000E+00
  0.00000000E+00  0.00000000E+00  0.00000000E+00
  0.00000000E+00  0.00000000E+00  0.00000000E+00
  0.00000000E+00  0.00000000E+00  0.00000000E+00
  0.00000000E+00  0.00000000E+00  0.00000000E+00
  0.00000000E+00  0.00000000E+00  0.00000000E+00
  0.00000000E+00  0.00000000E+00  0.00000000E+00
  0.00000000E+00  0.00000000E+00  0.00000000E+00
  0.00000000E+00  0.00000000E+00  0.00000000E+00
  0.00000000E+00  0.00000000E+00  0.00000000E+00
  0.00000000E+00  0.00000000E+00  0.00000000E+00
  0.00000000E+00  0.00000000E+00  0.00000000E+00
  0.00000000E+00  0.00000000E+00  0.00000000E+00
  0.00000000E+00  0.00000000E+00  0.00000000E+00
  0.00000000E+00  0.00000000E+00  0.00000000E+00
  0.00000000E+00  0.00000000E+00  0.00000000E+00
  0.00000000E+00  0.00000000E+00  0.00000000E+00
  0.00000000E+00  0.00000000E+00  0.00000000E+00
  0.00000000E+00  0.00000000E+00  0.00000000E+00
  0.00000000E+00  0.00000000E+00  0.00000000E+00
  0.00000000E+00  0.00000000E+00  0.00000000E+00
  0.00000000E+00  0.00000000E+00  0.00000000E+00
  0.00000000E+00  0.00000000E+00  0.00000000E+00
  0.00000000E+00  0.00000000E+00  0.00000000E+00
  0.00000000E+00  0.00000000E+00  0.00000000E+00
  0.00000000E+00  0.00000000E+00  0.00000000E+00
  0.00000000E+00  0.00000000E+00  0.00000000E+00
  0.00000000E+00  0.00000000E+00  0.00000000E+00
  0.00000000E+00  0.00000000E+00  0.00000000E+00
  0.00000000E+00  0.00000000E+00  0.00000000E+00
  0.00000000E+00  0.00000000E+00  0.00000000E+00