 H  C  N  I Pb 
 1.0000000000000000
    18.0608005523681641    0.0000000000000000    0.0000000000000000
    -0.0049186488613486   18.0627994537353516    0.0000000000000000
     0.0000000000000000    0.0000000000000000   62.4874992370605469
 H   C   N   I   Pb 
 143  39  47  72  24
Cartesian
  7.9008417129516602  5.4936270713806152 35.8653182983398438
  7.8435497283935547 15.0715332031250000 35.9058380126953125
 17.7731018066406250  5.6433382034301758 36.4029121398925781
 17.4503307342529297 14.5191621780395508 36.3619308471679759
  5.7168459156528115 17.6137895584106445 36.0444412231445312
  5.7748584747314444 10.1297054290771484 36.0770530700683665
 14.3320875167846680  1.2443596124649048 36.3546638488769602
  0.7797145843505879  2.4659376144409180 35.0688934326171875
  1.0111007690429694 11.5790872573852539 34.9764213562011719
 10.5445213317871094  3.3990523815155029 34.5646247863769602
  9.6920576095581037 12.0336532592773420 35.2041931152343750
  6.3085002899169922  0.6283037662506104 34.8286781311035156
  5.1559829711914062 11.1760740280151367 34.8408050537109375
 15.5792512893676758  0.8778909444808960 35.2225608825683594
  0.3384704589843754  3.1966741085052490 36.5644149780273438
  0.3045825958251960 12.1957511901855469 36.4316253662109375
 10.1881408691406232  4.6647849082946777 35.7069129943847656
  8.4909095764160156 12.6953115463256836 36.3280067443847656
  4.7879881858825684  7.8403944969177246 36.2026977539062500
  3.2613515118137002 17.0592333078384399 35.9943656921386719
 12.2561945179477334 17.9732841700315475 36.2750091552734375
  6.7004699707031241  4.7125625610351562 34.8628158569335938
  8.7210521697998047 15.9165239334106445 34.6526184082031250
  0.1115875244140637  6.4593253135681143 34.9113769531250000
 17.6994876861572266 15.4194011688232422 34.9151420593261719
  3.4546790122985840  7.5018858909606934 35.1125755310058594
  2.3056682804599404 17.8842346519231796 34.8032417297363281
 12.2565607288852334 16.6368483304977417 35.1364631652832031
  8.2825984954833984  3.3265838623046875 33.8483161926269531
  9.9574232101440412 14.0212211608886719 34.0634346008300852
  0.7076492309570315  4.4405274391174316 33.8517837524414062
  0.6582393646240259 13.5896596908569336 33.8274879455566406
  3.6238617897033691  9.5793342590332031 34.0830039978027344
  4.1600861549377441  0.9671405553817749 33.9309425354003977
 14.3413767078891379 17.1242538690567052 34.3291893005371094
  8.4137125015258789  5.7226977348327637 42.1136474609375000
  7.8120913505554199 14.8011331558227539 41.9303436279296946
 17.5512771606445348  4.9934196472167969 42.6317024230957031
 16.6949970722198522 13.9850540161132795 42.0997352600097656
  5.3650126457214355  0.9958544373512268 42.1717643737792969
  5.5625796318054199  9.8123836517333984 42.1603088378906250
 14.2357025146484357  1.1144922971725464 42.2116394042968821
 14.4511499404907227 10.6226921081542969 41.7980804443359375
  1.5350153446197510  3.0414500236511230 40.2903175354003906
  1.8287267684936523 12.6397390365600586 40.9926605224609375
 10.3481817245483398  2.9378075599670410 40.7375640869140625
 10.3738574981689453 12.2467317581176758 41.1135826110839844
  3.2129571437835693  7.4517245292663574 40.5948066711425781
  3.1874756077304482 16.5482430458068848 40.5809707641601562
 12.6370754241943359  7.4796915054321289 41.2633552551269531
 12.1923126438632607 16.6384752988815343 40.4987068176269531
  1.2544931173324585  3.2401981353759766 41.9915313720703196
  0.7343850135803223 12.5174894332885742 42.3113212585449290
 10.3745918273925781  4.1055250167846680 42.0194358825683665
  9.5742702484130842 12.9908952713012695 42.5143241882324290
  3.8209023475646973  7.8479385375976562 42.1514167785644602
  3.5818945625796914 17.1112101078033447 42.1486587524414062
 12.7244606018066406  8.8005485534667969 42.4032478332519602
 12.4122213581576943 17.3031967878341675 42.0780143737792969
  7.2243089675903320  5.4529271125793457 40.8875083923339915
  7.6303806304931641 15.0496015548706055 40.2226600646972656
 16.8262877464294434  5.8057174682617188 41.2453041076660227
 16.6163866519927979 14.9420833587646484 40.6387481689453196
  5.9005928039550781  1.4596772193908691 40.5928039550781321
  5.8448367118835449 10.5013246536254883 40.6021575927734446
 15.0128221511840820  1.4385359287261961 40.7028388977050781
 15.2022790908813477 10.4398021697998047 40.2516670227050781
 18.0502438396215474  4.6487722396850586 39.7030181884765625
  0.5766118764877319 14.1615724563598633 39.8417816162109446
  8.3410930633544922  3.6926226615905762 39.9276466369628906
  9.2223005294799805 13.4814691543579084 39.6066932678222656
  4.5898546436801553 17.9939991682767868 39.4778366088867188
  4.4261584281921387  9.0740242004394531 39.4990386962890696
 13.8036016682162881 17.9471844136714935 39.5180168151855540
 14.1600131988525391  8.4129276275634766 39.8188400268554688
  8.1032123565673828  5.4420318603515616 48.0459518432617259
  8.1007528305053711 14.4734306335449219 48.0459518432617259
 17.1336116790771484  5.4420318603515616 48.0459518432617259
 17.1311531066894531 14.4734306335449219 48.0459518432617259
  5.4410333633422852  0.9265221953392029 48.0449485778808594
  5.4385743141174316  9.9579219818115234 48.0449485778808594
 14.4714326858520490  0.9265221953392029 48.0449485778808594
 14.4689741134643555  9.9579219818115234 48.0449485778808594
  1.4218254089355467  3.0919990539550781 46.4558296203613281
  1.4193661212921143 12.1233978271484375 46.4558296203613281
 10.4522256851196289  3.0919990539550781 46.4558296203613281
 10.4497661590576172 12.1233978271484375 46.4558296203613281
  3.0899283885955806  7.6075901985168457 46.4545211791992188
  3.0874691009521484 16.6389904022216797 46.4545211791992188
 12.1203289031982422  7.6075901985168457 46.4545211791992188
 12.1178693771362305 16.6389904022216797 46.4545211791992188
  0.9247469902038573  3.5893490314483643 48.0459518432617259
  0.9222877025604248 12.6207475662231445 48.0459518432617259
  9.9551477432250977  3.5893490314483643 48.0459518432617259
  9.9526882171630859 12.6207475662231445 48.0459518432617259
  3.5868983268737793  8.1048498153686523 48.0448913574218821
  3.5844390392303462 17.1362495422363281 48.0448913574218821
 12.6172990798950195  8.1048498153686523 48.0448913574218821
 12.6148395538330078 17.1362495422363281 48.0448913574218821
  7.6061611175537109  5.9393639564514160 46.4558296203613281
  7.6037015914916992 14.9707632064819336 46.4558296203613281
 16.6365604400634766  5.9393639564514160 46.4558296203613281
 16.6341018676757812 14.9707632064819336 46.4558296203613281
  5.9380125999450684  1.4238001108169553 46.4545211791992188
  5.9355530738830566 10.4551992416381836 46.4545211791992188
 14.9684123992919904  1.4238001108169553 46.4545211791992188
 14.9659538269042951 10.4551992416381836 46.4545211791992188
 -0.0011664569610730  4.5157265663146973 45.3548011779785156
 -0.0036257810425013 13.5471258163452148 45.3548011779785156
  9.0292339324951172  4.5157265663146973 45.3548011779785156
  9.0267744064331037 13.5471258163452148 45.3548011779785156
  4.5152091979980469  0.0000000000000000 45.3536758422851562
  4.5127501487731934  9.0313997268676740 45.3536758422851562
 13.5456094741821289  0.0000000000000000 45.3536758422851562
 13.5431499481201172  9.0313997268676740 45.3536758422851562
 13.9863691329956055 10.0362768173217773 32.6422615051269531
 13.0589799880981445  8.5418796539306641 32.9278335571289062
 15.7391958236694336  9.0344867706298828 33.9735717773437500
 15.4179649353027326  8.6322021484375000 35.6539306640625000
 13.3985671997070312 11.4886627197265625 35.0464935302734375
 14.4939146041870117 10.7515735626220703 36.2487220764160156
 11.9988222122192365  9.8274898529052734 35.6931953430175781
 12.2202148437500000  8.1753482818603516 35.0367813110351562
 11.1073255538940430  9.9110631942749023 33.6621665954589844
 12.0404758453369141 11.4045705795288086 33.6907463073730540
 10.9952068328857422 11.6951465606689435 31.6891441345214844
 12.4254159927368164 10.8963308334350586 31.0841808319091797
 14.9039621353149414  6.9695425033569336 33.1725997924804688
 13.7760486602783185  6.7750902175903320 34.4976119995117259
 15.4684324264526367  6.5387001037597656 34.7697105407714844
 15.5933761596679670 12.4760942459106445 34.8740653991699290
 15.3239316940307599 11.5584497451782227 33.4044914245605469
 16.3899879455566406 10.9273481369018555 34.6806182861328125
 13.6955423355102521  9.3530979156494141 37.5498313903808594
 13.8911380767822266  7.6778874397277832 36.9052238464355469
 12.3037128448486328  8.2085103988647461 37.5235481262207102
  9.6827411651611328  9.6670522689819336 31.6365489959716797
 10.3724412918090820 10.0113639831542969 30.0307006835937536
 12.6391019821166992  8.7606067657470703 29.4496974945068359
 10.0771656036376953  7.5817279815673828 32.6779975891113281
 13.8392362594604492  6.5792827606201172 29.5815887451171875
 11.2502174377441388  5.4116706848144531 32.8422813415527344
 13.1331195831298828  4.9023275375366211 31.3104515075683629
  0.3929977416992200  4.4376883506774902 34.8960266113281250
  0.3212566375732445 13.4911413192749006 34.8385124206542969
  8.5830097198486328  4.0307245254516602 34.6159133911132812
  9.2198648452758789 13.9622249603271484 34.8708839416503977
  4.2946562767028809  9.3337574005126953 34.9064178466796875
  4.2973127365112305  0.2636694014072418 34.7531509399414062
 13.9200214603915811 17.7543258070945740 35.1168937683105469
  0.1388163268566132  4.4320507049560547 40.7593383789062571
  0.1885068565607071 13.8002195358276367 40.7940673828125000
  8.7827777862548828  4.1883826255798340 40.7772293090820312
  9.0024251937866211 13.6525154113769531 40.6475906372070312
  4.5266318321228027  8.9742412567138672 40.5699577331542969
  4.5437778690829864 18.0380274914205074 40.5619659423828125
 13.9067239761352521  8.9423217773437500 40.7313842773437500
 13.6172952651977539  0.0098034963011742 40.5769958496093750
  9.0289716720581055  4.5156092643737793 46.4455223083496165
  9.0265130996704102 13.5470085144042969 46.4455223083496165
 18.0593719482421875  4.5156092643737793 46.4455223083496165
 18.0569133758544922 13.5470085144042969 46.4455223083496165
  4.5152091979980469  0.0000180629995157 46.4442062377929759
  4.5127501487731934  9.0314178466796857 46.4442062377929759
 13.5456094741821289  0.0000180629995157 46.4442062377929759
 13.5431499481201172  9.0314178466796857 46.4442062377929759
 11.2923431396484375  8.3419332504272461 31.0774536132812500
 12.3511114120483381  8.0157327651977539 30.2137813568115270
 10.9055137634277344  7.3569312095642090 32.0081825256347656
 12.9960460662841797  6.7876176834106445 30.2777404785156286
 11.5537109375000000  6.1311569213867188 32.0841102600097656
 12.6090536117553711  5.8544130325317374 31.2193241119384766
 13.1930980682373047  9.5904464721679688 33.2592430114746094
 15.0051956176757812  8.5722017288208008 34.6394882202148509
 14.2621936798095703 10.8532743453979492 35.1798744201660156
 12.7184000015258771  8.9863519668579102 35.5921783447265625
 11.9390411376953125 10.4219341278076154 33.1702156066894531
 11.5366392135620117 10.7570953369140625 31.7231636047363281
 14.7518491744995099  7.1597299575805664 34.2361946105957031
 15.4645156860351545 11.4609394073486328 34.4828491210937500
 13.2046985626220685  8.5454397201538086 36.9615974426269602
 10.6354236602783203  9.6931762695312500 31.0652236938476598
  0.5010204315185555  3.3280048370361324 35.5511131286621094
  0.5777339935302718 12.3694229125976562 35.4569816589355469
  9.8460645675659180  4.0210356712341309 34.9708557128906250
  9.1439104080200195 12.8324403762817383 35.5350608825683665
  7.6865510940551758  4.8437695503234854 35.0969581604003906
  8.5083465576171875 15.0312528610229474 35.1309509277343750
 18.0151939392089844  5.5644073486328125 35.3977851867675781
 17.7378749847412109 14.5048236846923828 35.3841781616211009
  4.1874442100524902  8.1356048583984375 35.4379806518554688
  3.2369231441989541 17.6805705428123474 35.1982078552246165
 12.7088627079501748 17.5019495487213135 35.5084838867187500
  5.4824581146240234  0.1591901928186417 35.2679023742675781
  5.1269536018371582 10.2379713058471680 35.3167991638183594
 14.6744146347045898  0.6334059238433837 35.6415710449218750
  1.0358541011810303  3.5045809745788574 41.0353431701660156
  0.9536910057067871 12.9216375350952148 41.4224319458007812
  9.9256010055541992  3.7164192199707031 41.2183380126953125
  9.6835765838623029 12.9287052154541016 41.4941635131835938
  3.8201100826263428  8.0423212051391602 41.1521377563476562
  3.7354270676150918 17.2037450075149536 41.1548957824707102
 13.0317573547363281  8.3860454559326172 41.5301399230957031
 12.6950353840366006 17.3050341606140137 41.1045112609863281
  8.1179761886596680  5.1839356422424316 41.2882270812988352
  8.1006937026977539 14.5457487106323242 40.9633941650390625
 17.4897513389587438  5.1047201156616211 41.6082382202148509
 17.0951654314994812 14.2530622482299787 41.2144203186035156
  5.3102593421936035  0.8534656763076782 41.1553611755371094
  5.3457250595092773  9.8017625808715820 41.1700439453125071
 14.3206386566162092  0.9022439718246460 41.2142562866210938
 14.5295200347900391 10.0792369842529279 40.9509849548339844
  0.8273094892501831  3.6869695186614990 47.0359649658203125
  0.8248501420021057 12.7183685302734375 47.0359649658203125
  9.8577098846435547  3.6869695186614990 47.0359649658203125
  9.8552503585815412 12.7183685302734375 47.0359649658203125
  3.6843190193176270  8.2023353576660156 47.0346527099609375
  3.6818594932556152 17.2337341308593750 47.0346527099609375
 12.7147188186645508  8.2023353576660156 47.0346527099609375
 12.7122592926025391 17.2337341308593750 47.0346527099609375
  8.2006769180297852  5.3445744514465332 47.0360260009765696
  8.1982173919677734 14.3759746551513672 47.0360260009765696
 17.2310771942138672  5.3445744514465332 47.0360260009765696
 17.2286186218261719 14.3759746551513672 47.0360260009765696
  5.3436489105224600  0.8290914893150328 47.0346527099609375
  5.3411893844604483  9.8604917526245117 47.0346527099609375
 14.3740482330322266  0.8290914893150328 47.0346527099609375
 14.3715896606445312  9.8604917526245117 47.0346527099609375
 13.8047170639038086  9.5024728775024414 34.6627693176269602
  9.0661659240722638  0.4351311922073364 34.5025749206542969
  8.5015153884887695  9.2069311141967773 34.8075942993164062
 17.8357079336419702 17.9967910647392273 34.3741836547851562
  0.6678516864776611  8.9222345352172852 34.5539169311523438
  4.1392631530761719  4.2369823455810547 34.5224304199218750
  4.6748700141906738 13.7355403900146484 34.5560226440429688
 13.4322309494018555  3.7708961963653564 34.7003173828125000
 12.9061498641967756 14.2349624633789062 34.2149887084960938
  0.0208085840567946 17.9240491986274719 40.8793945312500000
  0.2430084645748138  8.9917383193969727 40.9693908691406250
  8.9653749465942383  0.1118359640240669 40.9126129150390696
  9.1021881103515625  8.8974275588989258 40.9722366333007812
  4.5761084556579590  4.4503507614135742 40.9368782043457031
  4.4312276840209961 13.5977630615234375 40.8847084045410227
 13.4173765182495117  4.7458548545837402 40.9290313720703125
 13.5812377929687500 13.6285018920898438 40.8462409973144531
  2.5452857017517090  1.8760344982147217 38.1754150390625000
  2.6451730728149414 10.9353485107421875 38.0843162536621094
 11.7471895217895508  1.8576794862747192 38.1854286193847656
 11.1453514099121094 11.4995326995849609 38.4047012329101562
  6.3951725959777832  7.0572028160095215 38.0544929504394602
  6.5284118652343750 16.1064205169677734 38.0075645446777415
 16.1240596771240234  6.5447187423706055 38.3844757080078196
 15.6156358718872070 15.9408578872680664 38.0641098022460938
  2.1112561225891113  6.4515805244445792 38.2087707519531250
  2.1054196357727051 15.6552858352661115 37.9710426330566406
 10.4390735626220703  5.9300560951232910 37.8673744201660156
 11.0996961593627930 15.6266956329345703 38.2285842895507812
  6.9178051948547363  2.3814723491668701 37.9459190368652344
  7.0197920799255362 11.5663242340087891 38.2548713684082031
 16.0485324859619141  2.5321300029754639 38.2572212219238281
 16.4899654388427734 11.6960067749023438 38.4387588500976562
  0.0000000000000000  0.0000000000000000 47.1735610961914062
 -0.0024593239650130  9.0313997268676740 47.1735610961914062
  9.0304002761840803  0.0000000000000000 47.1735610961914062
  9.0279407501220685  9.0313997268676740 47.1735610961914062
  4.5139794349670410  4.5156998634338379 47.1742515563964844
  4.5115203857421875 13.5470991134643537 47.1742515563964844
 13.5443792343139648  4.5156998634338379 47.1742515563964844
 13.5419197082519531 13.5470991134643537 47.1742515563964844
  2.4519233703613277  2.0629522800445557 44.0401268005371165
  2.4494640827178955 11.0943517684936523 44.0401268005371165
 11.4823226928710920  2.0629522800445557 44.0401268005371165
 11.4798641204833984 11.0943517684936523 44.0401268005371165
  6.5760178565979004  6.9684472084045410 44.0401268005371165
  6.5735583305358887 15.9998464584350586 44.0401268005371165
 15.6064186096191406  6.9684472084045410 44.0401268005371165
 15.6039590835571289 15.9998464584350586 44.0401268005371165
  2.0610768795013428  6.5788145065307617 44.0400009155273509
  2.0586175918579102 15.6102142333984375 44.0400009155273509
 11.0914773941040039  6.5788145065307617 44.0400009155273509
 11.0890178680419922 15.6102142333984375 44.0400009155273509
  6.9668641090393066  2.4525938034057613 44.0400657653808665
  6.9644045829772949 11.4839935302734375 44.0400657653808665
 15.9972639083862305  2.4525938034057613 44.0400657653808665
 15.9948053359985352 11.4839935302734375 44.0400657653808665
  2.4316265583038330  2.0832188129425049 50.0684852600097656
  2.4291670322418213 11.1146183013915998 50.0684852600097656
 11.4620265960693359  2.0832188129425049 50.0684852600097656
 11.4595670700073224 11.1146183013915998 50.0684852600097656
  6.5963144302368164  6.9481806755065918 50.0684852600097656
  6.5938549041748047 15.9795799255371076 50.0684852600097656
 15.6267137527465803  6.9481806755065918 50.0684852600097656
 15.6242542266845703 15.9795799255371076 50.0684852600097656
  2.0811281204223633  6.5990090370178223 50.0690460205078125
  2.0786688327789307 15.6304082870483398 50.0690460205078125
 11.1115283966064453  6.5990090370178223 50.0690460205078125
 11.1090688705444336 15.6304082870483398 50.0690460205078125
  6.9468131065368652  2.4323906898498531 50.0690460205078125
  6.9443535804748535 11.4637899398803711 50.0690460205078125
 15.9772129058837891  2.4323906898498531 50.0690460205078125
 15.9747543334960938 11.4637899398803711 50.0690460205078125
 17.9499845355749130  0.0026995271909982 37.8241119384765625
  0.1106284707784653  9.0119657516479492 37.9115791320800781
  9.0616807937622070  0.1490615010261536 37.7112960815429688
  8.9648380279541016  8.9397239685058594 37.8420829772949219
  4.4324731826782227  4.4037246704101562 37.6926193237304688
  4.4792227745056152 13.4756622314453125 37.6436691284179688
 13.4294271469116211  4.4938197135925293 37.7278671264648438
 13.3384094238281250 13.6280946731567365 37.6735153198242188
  0.0000090280000222  0.0000090310004452 44.0429992675781250
 -0.0024502959568053  9.0314083099365234 44.0429992675781250
  9.0304088592529297  0.0000090310004452 44.0429992675781250
  9.0279493331909180  9.0314083099365234 44.0429992675781250
  4.5139703750610352  4.5156903266906738 44.0427513122558594
  4.5115113258361816 13.5470905303955078 44.0427513122558594
 13.5443706512451172  4.5156903266906738 44.0427513122558594
 13.5419111251831037 13.5470905303955078 44.0427513122558594
  0.0000000000000000  0.0000000000000000 50.4472808837890696
 -0.0024593239650130  9.0313997268676740 50.4472808837890696
  9.0304002761840803  0.0000000000000000 50.4472808837890696
  9.0279407501220685  9.0313997268676740 50.4472808837890696
  4.5139703750610352  4.5156998634338379 50.4472808837890696
  4.5115113258361816 13.5470991134643537 50.4472808837890696
 13.5443706512451172  4.5156998634338379 50.4472808837890696
 13.5419111251831055 13.5470991134643537 50.4472808837890696
