 H  C  N  I Pb 
 1.0000000000000000
    18.0608005523681641    0.0000000000000000    0.0000000000000000
    -0.0049186488613486   18.0627994537353516    0.0000000000000000
     0.0000000000000000    0.0000000000000000   62.4874992370605469
 H   C   N   I   Pb 
 143  39  47  72  24
Cartesian
  8.0320167541503906  5.3372330665588379 36.3730545043945312
  7.8995618820190430 14.2827644348144531 36.3121757507324219
 17.0338287353515625  5.3497381210327148 36.4670448303222656
 17.2220745086669922 14.4525070190429688 36.2834587097168040
  5.4317283630371094  0.9142324924468994 36.3322830200195312
  5.4758543968200684 10.2270030975341797 36.2619895935058594
 14.2791604995727521  1.1160047054290771 36.3286705017089844
  1.4409008026123067  3.1244361400604248 34.8936653137207031
  1.5968856811523422 12.2719678878784180 34.7735328674316406
 10.6698627471923828  3.3551306724548340 34.8374786376953125
 10.6181316375732422 12.4791727066040039 34.8059043884277344
  6.1224098205566406  1.1589480638504028 34.7824363708496094
  5.7635197639465332 10.6352148056030273 34.6245155334472727
 14.9035158157348615  1.4919637441635132 34.7790946960449219
  1.0624160766601585  3.7216420173645020 36.4620819091796875
  0.8463630676269551 12.6885862350463867 36.2782630920410156
  9.9771423339843750  3.6943409442901611 36.3684120178222656
  9.8642930984497070 12.7349967956542969 36.4014625549316406
  3.8619830608367920  8.1897840499877930 36.5572242736816477
  3.3658785084262490 17.3576897382736206 36.3239631652832031
 12.6363224247470498 17.1366628408432007 36.3322830200195312
  7.4532680511474609  5.8657307624816886 34.8097686767578125
  7.4667644500732413 14.9769067764282227 34.7592086791992188
 16.3958892822265625  5.6263790130615234 34.8766174316406250
 16.8118820190429688 15.1850490570068359 34.7719001770019531
  3.3090791702270508  7.5127577781677237 35.0820350646972727
  2.9690148094668984 16.7552956342697179 34.7690467834472656
 12.3998512485995889 16.4300272464752197 34.7837982177734375
  9.0900278091430664  4.6496076583862305 33.6493377685546875
  9.2099714279174805 13.7969961166381836 33.6670646667480469
 17.7933712005615234  4.1638493537902832 33.8446807861328125
  0.3264045715332056 13.8622837066650373 33.5982742309570312
  4.4254288673400879  8.9509935379028320 33.7162895202636719
  4.6258253315463662 17.8374397009611130 33.6436538696289062
 13.8128332355991006 17.9016230702400243 33.6524505615234375
  8.0314502716064453  5.4802861213684082 42.0240287780761719
  8.0401735305786133 14.3916921615600586 42.1581153869628906
 17.0327637195587158  5.5258555412292472 41.9471359252929759
 17.0751469135284424 14.4546451568603498 42.1931152343750000
  5.3940887451171875  0.9385851025581359 42.1597328186035156
  5.5129389762878418  9.9376602172851562 42.1232376098632812
 14.6201887130737305  1.0303803682327271 42.0441780090332031
 14.3893833160400391 10.0333194732666016 42.0428733825683665
  1.3812756538391113  3.0299577713012691 40.6717643737793040
  1.4652538299560547 12.1907749176025373 40.5704383850097727
 10.4526643753051758  3.1035208702087402 40.6178321838378906
 10.3591756820678711 12.1664533615112305 40.5636940002441406
  3.0467922687530518  7.6508851051330566 40.6116905212402344
  3.1476232269778848 16.5154323577880859 40.5932502746582031
 12.1472148895263672  7.4158701896667480 40.9694747924804688
 12.0892023304477334 16.7314330339431763 40.7552719116211009
  0.7294319272041321  3.6494119167327881 42.1543846130371094
  0.8944628238677979 12.6737365722656250 42.1375045776367259
  9.7942790985107422  3.6010789871215820 42.1443939208984375
  9.8738508224487305 12.6289081573486328 42.1564941406250000
  3.6519715785980225  8.1803407669067383 42.1797485351562571
  3.6262704590335488 17.1300076842308044 42.1737861633300781
 12.7186956405639648  8.0753879547119141 42.4505004882812500
 12.7398447254672647 17.3634427785873413 42.2662353515625000
  7.6468644142150879  6.0814952850341797 40.4049453735351562
  7.5042510032653809 14.9830417633056641 40.5874977111816406
 16.6558004617691076  5.9294347763061523 40.3060989379882812
 16.5289731025695801 14.9753456115722638 40.6141357421875000
  5.9603791236877441  1.4395605325698850 40.5697288513183665
  6.0220799446105957 10.4656133651733381 40.5209999084472656
 15.0314722061157209  1.4265861511230469 40.4102020263671946
 14.7012395858764648 10.4602413177490217 40.3930778503418040
  0.0778405144810677  4.4414477348327637 39.4042549133300781
 17.9988142438232899 13.6047582626342756 39.4467353820800781
  9.1566534042358398  4.5954985618591309 39.4036636352539134
  8.9702262878417969 13.6023368835449219 39.4434776306152344
  4.5831274250522247 17.9928460195660591 39.4724464416503977
  4.5227904319763184  9.0568084716796875 39.4554786682128906
 13.5222419956699014 18.0592228546738625 39.4682922363281250
 13.2213497161865234  8.7578601837158203 39.6084403991699219
  8.1032123565673828  5.4420318603515616 48.0459518432617259
  8.1007528305053711 14.4734306335449219 48.0459518432617259
 17.1336116790771484  5.4420318603515616 48.0459518432617259
 17.1311531066894531 14.4734306335449219 48.0459518432617259
  5.4410333633422852  0.9265221953392029 48.0449485778808594
  5.4385743141174316  9.9579219818115234 48.0449485778808594
 14.4714326858520490  0.9265221953392029 48.0449485778808594
 14.4689741134643555  9.9579219818115234 48.0449485778808594
  1.4218254089355467  3.0919990539550781 46.4558296203613281
  1.4193661212921143 12.1233978271484375 46.4558296203613281
 10.4522256851196289  3.0919990539550781 46.4558296203613281
 10.4497661590576172 12.1233978271484375 46.4558296203613281
  3.0899283885955806  7.6075901985168457 46.4545211791992188
  3.0874691009521484 16.6389904022216797 46.4545211791992188
 12.1203289031982422  7.6075901985168457 46.4545211791992188
 12.1178693771362305 16.6389904022216797 46.4545211791992188
  0.9247469902038573  3.5893490314483643 48.0459518432617259
  0.9222877025604248 12.6207475662231445 48.0459518432617259
  9.9551477432250977  3.5893490314483643 48.0459518432617259
  9.9526882171630859 12.6207475662231445 48.0459518432617259
  3.5868983268737793  8.1048498153686523 48.0448913574218821
  3.5844390392303462 17.1362495422363281 48.0448913574218821
 12.6172990798950195  8.1048498153686523 48.0448913574218821
 12.6148395538330078 17.1362495422363281 48.0448913574218821
  7.6061611175537109  5.9393639564514160 46.4558296203613281
  7.6037015914916992 14.9707632064819336 46.4558296203613281
 16.6365604400634766  5.9393639564514160 46.4558296203613281
 16.6341018676757812 14.9707632064819336 46.4558296203613281
  5.9380125999450684  1.4238001108169553 46.4545211791992188
  5.9355530738830566 10.4551992416381836 46.4545211791992188
 14.9684123992919904  1.4238001108169553 46.4545211791992188
 14.9659538269042951 10.4551992416381836 46.4545211791992188
 -0.0011664569610730  4.5157265663146973 45.3548011779785156
 -0.0036257810425013 13.5471258163452148 45.3548011779785156
  9.0292339324951172  4.5157265663146973 45.3548011779785156
  9.0267744064331037 13.5471258163452148 45.3548011779785156
  4.5152091979980469  0.0000000000000000 45.3536758422851562
  4.5127501487731934  9.0313997268676740 45.3536758422851562
 13.5456094741821289  0.0000000000000000 45.3536758422851562
 13.5431499481201172  9.0313997268676740 45.3536758422851562
 14.1724071502685529  9.6082382202148420 32.9002456665039062
 15.7590608596801758  9.4394912719726562 33.5415000915527344
 14.0807819366455078 11.4342555999755842 33.9594268798828125
 14.0951251983642578 11.6217508316040039 35.7308616638183665
 12.4606885910034180  8.6624040603637695 35.2845382690429688
 12.3075990676879865 10.3594512939453125 35.6405181884765696
 14.5107059478759766  7.9431343078613281 35.9062614440918040
 15.7462797164916992  9.1626167297363281 36.2193450927734375
 15.3962011337280273  7.1683020591735831 34.3605842590332031
 13.7169446945190430  7.1904363632202148 33.9006423950195312
 14.1281576156616211  7.3344922065734863 31.5552120208740199
 15.7232341766357422  7.9597816467285156 31.7613735198974645
 16.5024452209472656 11.5776729583740234 33.8337745666503906
 16.6635131835937500 10.9145336151123047 35.4892845153808594
 16.0027313232421875 12.4758958816528320 35.3440208435058594
 10.9650497436523438  9.9885749816894531 33.7784652709960938
 12.0826578140258789  9.0499734878540021 32.8899345397949219
 12.3685894012451172 10.8097972869873047 33.1390037536621094
 13.0856218338012695  8.6784629821777344 37.5757369995117188
 13.4259548187255859 10.4052944183349609 37.2622756958007812
 14.5601634979248029  9.5464124679565430 38.2075843811035156
 15.0615987777709961  5.0819659233093262 32.5714302062988281
 15.1828012466430664  5.4221229553222647 30.9006671905517614
 17.1323604583740234  3.5551438331604004 31.2902259826660192
 17.4409751892089844  7.5588731765747070 32.6498451232910227
  1.5106925964355506  3.2823715209960938 31.6265773773193324
  1.8013172149658219  7.3236875534057617 33.0327033996582031
  2.9056549072265607  5.1110172271728516 32.5027770996093821
 17.9113235473632812  4.3141264915466309 34.8714065551757884
  0.2175445556640644 13.7722768783569336 34.7115364074707031
  9.0832710266113281  4.5686707496643066 34.7368659973144531
  9.0760545730590820 13.6826648712158185 34.7366790771484375
  4.5126419067382812  9.0450496673583984 34.8006591796875000
  4.5683945873752236 17.9609898328781128 34.7308387756347656
 13.6690563419833779 17.9703183099627495 34.7366523742675852
 18.0462555289268494  4.4851379394531250 40.4892768859863352
 18.0422907806932926 13.5698118209838867 40.5884742736816406
  9.0686302185058594  4.5678873062133789 40.5334396362304688
  8.9929990768432617 13.5441894531250000 40.5745811462402344
  4.5146203041076660  9.0382556915283203 40.5876655578613281
  4.5316485622897744 17.9933376610279083 40.6075592041015625
 13.4181108474731445  8.9292755126953125 40.6731872558593750
 13.5737228393554670  0.0336202830076218 40.6005859375000000
  9.0289716720581055  4.5156092643737793 46.4455223083496165
  9.0265130996704102 13.5470085144042969 46.4455223083496165
 18.0593719482421875  4.5156092643737793 46.4455223083496165
 18.0569133758544922 13.5470085144042969 46.4455223083496165
  4.5152091979980469  0.0000180629995157 46.4442062377929759
  4.5127501487731934  9.0314178466796857 46.4442062377929759
 13.5456094741821289  0.0000180629995157 46.4442062377929759
 13.5431499481201172  9.0314178466796857 46.4442062377929759
 17.1083889007568359  5.5895252227783203 31.9439373016357422
 17.7013759613037109  4.3811688423156738 31.6493835449218786
 17.9206790924072266  6.6290283203125000 32.4095001220703125
  1.0563163757324210  4.2296652793884277 31.8313789367675817
  1.2246952056884766  6.4948134422302246 32.6136512756347656
  1.8286151885986355  5.2657203674316397 32.2781677246093750
 14.7130289077758789  9.1574344635009766 33.6715393066406250
 14.5729084014892578 11.1047000885009766 34.8920707702636719
 12.6792469024658203  9.6390266418457031 34.9016952514648438
 14.6682033538818359  8.9723920822143555 36.1909980773925781
 14.7163820266723633  7.5685377120971680 33.6209640502929759
 15.0260219573974592  7.2723660469055176 32.1408500671386719
 16.0563621520996094 11.5186271667480469 34.8362617492675781
 12.0033550262451172  9.8990230560302734 33.5763053894042969
 13.9042139053344727  9.4505462646484375 37.3770523071289062
 15.5307159423828125  5.7529478073120117 31.8870658874511719
  0.8385219573974625  3.6600825786590576 35.4557533264160156
  0.9395713806152348 12.8351764678955078 35.3101692199707102
  9.9325790405273420  3.7952752113342285 35.3515510559082031
  9.8824090957641602 12.9225139617919922 35.3722763061523509
  8.1075515747070312  5.3035111427307129 35.3748092651367259
  8.0413684844970703 14.3618593215942383 35.3523101806640625
 17.0691223144531250  5.1347632408142090 35.4506645202636719
 17.3598022460937500 14.5226726531982422 35.3130989074707102
  3.8457736968994141  8.1848402023315430 35.4961967468261719
  3.5556565979495640 17.3102475404739380 35.2792968750000000
 12.8350147465243936 17.1201245188713109 35.2905273437500071
  5.4377961158752441  0.7208430767059326 35.2876930236816406
  5.3111839294433594 10.0469455718994141 35.2271080017089915
 14.3357925415039045  0.9155101180076598 35.2866516113281321
  0.7141440510749817  3.7189493179321289 41.1642608642578125
  0.7968736290931702 12.8065071105957031 41.1473503112792969
  9.7667322158813459  3.7416143417358398 41.1625556945800852
  9.8234519958496094 12.7518835067749023 41.1441802978515696
  3.7278423309326172  8.2773885726928711 41.2095832824707031
  3.7528070667758580 17.2030277848243713 41.2062263488769602
 12.6901674270629883  8.0565557479858398 41.4148559570312500
 12.7894167164340598 17.3909170627593994 41.2913017272949219
  8.1598396301269531  5.4451584815979004 41.0578575134277415
  8.0993499755859375 14.3776988983154297 41.1880073547363352
 17.1616055369377136  5.3991894721984863 40.9531517028808594
 17.1500026583671605 14.3943490982055664 41.1586456298828196
  5.3146777153015137  0.7968228459358215 41.1940650939941406
  5.4294404983520508  9.8870525360107422 41.1558723449707031
 14.5054950714111328  0.9029340744018555 41.0899353027343750
 14.2220106124877912  9.8214397430419922 41.0592918395996094
  0.8273094892501831  3.6869695186614990 47.0359649658203125
  0.8248501420021057 12.7183685302734375 47.0359649658203125
  9.8577098846435547  3.6869695186614990 47.0359649658203125
  9.8552503585815412 12.7183685302734375 47.0359649658203125
  3.6843190193176270  8.2023353576660156 47.0346527099609375
  3.6818594932556152 17.2337341308593750 47.0346527099609375
 12.7147188186645508  8.2023353576660156 47.0346527099609375
 12.7122592926025391 17.2337341308593750 47.0346527099609375
  8.2006769180297852  5.3445744514465332 47.0360260009765696
  8.1982173919677734 14.3759746551513672 47.0360260009765696
 17.2310771942138672  5.3445744514465332 47.0360260009765696
 17.2286186218261719 14.3759746551513672 47.0360260009765696
  5.3436489105224600  0.8290914893150328 47.0346527099609375
  5.3411893844604483  9.8604917526245117 47.0346527099609375
 14.3740482330322266  0.8290914893150328 47.0346527099609375
 14.3715896606445312  9.8604917526245117 47.0346527099609375
 14.1432371139526367  9.6613235473632812 34.9246444702148438
  8.9892587661743164  0.0498114041984081 34.5406761169433665
  8.7878780364990234  8.8007860183715820 34.5802230834960938
 18.0073959277942777 18.0585510306991637 34.5048751831054759
  0.2232619822025299  9.0404672622680664 34.6992950439453125
  4.7068743705749503  4.4701757431030273 34.6241645812988352
  4.5415439605712891 13.6039581298828125 34.5205459594726562
 13.3425731658935547  4.2987337112426758 34.6729278564453125
 13.3150691986083984 13.7746257781982422 34.2788124084472727
 18.0186687977984548 18.0202632732689381 40.8870239257812500
  0.0016440907493234  8.9860754013061523 40.9269599914550781
  8.9939483860507607 18.0217094570398331 40.9092979431152344
  8.9994745254516602  8.9905786514282227 40.8754577636718750
  4.5291314125061035  4.4599156379699707 40.8962287902832102
  4.5189495086669922 13.5080738067626953 40.8423690795898509
 13.5122547149658203  4.4588928222656250 40.8984565734863281
 13.5355005264282227 13.5475873947143555 40.9027099609375000
  2.6173832416534424  1.8820703029632568 37.9625625610351562
  2.6412582397460938 11.0053405761718750 37.9651641845703125
 11.6609325408935529  1.9734205007553101 38.0101966857910156
 11.3809661865234375 11.1912927627563459 38.1852798461914062
  6.4764304161071777  7.1326670646667480 38.0226821899414062
  6.4584784507751465 16.1623554229736328 38.0101203918457031
 15.7064008712768537  6.8719325065612793 38.1833190917968750
 15.4994792938232422 16.1690902709960938 37.9616966247558665
  1.9938646554946899  6.3889708518981934 37.9508628845214844
  1.8831176757812500 15.5040225982666016 37.9868927001953196
 11.0475711822509748  6.5815019607543945 37.8975944519043040
 10.9138793945312500 15.5329856872558594 37.9815406799316406
  7.1352858543395996  2.6209008693695068 38.0148468017578125
  7.1236581802368164 11.5764627456665039 37.9796600341796946
 16.0722389221191406  2.5856692790985107 38.0150718688964844
 16.3284797668457031 11.8256940841674805 38.1823043823242188
  0.0000000000000000  0.0000000000000000 47.1735610961914062
 -0.0024593239650130  9.0313997268676740 47.1735610961914062
  9.0304002761840803  0.0000000000000000 47.1735610961914062
  9.0279407501220685  9.0313997268676740 47.1735610961914062
  4.5139794349670410  4.5156998634338379 47.1742515563964844
  4.5115203857421875 13.5470991134643537 47.1742515563964844
 13.5443792343139648  4.5156998634338379 47.1742515563964844
 13.5419197082519531 13.5470991134643537 47.1742515563964844
  2.4519233703613277  2.0629522800445557 44.0401268005371165
  2.4494640827178955 11.0943517684936523 44.0401268005371165
 11.4823226928710920  2.0629522800445557 44.0401268005371165
 11.4798641204833984 11.0943517684936523 44.0401268005371165
  6.5760178565979004  6.9684472084045410 44.0401268005371165
  6.5735583305358887 15.9998464584350586 44.0401268005371165
 15.6064186096191406  6.9684472084045410 44.0401268005371165
 15.6039590835571289 15.9998464584350586 44.0401268005371165
  2.0610768795013428  6.5788145065307617 44.0400009155273509
  2.0586175918579102 15.6102142333984375 44.0400009155273509
 11.0914773941040039  6.5788145065307617 44.0400009155273509
 11.0890178680419922 15.6102142333984375 44.0400009155273509
  6.9668641090393066  2.4525938034057613 44.0400657653808665
  6.9644045829772949 11.4839935302734375 44.0400657653808665
 15.9972639083862305  2.4525938034057613 44.0400657653808665
 15.9948053359985352 11.4839935302734375 44.0400657653808665
  2.4316265583038330  2.0832188129425049 50.0684852600097656
  2.4291670322418213 11.1146183013915998 50.0684852600097656
 11.4620265960693359  2.0832188129425049 50.0684852600097656
 11.4595670700073224 11.1146183013915998 50.0684852600097656
  6.5963144302368164  6.9481806755065918 50.0684852600097656
  6.5938549041748047 15.9795799255371076 50.0684852600097656
 15.6267137527465803  6.9481806755065918 50.0684852600097656
 15.6242542266845703 15.9795799255371076 50.0684852600097656
  2.0811281204223633  6.5990090370178223 50.0690460205078125
  2.0786688327789307 15.6304082870483398 50.0690460205078125
 11.1115283966064453  6.5990090370178223 50.0690460205078125
 11.1090688705444336 15.6304082870483398 50.0690460205078125
  6.9468131065368652  2.4323906898498531 50.0690460205078125
  6.9443535804748535 11.4637899398803711 50.0690460205078125
 15.9772129058837891  2.4323906898498531 50.0690460205078125
 15.9747543334960938 11.4637899398803711 50.0690460205078125
  0.0182897923514247 18.0262926146388054 37.6939926147461009
  0.1782262772321701  9.0249977111816406 37.8118400573730469
  8.9816230991855264 18.0343396663665771 37.6849212646484446
  8.9997186660766602  9.0628986358642578 37.6925506591796946
  4.4951481819152832  4.4996566772460938 37.7299499511718821
  4.4635715484619141 13.5350008010864258 37.6357498168945312
 13.5941524505615234  4.5058889389038086 37.7570571899414062
 13.5512323379516602 13.6814880371093750 37.7557258605957031
  0.0000090280000222  0.0000090310004452 44.0429992675781250
 -0.0024502959568053  9.0314083099365234 44.0429992675781250
  9.0304088592529297  0.0000090310004452 44.0429992675781250
  9.0279493331909180  9.0314083099365234 44.0429992675781250
  4.5139703750610352  4.5156903266906738 44.0427513122558594
  4.5115113258361816 13.5470905303955078 44.0427513122558594
 13.5443706512451172  4.5156903266906738 44.0427513122558594
 13.5419111251831037 13.5470905303955078 44.0427513122558594
  0.0000000000000000  0.0000000000000000 50.4472808837890696
 -0.0024593239650130  9.0313997268676740 50.4472808837890696
  9.0304002761840803  0.0000000000000000 50.4472808837890696
  9.0279407501220685  9.0313997268676740 50.4472808837890696
  4.5139703750610352  4.5156998634338379 50.4472808837890696
  4.5115113258361816 13.5470991134643537 50.4472808837890696
 13.5443706512451172  4.5156998634338379 50.4472808837890696
 13.5419111251831055 13.5470991134643537 50.4472808837890696
