 H  C  N  I Pb 
 1.0000000000000000
    18.0608005523681641    0.0000000000000000    0.0000000000000000
    -0.0049186488613486   18.0627994537353516    0.0000000000000000
     0.0000000000000000    0.0000000000000000   62.4874992370605469
 H   C   N   I   Pb 
 143  39  47  72  24
Cartesian
  8.0926027297973633  5.5611462593078613 36.2431640625000000
  8.0812435150146484 15.1965408325195312 36.0080223083496094
 16.8731765747070312  4.7077722549438477 36.4819297790527344
 17.3238887786865234 14.5679407119750977 36.6186599731445312
  5.3882560729980460  0.9137001633644104 36.3446960449218821
  5.5425415039062491 10.0983743667602539 36.3560485839843750
 14.0927047729492188  1.2815825939178467 36.3548278808593750
  1.9438247680664043  3.8575530052185059 34.7442321777343821
  1.6269989013671891 12.3023891448974609 34.9869461059570384
 10.3801965713500977  3.2179572582244873 34.8329124450683665
  9.3058662414550781 11.8491573333740234 35.4347953796386790
  6.4800848960876465  0.5069768428802490 35.0653762817382812
  5.2702670097351065 11.0327692031860334 34.9399566650390625
 15.3707227706909162  1.0047268867492676 35.2345886230468750
  1.2272167205810574  3.8710851669311523 36.3048553466796946
  0.6871089935302749 12.4925870895385742 36.4281196594238352
 10.1690425872802734  4.3777499198913574 36.1048431396484375
  8.8327636718750000 12.9424467086791974 36.7035751342773438
  4.3756413459777832  7.8333148956298819 36.3973846435546946
  3.0556487301364541 17.9714030027389526 36.1630516052246094
 12.1848491886630654 17.7248518168926239 36.2887573242187500
  6.8497667312622070  5.1516141891479492 35.1037979125976634
  8.2874450683593750 15.6240892410278320 34.3300514221191406
 16.1029434204101562  4.9527878761291504 34.9444122314453125
 17.4298191070556641 15.6691904067993164 35.2420883178710938
  3.4582524299621582  7.4336476325988770 35.0011520385742188
  2.7305843094363809 17.1024859547615051 34.7187995910644531
 12.3415722111240029 16.4248191118240356 35.1189117431640696
  8.1940059661865234  3.6575109958648677 34.0057487487792969
  9.0913810729980469 13.5242919921875000 33.8003273010253906
 18.0592823028564453  4.4993934631347656 33.6957893371582031
  0.8713092803955069 14.2895603179931641 34.0724334716796875
  3.9114584922790527  9.4176082611083984 33.9394950866699219
  4.8722733715549111 17.3662189245223999 33.8860130310058594
 14.3651260593906045 17.2145155668258667 34.3091011047363281
  8.2414360046386719  5.5671772956848145 42.2704467773437500
  7.8266010284423819 14.7488956451416016 41.9698905944824219
 17.3869200944900548  5.0965847969055176 42.5036697387695384
 16.8965821266174316 14.3758878707885742 42.1410522460937571
  5.5332679748535147  1.0017130374908447 42.0738372802734375
  5.3557405471801758  9.9583692550659180 42.2538604736328125
 14.4669666290283203  0.9203945994377136 42.2758598327636719
 15.1450872421264648  9.5322179794311523 41.8650245666503906
  1.5411349534988403  3.1514997482299800 40.3250617980957031
  1.7223504781723022 12.4401645660400391 40.9130058288574290
 10.2918176651000977  2.9338994026184082 40.7193527221679688
 10.3267641067504883 12.2064895629882812 41.1678314208984375
  3.2876315116882324  7.4373745918273926 40.5738029479980469
  3.1071058968082066 16.6339644193649328 40.7989234924316477
 11.8489923477172834  8.2776174545288086 41.0546875000000000
 12.0557226398959756 16.7768917083740234 40.6034088134765696
  1.1683056354522703  3.3875803947448730 42.0134506225586009
  0.7724167704582214 12.5982427597045898 42.3506240844726562
 10.0260076522827148  3.6898367404937740 42.2629051208496165
  9.5473232269287092 12.9585189819335938 42.5464706420898509
  3.7560539245605469  7.9395976066589355 42.1558303833007812
  3.6809331635013223 17.2603435516357422 42.3027687072753906
 13.0656385421752930  8.1544218063354492 42.2516822814941477
 12.5039324024692178 17.2964567542076111 42.1935615539550781
  7.4964709281921387  5.8680334091186523 40.7383766174316406
  7.6371035575866690 15.0809030532836914 40.2680130004882812
 16.6735117435455322  5.8392138481140137 41.0646514892578125
 16.7874267101287842 15.1371908187866193 40.5944480895996165
  5.9899392127990723  1.4048064947128296 40.4479789733886719
  5.7969355583190918 10.5976991653442383 40.7171974182128906
 15.1461200714111310  1.3331773281097412 40.7364730834960938
 15.2211627960205060 10.3609809875488281 40.3314399719238281
 18.0357226207852399  4.6607661247253418 39.6147727966308594
  0.5543743371963501 14.0514183044433594 39.7115859985351634
  8.7299184799194336  4.2512950897216797 39.6388397216796946
  9.1957578659057617 13.5271997451782227 39.6348228454589915
  4.5152906635776162 17.9803002849221230 39.5118942260742188
  4.5356984138488770  9.0825653076171857 39.5261840820312571
 13.7183322906494141  0.0109481364488602 39.5635719299316406
 13.1683940887451172  9.6955204010009766 39.7120246887207031
  8.1032123565673828  5.4420318603515616 48.0459518432617259
  8.1007528305053711 14.4734306335449219 48.0459518432617259
 17.1336116790771484  5.4420318603515616 48.0459518432617259
 17.1311531066894531 14.4734306335449219 48.0459518432617259
  5.4410333633422852  0.9265221953392029 48.0449485778808594
  5.4385743141174316  9.9579219818115234 48.0449485778808594
 14.4714326858520490  0.9265221953392029 48.0449485778808594
 14.4689741134643555  9.9579219818115234 48.0449485778808594
  1.4218254089355467  3.0919990539550781 46.4558296203613281
  1.4193661212921143 12.1233978271484375 46.4558296203613281
 10.4522256851196289  3.0919990539550781 46.4558296203613281
 10.4497661590576172 12.1233978271484375 46.4558296203613281
  3.0899283885955806  7.6075901985168457 46.4545211791992188
  3.0874691009521484 16.6389904022216797 46.4545211791992188
 12.1203289031982422  7.6075901985168457 46.4545211791992188
 12.1178693771362305 16.6389904022216797 46.4545211791992188
  0.9247469902038573  3.5893490314483643 48.0459518432617259
  0.9222877025604248 12.6207475662231445 48.0459518432617259
  9.9551477432250977  3.5893490314483643 48.0459518432617259
  9.9526882171630859 12.6207475662231445 48.0459518432617259
  3.5868983268737793  8.1048498153686523 48.0448913574218821
  3.5844390392303462 17.1362495422363281 48.0448913574218821
 12.6172990798950195  8.1048498153686523 48.0448913574218821
 12.6148395538330078 17.1362495422363281 48.0448913574218821
  7.6061611175537109  5.9393639564514160 46.4558296203613281
  7.6037015914916992 14.9707632064819336 46.4558296203613281
 16.6365604400634766  5.9393639564514160 46.4558296203613281
 16.6341018676757812 14.9707632064819336 46.4558296203613281
  5.9380125999450684  1.4238001108169553 46.4545211791992188
  5.9355530738830566 10.4551992416381836 46.4545211791992188
 14.9684123992919904  1.4238001108169553 46.4545211791992188
 14.9659538269042951 10.4551992416381836 46.4545211791992188
 -0.0011664569610730  4.5157265663146973 45.3548011779785156
 -0.0036257810425013 13.5471258163452148 45.3548011779785156
  9.0292339324951172  4.5157265663146973 45.3548011779785156
  9.0267744064331037 13.5471258163452148 45.3548011779785156
  4.5152091979980469  0.0000000000000000 45.3536758422851562
  4.5127501487731934  9.0313997268676740 45.3536758422851562
 13.5456094741821289  0.0000000000000000 45.3536758422851562
 13.5431499481201172  9.0313997268676740 45.3536758422851562
 12.9340305328369141  8.0005569458007812 33.9437294006347656
 13.2897996902465820  9.0699720382690430 32.5999145507812500
 11.7332124710082990  9.7987537384033203 35.0544128417968750
 12.4942111968994141 11.4174280166625977 35.0960807800292969
 15.1226911544799787  9.1032028198242188 35.9371070861816477
 13.9243736267089826 10.2845048904418945 36.5617065429687500
 15.6102924346923810 10.0722475051879883 33.5587844848632812
 14.3984622955322266 11.1656236648559570 33.0368995666503906
 15.6324939727783203  8.6262435913085938 32.6183013916015696
 15.6465911865234375  7.9263582229614258 34.2475852966308665
 15.9308223724365234  6.1995320320129395 32.6129188537597727
 14.3703899383544922  5.9403758049011230 33.4040222167968750
 11.3038825988769531  9.8647451400756836 32.7468757629394531
 12.4519472122192383 11.1971836090087891 32.4412193298339844
 10.9476881027221680 11.4863872528076172 33.3003425598144531
 13.5400676727294922  8.1213932037353516 37.4491004943847656
 13.3710985183715820  7.3160033226013184 35.8875846862793040
 12.1024122238159180  8.4868659973144531 36.4285888671875000
 15.0229291915893555 12.3111505508422834 35.5421752929687500
 15.8767795562744141 12.5755376815795881 34.0244903564453125
 16.4982070922851562 11.3991050720214844 35.1570472717285156
 14.9259033203125000  7.1553549766540527 30.6272583007812500
 14.3251791000366211  5.5494546890258789 30.9289855957031250
 12.0437355041503906  5.6955232620239258 32.5807380676269531
 13.3816528320312500  8.5887880325317383 29.6969223022460938
  9.7760467529296875  6.6620893478393555 32.4733123779296875
 11.1119108200073242  9.5504007339477539 29.6077651977539062
  9.2845897674560547  8.5708560943603516 31.0336551666259801
  0.0068645477294918  4.4187474250793457 34.7769050598144531
  0.4948272705078163 13.9799852371215820 35.0397453308105540
  8.5901851654052734  4.1718339920043945 34.8825645446777415
  8.8608589172363281 13.7295846939086914 34.8161048889160227
  4.3507199287414551  9.2508935928344727 34.9046096801757884
  4.5972627857699990 17.8138911724090576 34.8247413635253906
 13.8674997547641397 17.7452910244464874 35.1032066345214844
  0.0779925808310509  4.4950156211853027 40.7045326232910156
  0.2318443804979324 13.7927446365356445 40.7436637878417969
  8.8964920043945312  4.3996124267578125 40.7182655334472727
  9.0055208206176758 13.6354703903198242 40.7194137573242188
  4.5417547225952148  9.0237321853637695 40.6228065490722656
  4.5275711277499795 18.0341940075159073 40.6106224060058594
 13.5356807708740234  9.3169250488281250 40.6627464294433665
 13.5945711135864258  0.0168208703398705 40.6556091308593750
  9.0289716720581055  4.5156092643737793 46.4455223083496165
  9.0265130996704102 13.5470085144042969 46.4455223083496165
 18.0593719482421875  4.5156092643737793 46.4455223083496165
 18.0569133758544922 13.5470085144042969 46.4455223083496165
  4.5152091979980469  0.0000180629995157 46.4442062377929759
  4.5127501487731934  9.0314178466796857 46.4442062377929759
 13.5456094741821289  0.0000180629995157 46.4442062377929759
 13.5431499481201172  9.0314178466796857 46.4442062377929759
 12.8909587860107422  7.0946979522705069 31.1373291015625000
 11.8760547637939453  6.5442438125610343 31.9061183929443395
 12.5942535400390607  8.1621074676513672 30.3070640563964844
 10.5705928802490234  7.0688848495483398 31.8459682464599609
 11.3179063796997053  8.7127084732055664 30.2419643402099645
 10.2629318237304688  8.1704216003417969 31.0384674072265661
 13.6838359832763672  8.7091836929321289 33.5750198364257812
 12.3774309158325195 10.5014476776123047 34.5161094665527344
 14.0708961486816406  9.4097633361816406 35.9144096374511719
 14.8459024429321271 10.7564353942871094 33.9247283935546875
 15.0556793212890607  7.9946889877319336 33.3113708496093750
 14.9016761779785156  6.5978507995605460 32.6939392089843821
 11.7611103057861328 10.7622747421264648 33.1587677001953125
 13.1962718963623047  8.2759847640991211 36.4155426025390625
 15.5722494125366211 11.8079290390014648 34.7442321777343821
 14.2903070449829084  6.5749731063842773 31.2800235748291016
  1.1346702575683629  4.0157356262207031 35.3107833862304688
  0.9572887420654300 12.8551883697509748 35.5303688049316406
  9.7724466323852539  3.8596868515014644 35.3253135681152344
  9.0820760726928711 12.7987642288208008 35.7207832336425781
  7.8160448074340820  5.0724368095397949 35.4262657165527415
  8.3741102218627930 14.9344644546508789 35.0937919616699219
 16.9571189880371094  4.7202253341674805 35.4523811340332102
 17.6606178283691406 14.7417736053466797 35.6366767883300781
  4.0554413795471191  8.0958185195922852 35.4606361389160156
  3.3936604717746377 17.6122384667396545 35.2520790100097656
 12.6882414082065225 17.2938036918640137 35.5078201293945312
  5.5366673469543457  0.4465354681015015 35.4429206848144531
  5.0907254219055176 10.1766004562377930 35.4260749816894602
 14.4995756149291992  0.6926618814468384 35.6077117919921875
  0.9748457670211792  3.6418859958648682 41.0565338134765625
  0.9154008626937866 12.9083175659179688 41.3761940002441477
  9.7787828445434570  3.6554956436157227 41.2820663452148438
  9.6647586822509766 12.8844404220581055 41.5489997863769531
  3.8296840190887447  8.0751113891601562 41.1759147644043040
  3.7469114521518350 17.2852392196655273 41.3084259033203125
 12.7882041931152344  8.5145425796508789 41.3531608581542969
 12.6840051868930459 17.3544061779975927 41.2159843444824219
  8.1678190231323242  5.3465662002563477 41.3077850341796875
  8.0912418365478516 14.5551624298095703 41.0324516296386719
 17.3399051427841187  5.1913285255432129 41.4938240051269602
 17.2634364962577820 14.4592075347900391 41.1812973022461009
  5.4145350456237784  0.8526082038879395 41.1015853881835938
  5.2748680114746094  9.9170656204223633 41.2638244628906250
 14.4610528945922852  0.8144484162330627 41.2929077148437500
 14.7408618927001953  9.7597866058349609 40.9897422790527344
  0.8273094892501831  3.6869695186614990 47.0359649658203125
  0.8248501420021057 12.7183685302734375 47.0359649658203125
  9.8577098846435547  3.6869695186614990 47.0359649658203125
  9.8552503585815412 12.7183685302734375 47.0359649658203125
  3.6843190193176270  8.2023353576660156 47.0346527099609375
  3.6818594932556152 17.2337341308593750 47.0346527099609375
 12.7147188186645508  8.2023353576660156 47.0346527099609375
 12.7122592926025391 17.2337341308593750 47.0346527099609375
  8.2006769180297852  5.3445744514465332 47.0360260009765696
  8.1982173919677734 14.3759746551513672 47.0360260009765696
 17.2310771942138672  5.3445744514465332 47.0360260009765696
 17.2286186218261719 14.3759746551513672 47.0360260009765696
  5.3436489105224600  0.8290914893150328 47.0346527099609375
  5.3411893844604483  9.8604917526245117 47.0346527099609375
 14.3740482330322266  0.8290914893150328 47.0346527099609375
 14.3715896606445312  9.8604917526245117 47.0346527099609375
 13.7553939819335938  9.8574037551879883 34.4934234619140625
  8.8939428329467773  0.3176699578762054 34.4322471618652344
  8.7059583663940430  9.3529891967773420 34.7453956604003906
 17.8720479160547256  0.0802512541413307 34.5241470336914062
  0.5887706279754638  9.0982065200805664 34.6503486633300781
  4.4879932403564453  4.4389228820800781 34.4346199035644531
  4.6412253379821777 13.6095256805419922 34.5529708862304688
 13.3987684249877930  3.8954775333404541 34.9198493957519531
 12.8943939208984375 14.2020473480224609 34.1483421325683594
  0.0545680932700634  0.0349959023296833 40.8956222534179688
  0.2175824642181396  8.8910570144653320 40.9774665832519531
  8.9708490371704102  0.0205649565905333 40.8804206848144531
  9.0849733352661133  8.8398904800415039 40.9662132263183594
  4.5855736732482910  4.4517264366149902 40.8896560668945312
  4.5346980094909668 13.6214065551757812 40.9082145690917969
 13.3785591125488281  4.5834116935729972 41.0115318298339915
 13.6232814788818359 13.6432371139526367 40.8299102783203125
  2.5999779701232910  1.9520165920257568 37.9682731628417969
  2.6476480960845947 11.0821161270141602 38.1822586059570312
 11.6598329544067365  1.9015964269638062 38.1732521057128906
 11.1777639389038086 11.4198102951049787 38.4636344909667969
  6.3885707855224609  7.0954060554504386 38.0819664001464915
  6.6428594589233390 16.0355281829833984 38.0333862304687500
 15.9318494796752930  6.7057781219482422 38.3592720031738281
 15.5469207763671875 16.0872497558593750 38.1476898193359375
  2.0107522010803223  6.4110593795776367 38.0449295043945312
  2.1484036445617676 15.7782440185546875 38.0332870483398438
 10.6190824508666992  6.1853246688842773 37.9601631164550781
 11.0044536590576172 15.6218395233154279 38.1121444702148438
  7.0055937767028809  2.4814987182617188 38.0724334716796875
  6.9118680953979492 11.4240589141845703 38.3246345520019602
 15.9603157043457013  2.5390648841857910 38.3395347595214844
 16.5311698913574219 11.7673368453979492 38.5513801574707031
  0.0000000000000000  0.0000000000000000 47.1735610961914062
 -0.0024593239650130  9.0313997268676740 47.1735610961914062
  9.0304002761840803  0.0000000000000000 47.1735610961914062
  9.0279407501220685  9.0313997268676740 47.1735610961914062
  4.5139794349670410  4.5156998634338379 47.1742515563964844
  4.5115203857421875 13.5470991134643537 47.1742515563964844
 13.5443792343139648  4.5156998634338379 47.1742515563964844
 13.5419197082519531 13.5470991134643537 47.1742515563964844
  2.4519233703613277  2.0629522800445557 44.0401268005371165
  2.4494640827178955 11.0943517684936523 44.0401268005371165
 11.4823226928710920  2.0629522800445557 44.0401268005371165
 11.4798641204833984 11.0943517684936523 44.0401268005371165
  6.5760178565979004  6.9684472084045410 44.0401268005371165
  6.5735583305358887 15.9998464584350586 44.0401268005371165
 15.6064186096191406  6.9684472084045410 44.0401268005371165
 15.6039590835571289 15.9998464584350586 44.0401268005371165
  2.0610768795013428  6.5788145065307617 44.0400009155273509
  2.0586175918579102 15.6102142333984375 44.0400009155273509
 11.0914773941040039  6.5788145065307617 44.0400009155273509
 11.0890178680419922 15.6102142333984375 44.0400009155273509
  6.9668641090393066  2.4525938034057613 44.0400657653808665
  6.9644045829772949 11.4839935302734375 44.0400657653808665
 15.9972639083862305  2.4525938034057613 44.0400657653808665
 15.9948053359985352 11.4839935302734375 44.0400657653808665
  2.4316265583038330  2.0832188129425049 50.0684852600097656
  2.4291670322418213 11.1146183013915998 50.0684852600097656
 11.4620265960693359  2.0832188129425049 50.0684852600097656
 11.4595670700073224 11.1146183013915998 50.0684852600097656
  6.5963144302368164  6.9481806755065918 50.0684852600097656
  6.5938549041748047 15.9795799255371076 50.0684852600097656
 15.6267137527465803  6.9481806755065918 50.0684852600097656
 15.6242542266845703 15.9795799255371076 50.0684852600097656
  2.0811281204223633  6.5990090370178223 50.0690460205078125
  2.0786688327789307 15.6304082870483398 50.0690460205078125
 11.1115283966064453  6.5990090370178223 50.0690460205078125
 11.1090688705444336 15.6304082870483398 50.0690460205078125
  6.9468131065368652  2.4323906898498531 50.0690460205078125
  6.9443535804748535 11.4637899398803711 50.0690460205078125
 15.9772129058837891  2.4323906898498531 50.0690460205078125
 15.9747543334960938 11.4637899398803711 50.0690460205078125
 17.9420783966779744  0.0901185274124145 37.7761535644531321
  0.1245894134044647  9.1003284454345703 37.7718391418457031
  9.0776376724243164  0.1469719111919403 37.6926002502441477
  9.0048189163208008  9.0738515853881836 37.8093223571777344
  4.5387101173400879  4.5248603820800781 37.7291221618652344
  4.5080618858337402 13.6048612594604492 37.6770515441894531
 13.4598979949951172  4.6043257713317871 37.9268493652343750
 13.4012098312377930 13.6983280181884766 37.6845397949218750
  0.0000090280000222  0.0000090310004452 44.0429992675781250
 -0.0024502959568053  9.0314083099365234 44.0429992675781250
  9.0304088592529297  0.0000090310004452 44.0429992675781250
  9.0279493331909180  9.0314083099365234 44.0429992675781250
  4.5139703750610352  4.5156903266906738 44.0427513122558594
  4.5115113258361816 13.5470905303955078 44.0427513122558594
 13.5443706512451172  4.5156903266906738 44.0427513122558594
 13.5419111251831037 13.5470905303955078 44.0427513122558594
  0.0000000000000000  0.0000000000000000 50.4472808837890696
 -0.0024593239650130  9.0313997268676740 50.4472808837890696
  9.0304002761840803  0.0000000000000000 50.4472808837890696
  9.0279407501220685  9.0313997268676740 50.4472808837890696
  4.5139703750610352  4.5156998634338379 50.4472808837890696
  4.5115113258361816 13.5470991134643537 50.4472808837890696
 13.5443706512451172  4.5156998634338379 50.4472808837890696
 13.5419111251831055 13.5470991134643537 50.4472808837890696
