 H  C  N  I Pb 
 1.0000000000000000
    18.0608005523681641    0.0000000000000000    0.0000000000000000
    -0.0049186488613486   18.0627994537353516    0.0000000000000000
     0.0000000000000000    0.0000000000000000   62.4874992370605469
 H   C   N   I   Pb 
 143  39  47  72  24
Cartesian
  8.5140724182128906  5.9833631515502930 35.7170562744140625
  8.1423845291137695 15.1431016921997070 35.8374862670898438
 16.6398239135742188  4.3614149093627930 36.3013648986816406
 17.0131015777587891 14.6879034042358398 36.0115737915039062
  5.7351408004760742  1.2786930799484253 35.6688461303710938
  6.0523133277893066 10.2524442672729492 35.6782493591308594
 14.3592367172241193  1.5576680898666380 35.8903541564941477
  1.8855094909667940  4.4694609642028809 34.8455619812011719
  1.5881061553955078 12.2007732391357422 35.7547607421875071
 10.0220146179199219  2.8155732154846191 34.9329795837402344
  8.9186267852783203 11.6713666915893555 35.1753997802734446
  6.6323337554931641  0.1104051247239113 34.7629890441894602
  5.0739192962646475 11.4349679946899414 34.8250961303710938
 15.6663265228271467  0.5551435351371765 35.2848434448242188
  1.0331344604492199  4.3925566673278809 36.3515510559082031
  0.1339225769042966 12.5407199859619141 36.6505584716796946
 10.3584442138671857  4.3686299324035645 35.6855773925781250
  8.1893606185913086 12.7115039825439453 36.3555068969726562
  5.1251077651977539  7.9475102424621582 35.9084701538085938
  3.2611844539642334  1.0285481214523315 35.7002983093261790
 12.0639343261718732  0.5284497737884521 35.8141250610351562
  7.0058398246765128  5.4606738090515137 35.0060310363769602
  9.0594139099121094 15.6894807815551758 34.4771728515625000
 15.8616247177124023  4.2432785034179688 34.7645492553710938
 17.7981548309326172 15.6669588088989258 34.8032035827636790
  3.5795419216156006  7.6717171669006348 35.1807556152343750
  2.5438250759616494 17.8277596086263657 34.7578010559082031
 11.9966329792514443 16.9694273471832275 35.1639900207519602
  7.8547501564025879  3.3994967937469482 34.4200515747070312
  9.6717815399169904 13.4827928543090820 33.8845939636230469
 17.9410610198974609  4.3799862861633301 33.5974464416503977
  1.4648971557617214 14.1021108627319336 34.4758834838867188
  3.3839986324310298  9.8557662963867188 34.4124450683593750
  4.6794928768649688 17.0137804746627808 34.1036071777343750
 14.2587284306064248 16.8748493194580078 34.7372283935546875
  8.4182195663452148  5.5886569023132315 42.0948448181152344
  7.9707517623901367 14.5993909835815430 42.0302696228027344
 17.1478874087333679  4.9998698234558105 42.2667312622070312
 16.6682538986206055 13.5173645019531250 42.0944824218750000
  5.5608243942260742  0.9171934723854065 41.9865455627441477
  5.3011546134948730  9.9022617340087873 42.2719078063964844
 14.2808170318603516  0.9579432010650635 42.1644935607910227
 15.2612714767456037  8.5909271240234375 41.5476303100585938
  1.6582798957824707  3.1400122642517090 40.4473037719726634
  1.8806118965148926 12.7301702499389631 40.7611808776855469
 10.4709806442260742  3.0251822471618652 40.4854888916015625
 10.3890571594238281 12.1007261276245117 40.8290252685546946
  3.3366057872772217  7.3832640647888184 40.4632911682128906
  3.0837165573611851 16.6865980625152588 40.4970932006835938
 11.6590261459350586  8.6569471359252930 41.2427101135253906
 12.2718614796176553 16.4549214839935303 40.4668579101562500
  1.0490431785583496  3.3138232231140137 42.0556335449218750
  0.7840897440910339 12.2225904464721680 42.0036087036132812
 10.2416734695434570  3.7969539165496826 42.0373191833496165
  9.6967039108276367 12.6869373321533203 42.3194923400878906
  3.6783382892608643  7.8819313049316406 42.0978736877441477
  3.6202508667483926 17.2078854441642761 42.0700378417968750
 12.9401416778564453  7.7074427604675293 41.9071350097656250
 12.6177181461825967 17.0045728683471680 42.0802078247070312
  7.5920147895812988  5.8338088989257812 40.5995216369628906
  7.6764755249023438 15.0411911010742188 40.3782424926757812
 16.7151603698730469  5.7878208160400391 40.7609977722167969
 16.4848802089691162 14.7742481231689453 40.9112510681152415
  6.0629329681396484  1.3252005577087402 40.3803710937500000
  5.7829003334045410 10.5560522079467773 40.7360076904296946
 14.8584661483764648  1.4867291450500488 40.6171951293945384
 15.4196338653564453 10.0039072036743164 40.5339355468750000
  0.2443282306194305  4.6717596054077148 39.5190162658691406
  0.4892982244491577 14.3951520919799805 39.9615554809570312
  8.8323497772216797  4.2626700401306152 39.4466857910156250
  9.1599168777465820 13.5303220748901367 39.4955139160156250
  4.5864943722262979 18.0001720190048218 39.3267326354980469
  4.6032371520996094  9.0228843688964844 39.4889755249023438
 13.6595854023471475 17.9825381487607991 39.4279136657714844
 13.1081275939941388 10.1742134094238281 40.2010231018066406
  8.1032123565673828  5.4420318603515616 48.0459518432617259
  8.1007528305053711 14.4734306335449219 48.0459518432617259
 17.1336116790771484  5.4420318603515616 48.0459518432617259
 17.1311531066894531 14.4734306335449219 48.0459518432617259
  5.4410333633422852  0.9265221953392029 48.0449485778808594
  5.4385743141174316  9.9579219818115234 48.0449485778808594
 14.4714326858520490  0.9265221953392029 48.0449485778808594
 14.4689741134643555  9.9579219818115234 48.0449485778808594
  1.4218254089355467  3.0919990539550781 46.4558296203613281
  1.4193661212921143 12.1233978271484375 46.4558296203613281
 10.4522256851196289  3.0919990539550781 46.4558296203613281
 10.4497661590576172 12.1233978271484375 46.4558296203613281
  3.0899283885955806  7.6075901985168457 46.4545211791992188
  3.0874691009521484 16.6389904022216797 46.4545211791992188
 12.1203289031982422  7.6075901985168457 46.4545211791992188
 12.1178693771362305 16.6389904022216797 46.4545211791992188
  0.9247469902038573  3.5893490314483643 48.0459518432617259
  0.9222877025604248 12.6207475662231445 48.0459518432617259
  9.9551477432250977  3.5893490314483643 48.0459518432617259
  9.9526882171630859 12.6207475662231445 48.0459518432617259
  3.5868983268737793  8.1048498153686523 48.0448913574218821
  3.5844390392303462 17.1362495422363281 48.0448913574218821
 12.6172990798950195  8.1048498153686523 48.0448913574218821
 12.6148395538330078 17.1362495422363281 48.0448913574218821
  7.6061611175537109  5.9393639564514160 46.4558296203613281
  7.6037015914916992 14.9707632064819336 46.4558296203613281
 16.6365604400634766  5.9393639564514160 46.4558296203613281
 16.6341018676757812 14.9707632064819336 46.4558296203613281
  5.9380125999450684  1.4238001108169553 46.4545211791992188
  5.9355530738830566 10.4551992416381836 46.4545211791992188
 14.9684123992919904  1.4238001108169553 46.4545211791992188
 14.9659538269042951 10.4551992416381836 46.4545211791992188
 -0.0011664569610730  4.5157265663146973 45.3548011779785156
 -0.0036257810425013 13.5471258163452148 45.3548011779785156
  9.0292339324951172  4.5157265663146973 45.3548011779785156
  9.0267744064331037 13.5471258163452148 45.3548011779785156
  4.5152091979980469  0.0000000000000000 45.3536758422851562
  4.5127501487731934  9.0313997268676740 45.3536758422851562
 13.5456094741821289  0.0000000000000000 45.3536758422851562
 13.5431499481201172  9.0313997268676740 45.3536758422851562
 12.9826526641845703  7.9413933753967285 33.8420372009277344
 13.3023118972778320  8.9186038970947266 32.4205360412597656
 11.8946914672851545  9.9958486557006836 34.9507484436035227
 12.8073701858520508 11.5177659988403320 34.8125495910644531
 15.3145875930786115  9.1167201995849609 35.6255340576171875
 14.2343912124633789 10.3560218811035156 36.2308845520019531
 15.6729545593261701 10.1444721221923828 33.1211662292480469
 14.3531122207641602 11.2828378677368164 32.8100509643554759
 15.6776485443115234  8.3585977554321289 32.4037590026855469
 15.5890102386474609  7.6345047950744629 34.0079498291015625
 15.7118043899536133  5.8710532188415527 32.3797149658203125
 14.1335277557373047  5.8130836486816406 33.1377182006835938
 11.4749050140380859  9.9566717147827131 32.4836006164550781
 12.4191207885742188 11.4789657592773438 32.2882575988769531
 10.9516515731811523 11.4286003112792969 33.2790222167968750
 13.6006021499633789  8.3543319702148438 37.3439559936523509
 13.6287021636962891  7.3801074028015137 35.8846931457519531
 12.3264932632446289  8.5697746276855469 36.1303367614746094
 14.7817859649658203 12.4339818954467773 34.9668197631835938
 16.2874393463134766 12.3131799697875959 34.0303916931152344
 16.0429534912109375 11.2419595718383789 35.3975296020507812
 14.7939710617065430  6.9113097190856934 30.3169384002685582
 14.1224164962768555  5.3117661476135254 30.7071857452392614
 11.9541797637939453  5.6401691436767569 32.5158996582031321
 13.1598386764526367  8.3419628143310547 29.3588657379150391
  9.6902513504028320  6.6498360633850098 32.5038566589355469
 10.8687057495117188  9.3158340454101562 29.3332118988037145
  9.1361923217773438  8.4736118316650391 30.9230079650878906
 17.9012413024902344  4.3814353942871094 34.7000579833984446
  0.6471138000488286 13.8989076614379883 35.1822090148925781
  8.5073013305664062  4.1392183303833008 34.8901786804199219
  9.0644950866699219 13.6713113784790039 34.7661247253417969
  4.2947235107421875  9.5571851730346662 34.9334678649902344
  4.5972189167514443 17.9183155745267904 34.7074890136718750
 13.8288387516513467 17.7829124033451080 35.1697883605957031
  0.1521421521902084  4.4717750549316406 40.5818328857421875
  0.1549453139305115 13.7776927947998047 40.8043556213378906
  9.0298719406127930  4.4376835823059082 40.4977416992187500
  9.0281076431274414 13.5714769363403320 40.5843544006347656
  4.5678148269653311  8.9602956771850586 40.5819358825683594
  4.5745596149936310 18.0397869348526001 40.4183349609375000
 13.5089855194091779  9.3542480468750000 40.8258590698242188
 13.5697674015536904 18.0007782913744450 40.5170097351074219
  9.0289716720581055  4.5156092643737793 46.4455223083496165
  9.0265130996704102 13.5470085144042969 46.4455223083496165
 18.0593719482421875  4.5156092643737793 46.4455223083496165
 18.0569133758544922 13.5470085144042969 46.4455223083496165
  4.5152091979980469  0.0000180629995157 46.4442062377929759
  4.5127501487731934  9.0314178466796857 46.4442062377929759
 13.5456094741821289  0.0000180629995157 46.4442062377929759
 13.5431499481201172  9.0314178466796857 46.4442062377929759
 12.7223281860351562  6.9174423217773438 30.9403152465820312
 11.7272148132324219  6.4446825981140137 31.8114376068115270
 12.3919353485107422  7.9500298500061026 30.0453186035156250
 10.4478464126586914  6.9929919242858887 31.8008098602294922
 11.1073188781738281  8.4998703002929688 30.0287914276123082
 10.1383228302001953  8.0201654434204102 30.9170341491699219
 13.7362394332885742  8.5713853836059570 33.3575019836425852
 12.5636568069458008 10.5730381011962891 34.2976150512695384
 14.2678174972534162  9.4339895248413086 35.6448516845703125
 14.9014110565185547 10.7548875808715820 33.6004028320312500
 15.0168933868408203  7.7884154319763175 33.0788459777832102
 14.7518711090087891  6.4097933769226074 32.4514465332031250
 11.8498315811157209 10.8570547103881836 32.9942321777343821
 13.3922357559204084  8.3746576309204102 36.2667694091796875
 15.5281019210815430 11.7330379486083967 34.5677452087402344
 14.1320400238037092  6.3717861175537100 31.0381031036376989
  0.9807605743408233  4.3697514533996582 35.3321380615234446
  0.7815876007080080 12.8129425048828125 35.8982543945312500
  9.7446727752685547  3.7825963497161865 35.1123542785644531
  8.7544021606445312 12.6329803466796875 35.5043220520019531
  7.9997687339782715  5.3048419952392569 35.1683998107910156
  8.7068548202514648 14.9060554504394531 35.0141983032226634
 16.7317981719970703  4.4055132865905762 35.2830505371093750
 17.7013454437255859 14.7444305419921875 35.2538146972656250
  4.3644065856933594  8.3178720474243164 35.3463973999023438
  3.4003372192382812  0.2585645020008087 35.0525856018066406
 12.5324100712314248 17.8318467140197789 35.3359031677246094
  5.6988673210144043  0.4824488162994385 35.0339431762695312
  5.2349815368652344 10.4532556533813459 35.1142425537109446
 14.6605768203735334  0.6865594387054443 35.4748229980468821
  0.9972450137138367  3.5834138393402095 41.0748825073242188
  0.9870586395263672 12.8376388549804688 41.2231712341308594
  9.9834470748901367  3.7117176055908203 41.0536537170410156
  9.7446765899658203 12.7346277236938477 41.3098907470703125
  3.8335609436035156  8.0113859176635742 41.1009941101074219
  3.7076596478000283 17.2775391936302185 41.0528717041015696
 12.6609659194946271  8.4936914443969727 41.3317489624023509
 12.7800964573398232 17.1064020395278931 41.0757484436035156
  8.3174009323120117  5.3412342071533203 41.1083564758300781
  8.1784858703613281 14.4509048461914062 41.0400390625000071
 17.3020350337028503  5.1184434890747070 41.2669105529785156
 17.0528934001922607 14.0522766113281250 41.3344497680664062
  5.4462146759033194  0.7799684405326843 40.9758911132812500
  5.2655620574951172  9.8562097549438477 41.2536811828613281
 14.2730007171630859  0.8433076143264771 41.1483497619628906
 14.8039731979370117  9.3146371841430664 40.9873924255371094
  0.8273094892501831  3.6869695186614990 47.0359649658203125
  0.8248501420021057 12.7183685302734375 47.0359649658203125
  9.8577098846435547  3.6869695186614990 47.0359649658203125
  9.8552503585815412 12.7183685302734375 47.0359649658203125
  3.6843190193176270  8.2023353576660156 47.0346527099609375
  3.6818594932556152 17.2337341308593750 47.0346527099609375
 12.7147188186645508  8.2023353576660156 47.0346527099609375
 12.7122592926025391 17.2337341308593750 47.0346527099609375
  8.2006769180297852  5.3445744514465332 47.0360260009765696
  8.1982173919677734 14.3759746551513672 47.0360260009765696
 17.2310771942138672  5.3445744514465332 47.0360260009765696
 17.2286186218261719 14.3759746551513672 47.0360260009765696
  5.3436489105224600  0.8290914893150328 47.0346527099609375
  5.3411893844604483  9.8604917526245117 47.0346527099609375
 14.3740482330322266  0.8290914893150328 47.0346527099609375
 14.3715896606445312  9.8604917526245117 47.0346527099609375
 13.8870525360107422  9.8142118453979492 34.2260360717773438
  9.1854038238525391  0.2741349041461945 34.4454956054687500
  8.7140913009643555  9.1898117065429688 34.6618537902832031
 17.9780081361532211  0.1304278075695038 34.4872283935546946
  0.5832027196884155  9.1532287597656250 34.6781349182128906
  4.5090308189392090  4.4762239456176758 34.5728759765625000
  4.3262810707092285 13.8462018966674805 34.5311126708984375
 13.2247648239135724  3.8081331253051758 34.7439575195312500
 12.6639690399169922 14.3577785491943359 34.5877075195312500
 18.0542291989549994 17.9193680584430695 40.8979682922363281
  0.3135627508163452  8.9375362396240234 40.9645996093750000
  9.0747489929199219  0.0714655220508575 40.8843612670898509
  9.1115837097167969  8.9505672454833984 40.9498329162597656
  4.6417202949523926  4.3873620033264160 40.9374275207519602
  4.5286960601806632 13.6784772872924805 40.9011192321777415
 13.4865884780883771  4.8366146087646484 40.9577903747558594
 13.4917383193969727 13.4297828674316406 40.8499679565429759
  2.4159309864044189  2.1355032920837402 37.9597778320312500
  2.7021720409393311 10.9798250198364258 38.1542549133300781
 11.5589981079101562  2.0583860874176025 38.1330337524414062
 11.3117141723632812 11.2457656860351562 38.1991348266601562
  6.5563263893127441  7.0098085403442374 38.0243911743164062
  6.7372164726257324 15.9306879043579084 37.8797111511230540
 16.0119628906250000  6.6966481208801270 38.1761283874511719
 15.6540746688842756 15.8836545944213867 38.0021553039550781
  2.2045767307281494  6.5917592048645020 38.0282096862792969
  2.2180330753326416 15.8362569808959961 37.9694099426269531
 10.7013053894042969  6.2509927749633789 37.6817970275878906
 11.0851325988769513 15.6391658782958984 38.2100296020507812
  6.9321413040161133  2.3837230205535889 37.8506355285644602
  6.8787560462951660 11.4261112213134766 38.2417716979980469
 15.9747772216796875  2.5124039649963374 38.2545242309570312
 16.3802661895751953 11.6720781326293945 38.4941673278808594
  0.0000000000000000  0.0000000000000000 47.1735610961914062
 -0.0024593239650130  9.0313997268676740 47.1735610961914062
  9.0304002761840803  0.0000000000000000 47.1735610961914062
  9.0279407501220685  9.0313997268676740 47.1735610961914062
  4.5139794349670410  4.5156998634338379 47.1742515563964844
  4.5115203857421875 13.5470991134643537 47.1742515563964844
 13.5443792343139648  4.5156998634338379 47.1742515563964844
 13.5419197082519531 13.5470991134643537 47.1742515563964844
  2.4519233703613277  2.0629522800445557 44.0401268005371165
  2.4494640827178955 11.0943517684936523 44.0401268005371165
 11.4823226928710920  2.0629522800445557 44.0401268005371165
 11.4798641204833984 11.0943517684936523 44.0401268005371165
  6.5760178565979004  6.9684472084045410 44.0401268005371165
  6.5735583305358887 15.9998464584350586 44.0401268005371165
 15.6064186096191406  6.9684472084045410 44.0401268005371165
 15.6039590835571289 15.9998464584350586 44.0401268005371165
  2.0610768795013428  6.5788145065307617 44.0400009155273509
  2.0586175918579102 15.6102142333984375 44.0400009155273509
 11.0914773941040039  6.5788145065307617 44.0400009155273509
 11.0890178680419922 15.6102142333984375 44.0400009155273509
  6.9668641090393066  2.4525938034057613 44.0400657653808665
  6.9644045829772949 11.4839935302734375 44.0400657653808665
 15.9972639083862305  2.4525938034057613 44.0400657653808665
 15.9948053359985352 11.4839935302734375 44.0400657653808665
  2.4316265583038330  2.0832188129425049 50.0684852600097656
  2.4291670322418213 11.1146183013915998 50.0684852600097656
 11.4620265960693359  2.0832188129425049 50.0684852600097656
 11.4595670700073224 11.1146183013915998 50.0684852600097656
  6.5963144302368164  6.9481806755065918 50.0684852600097656
  6.5938549041748047 15.9795799255371076 50.0684852600097656
 15.6267137527465803  6.9481806755065918 50.0684852600097656
 15.6242542266845703 15.9795799255371076 50.0684852600097656
  2.0811281204223633  6.5990090370178223 50.0690460205078125
  2.0786688327789307 15.6304082870483398 50.0690460205078125
 11.1115283966064453  6.5990090370178223 50.0690460205078125
 11.1090688705444336 15.6304082870483398 50.0690460205078125
  6.9468131065368652  2.4323906898498531 50.0690460205078125
  6.9443535804748535 11.4637899398803711 50.0690460205078125
 15.9772129058837891  2.4323906898498531 50.0690460205078125
 15.9747543334960938 11.4637899398803711 50.0690460205078125
 18.0045631155371666  0.0513480193912983 37.8033523559570312
  0.1238617897033691  9.1435089111328107 37.8003883361816406
  9.0677919387817383  0.1091124266386032 37.7549743652343821
  9.0381898880004865  9.0576972961425781 37.7982940673828196
  4.5226893424987793  4.6106896400451660 37.7830963134765625
  4.4530172348022461 13.6086721420288086 37.7328186035156250
 13.4636783599853516  4.6390218734741211 37.8283576965332031
 13.3765048980712891 13.6783237457275391 37.6485633850097656
  0.0000090280000222  0.0000090310004452 44.0429992675781250
 -0.0024502959568053  9.0314083099365234 44.0429992675781250
  9.0304088592529297  0.0000090310004452 44.0429992675781250
  9.0279493331909180  9.0314083099365234 44.0429992675781250
  4.5139703750610352  4.5156903266906738 44.0427513122558594
  4.5115113258361816 13.5470905303955078 44.0427513122558594
 13.5443706512451172  4.5156903266906738 44.0427513122558594
 13.5419111251831037 13.5470905303955078 44.0427513122558594
  0.0000000000000000  0.0000000000000000 50.4472808837890696
 -0.0024593239650130  9.0313997268676740 50.4472808837890696
  9.0304002761840803  0.0000000000000000 50.4472808837890696
  9.0279407501220685  9.0313997268676740 50.4472808837890696
  4.5139703750610352  4.5156998634338379 50.4472808837890696
  4.5115113258361816 13.5470991134643537 50.4472808837890696
 13.5443706512451172  4.5156998634338379 50.4472808837890696
 13.5419111251831055 13.5470991134643537 50.4472808837890696
