 H  C  N  I Pb 
 1.0000000000000000
    18.0608005523681641    0.0000000000000000    0.0000000000000000
    -0.0049186488613486   18.0627994537353516    0.0000000000000000
     0.0000000000000000    0.0000000000000000   62.4874992370605469
 H   C   N   I   Pb 
 143  39  47  72  24
Cartesian
  7.9765777587890625  5.7981042861938477 35.6921005249023509
  7.5979166030883789 14.9819593429565412 35.6506004333496165
 17.5382575988769531  5.8020091056823730 36.2462196350097656
 17.2056007385253906 14.6563568115234375 36.1505737304687500
  5.7819546917453408 17.2098499536514282 35.8137397766113281
  6.1073718070983887 10.1672945022583008 35.6768608093261719
 14.3868789672851562  1.3882266283035278 36.0853462219238352
  0.4119834899902348  2.4653282165527344 35.1205558776855469
  1.1357784271240250 11.7101879119873047 35.3649673461914062
 10.1822004318237305  3.1826224327087402 34.5344657897949219
  9.3771486282348633 11.8442077636718750 35.1985816955566406
  6.5007219314575195  0.3505404889583588 34.7774200439453125
  5.1216936111450186 11.3263940811157227 34.7967796325683665
 15.7092351913452148  0.4754582941532135 35.3529891967773438
 17.7491130828857422  3.3709146976470947 36.4585876464843821
  0.0331840515136722 12.3702192306518555 36.5307388305664062
 10.1190547943115234  4.6071767807006836 35.5482368469238281
  8.0405864715576172 12.5190725326538086 36.0401229858398438
  5.1743597984313965  7.8503980636596680 35.9107856750488352
  3.3382648685947061 16.8673487901687622 35.6914749145507812
 12.1353807449340820  0.4537980556488037 35.8317337036132812
  6.6001033782958975  5.0657219886779785 34.8760375976562500
  8.7548084259033203 15.8561735153198242 34.6764717102050781
  0.3724346160888674  6.5430326461791992 34.9523353576660156
 17.9189224243164062 15.5530204772949201 34.8323059082031250
  3.5931599140167232  7.6023988723754874 35.2064666748046875
  2.4373950222507119 17.9586312472820282 34.6590003967285227
 12.0387481907382607 16.9211015701293945 35.0571136474609375
  7.8937721252441406  3.3202097415924072 34.0031280517578125
 10.0395374298095685 13.9227409362792969 34.2687797546386790
  0.9320621490478554  4.4792170524597168 33.9791030883789062
  1.1791057586669924 13.7549200057983398 34.1210403442382812
  3.4222748279571529  9.7470817565917951 34.3745689392089915
  4.3698015213012695  1.0460073947906494 33.9629745483398438
 14.3002485493198037 16.8034900426864624 34.6443176269531250
  8.6146888732910156  5.9658865928649902 41.8582000732421946
  7.8822464942932129 14.7132558822631836 42.0498466491699219
 17.4912911653518677  5.0480985641479492 42.4917678833007884
 16.5871094465255773 13.5372591018676740 42.0276336669921946
  5.5827312469482422  0.9697852730751038 41.9445610046386719
  5.4226465225219727  9.9062290191650391 42.2308464050292969
 14.2835741043090820  1.1600531339645384 42.1791381835937500
 13.9683427810668928 10.7350130081176758 41.6067657470703196
  1.5306137800216675  2.9669051170349121 40.3193664550781250
  1.8808033466339111 12.7430543899536133 40.8034324645996165
 10.5589761734008789  3.1431627273559570 40.6505775451660156
 10.2553949356079102 12.2096490859985352 40.8556137084960938
  3.3055574893951416  7.4442987442016602 40.5017242431640625
  3.0520903328433633 16.6697006225585938 40.6999588012695312
 12.7835817337036115  7.3201465606689453 41.3406562805175781
 12.2271026829257590 16.5462400913238525 40.7463874816894531
  1.1959319114685059  3.1915507316589355 42.0341949462890625
  0.7389919161796570 12.2476911544799805 42.0482864379882884
 10.7329387664794922  4.6064915657043457 41.5869255065917969
  9.5781574249267578 12.7790708541870117 42.3337631225586009
  3.7084937095642090  7.9898738861083975 42.1338272094726562
  3.6830584267154336 17.3058735728263855 42.2106513977050781
 12.3816280364990234  8.8509750366210938 42.0772094726562500
 12.5153812626376730 17.3590619564056396 42.2706336975097656
  7.1634578704833984  5.2864623069763184 41.1243057250976562
  7.6217255592346191 15.2040433883666992 40.3942680358886719
 16.8840932846069371  5.8520112037658683 41.0934333801269531
 16.4137759208679235 14.7376289367675781 40.7751998901367259
  6.0179891586303711  1.3167607784271240 40.2798919677734375
  5.9492173194885245 10.4931612014770508 40.6708526611328125
 15.0186605453491211  1.4066979885101318 40.5938682556152344
 15.1913824081420898 10.4261312484741193 40.4009246826171875
  0.0812547057867050  4.6258597373962402 39.6040344238281250
  0.4467536211013794 14.3269948959350586 39.8812980651855469
  8.3034639358520508  3.4777050018310547 40.2061157226562500
  9.0913143157958984 13.6802387237548828 39.5091323852539062
  4.4583801487460732 17.9270004630088842 39.3853950500488281
  4.6651282310485840  8.9914026260375977 39.4769058227539062
 13.7924780109897256 17.7849310338497197 39.5908088684082031
 14.5744457244873047  8.1992063522338867 40.1442565917968821
  8.1032123565673828  5.4420318603515616 48.0459518432617259
  8.1007528305053711 14.4734306335449219 48.0459518432617259
 17.1336116790771484  5.4420318603515616 48.0459518432617259
 17.1311531066894531 14.4734306335449219 48.0459518432617259
  5.4410333633422852  0.9265221953392029 48.0449485778808594
  5.4385743141174316  9.9579219818115234 48.0449485778808594
 14.4714326858520490  0.9265221953392029 48.0449485778808594
 14.4689741134643555  9.9579219818115234 48.0449485778808594
  1.4218254089355467  3.0919990539550781 46.4558296203613281
  1.4193661212921143 12.1233978271484375 46.4558296203613281
 10.4522256851196289  3.0919990539550781 46.4558296203613281
 10.4497661590576172 12.1233978271484375 46.4558296203613281
  3.0899283885955806  7.6075901985168457 46.4545211791992188
  3.0874691009521484 16.6389904022216797 46.4545211791992188
 12.1203289031982422  7.6075901985168457 46.4545211791992188
 12.1178693771362305 16.6389904022216797 46.4545211791992188
  0.9247469902038573  3.5893490314483643 48.0459518432617259
  0.9222877025604248 12.6207475662231445 48.0459518432617259
  9.9551477432250977  3.5893490314483643 48.0459518432617259
  9.9526882171630859 12.6207475662231445 48.0459518432617259
  3.5868983268737793  8.1048498153686523 48.0448913574218821
  3.5844390392303462 17.1362495422363281 48.0448913574218821
 12.6172990798950195  8.1048498153686523 48.0448913574218821
 12.6148395538330078 17.1362495422363281 48.0448913574218821
  7.6061611175537109  5.9393639564514160 46.4558296203613281
  7.6037015914916992 14.9707632064819336 46.4558296203613281
 16.6365604400634766  5.9393639564514160 46.4558296203613281
 16.6341018676757812 14.9707632064819336 46.4558296203613281
  5.9380125999450684  1.4238001108169553 46.4545211791992188
  5.9355530738830566 10.4551992416381836 46.4545211791992188
 14.9684123992919904  1.4238001108169553 46.4545211791992188
 14.9659538269042951 10.4551992416381836 46.4545211791992188
 -0.0011664569610730  4.5157265663146973 45.3548011779785156
 -0.0036257810425013 13.5471258163452148 45.3548011779785156
  9.0292339324951172  4.5157265663146973 45.3548011779785156
  9.0267744064331037 13.5471258163452148 45.3548011779785156
  4.5152091979980469  0.0000000000000000 45.3536758422851562
  4.5127501487731934  9.0313997268676740 45.3536758422851562
 13.5456094741821289  0.0000000000000000 45.3536758422851562
 13.5431499481201172  9.0313997268676740 45.3536758422851562
 13.9961414337158185 10.0290441513061523 32.5223655700683594
 13.0139236450195312  8.5953464508056641 32.8740501403808594
 15.7754306793212891  9.0499477386474609 33.8744277954101562
 15.4628438949584961  8.6607580184936523 35.5611648559570312
 13.4215373992919904 11.5789051055908203 34.9717483520507812
 14.5226564407348633 10.7910718917846680 36.1082000732421946
 12.0756254196166992  9.9141473770141602 35.6452980041503977
 12.2187271118164062  8.2329044342041016 35.0797042846679688
 11.1203374862670898  9.9737682342529297 33.5897750854492188
 12.0993700027465820 11.4505615234375000 33.5163574218750000
 10.9460458755493164 11.6470584869384766 31.5741443634033203
 12.3983211517333967 10.8519115447998047 30.9804935455322266
 14.4330415725708008  7.0419168472290039 33.1252288818359375
 13.9723443984985352  6.6971783638000488 34.8006172180175781
 15.6642217636108398  6.5732264518737784 34.3178787231445312
 15.6120061874389648 12.5286235809326154 34.7776718139648438
 15.2816333770751953 11.6965827941894531 33.2518196105957031
 16.3938941955566406 10.9533205032348633 34.4521827697753906
 13.6423454284667969  9.5042324066162109 37.5078697204589844
 14.0333070755004865  7.8873457908630362 36.8873825073242259
 12.4173851013183594  8.2526454925537109 37.4707527160644531
  9.6563348770141602  9.5654087066650391 31.4878826141357422
 10.3881235122680664  9.8775033950805664 29.8996505737304723
 12.4862775802612305  8.5736656188964844 29.2693576812744176
 10.1340227127075195  7.5794787406921378 32.7485885620117188
 13.7140893936157209  6.4339661598205566 29.4709663391113317
 11.3832807540893555  5.4139180183410636 32.9388389587402415
 13.1791810989379883  4.8535490036010742 31.3352813720703125
  0.3836898803710974  4.5024347305297852 34.9223480224609375
  0.5331325531005864 13.6316089630126953 35.0123367309570312
  8.3849821090698242  4.0996065139770508 34.6148300170898438
  9.1241312026977539 13.8513851165771484 34.8678512573242188
  4.3258314132690430  9.4539194107055646 34.9199600219726562
  4.4525632858276367  0.1980764567852020 34.6522331237792969
 13.8889393070712686 17.6877298355102539 35.1489562988281250
  0.1801761984825134  4.4038705825805664 40.6857643127441406
  0.1278577744960785 13.7412014007568359 40.7593803405761719
  8.8508415222167969  4.2074661254882812 40.8296508789062500
  8.9406995773315430 13.7060470581054688 40.6109085083007884
  4.6348824501037598  8.9769477844238281 40.5760879516601634
  4.5254825809970498 18.0228634513914585 40.4815025329589844
 13.9992494583129883  8.8415641784667969 40.8188209533691406
 13.6178392628207803 17.9915959611535072 40.6601142883300781
  9.0289716720581055  4.5156092643737793 46.4455223083496165
  9.0265130996704102 13.5470085144042969 46.4455223083496165
 18.0593719482421875  4.5156092643737793 46.4455223083496165
 18.0569133758544922 13.5470085144042969 46.4455223083496165
  4.5152091979980469  0.0000180629995157 46.4442062377929759
  4.5127501487731934  9.0314178466796857 46.4442062377929759
 13.5456094741821289  0.0000180629995157 46.4442062377929759
 13.5431499481201172  9.0314178466796857 46.4442062377929759
 11.2446660995483398  8.2348146438598633 30.9923553466796911
 12.2450027465820312  7.8943114280700684 30.0666275024414098
 10.9126787185668928  7.3159031867980957 32.0134124755859446
 12.9451770782470703  6.6819643974304199 30.1868858337402344
 11.6245117187500000  6.1084513664245605 32.1303901672363281
 12.6418657302856445  5.7975878715515137 31.2222671508789062
 13.2068147659301758  9.6268644332885742 33.1785011291503906
 15.0361690521240217  8.5982666015625000 34.5511894226074219
 14.2936630249023438 10.9176244735717773 35.0440826416015696
 12.7663640975952148  9.0626363754272461 35.5450363159179688
 11.9447364807128888 10.4703369140624982 33.0701370239257812
 11.4969940185546875 10.6989288330078125 31.6038665771484375
 14.7483377456665039  7.1631188392639160 34.1694908142089844
 15.4749212265014648 11.5363950729370117 34.3233947753906250
 13.2728071212768555  8.6649990081787109 36.9119224548339844
 10.6103878021240234  9.6087846755981445 30.9549064636230504
  0.1651954650878907  3.3696682453155518 35.5505218505859375
  0.6045207977294922 12.5161266326904279 35.6972808837890625
  9.6662321090698242  3.9942870140075684 34.8661422729492188
  8.8205995559692383 12.6773023605346680 35.3868026733398438
  7.6238174438476562  5.1046147346496582 35.0442504882812500
  8.4020128250122070 14.9521226882934570 35.0245094299316406
  0.0057544708251970  5.6801595687866202 35.3733215332031321
 17.8007431030273438 14.6444215774536133 35.3112335205078125
  4.3934559822082520  8.2101030349731445 35.3281974792480540
  3.3511749962344766 17.6256068646907806 34.9762039184570312
 12.5762790897861123 17.7510269582271576 35.2967109680175781
  5.6483687618747354 17.9687216654419899 35.1224479675292969
  5.2486839294433594 10.3720407485961914 35.1330413818359375
 14.7203760147094727  0.5394082069396973 35.5866355895996094
  1.0033632516860962  3.4701375961303711 41.0454597473144531
  0.9419336915016173 12.8503246307373047 41.2341613769531321
 10.1223449707031250  3.9864387512207027 41.0534667968750000
  9.6285324096679688 12.8507108688354492 41.3265647888183594
  3.8391621112823482  8.0729885101318359 41.1334304809570312
  3.7049741009250283 17.3004490137100255 41.1943893432617188
 12.9736328125000000  8.3120613098144531 41.4494361877441406
 12.7381424168124795 17.2627819776535034 41.2862052917480469
  8.1810007095336914  5.2581915855407715 41.2884521484375000
  8.0992212295532227 14.5980701446533203 41.0624313354492259
 17.4939838647842407  5.1376452445983887 41.4864387512207031
 16.9952099323272741 14.0359859466552734 41.2365379333496094
  5.4387741088867188  0.8060956597328186 40.9603691101074219
  5.3758649826049796  9.8330440521240234 41.2223472595214844
 14.3532314300537109  0.9048448801040649 41.2019844055175852
 14.4132518768310529 10.0953025817871094 40.9435691833496165
  0.8273094892501831  3.6869695186614990 47.0359649658203125
  0.8248501420021057 12.7183685302734375 47.0359649658203125
  9.8577098846435547  3.6869695186614990 47.0359649658203125
  9.8552503585815412 12.7183685302734375 47.0359649658203125
  3.6843190193176270  8.2023353576660156 47.0346527099609375
  3.6818594932556152 17.2337341308593750 47.0346527099609375
 12.7147188186645508  8.2023353576660156 47.0346527099609375
 12.7122592926025391 17.2337341308593750 47.0346527099609375
  8.2006769180297852  5.3445744514465332 47.0360260009765696
  8.1982173919677734 14.3759746551513672 47.0360260009765696
 17.2310771942138672  5.3445744514465332 47.0360260009765696
 17.2286186218261719 14.3759746551513672 47.0360260009765696
  5.3436489105224600  0.8290914893150328 47.0346527099609375
  5.3411893844604483  9.8604917526245117 47.0346527099609375
 14.3740482330322266  0.8290914893150328 47.0346527099609375
 14.3715896606445312  9.8604917526245117 47.0346527099609375
 13.8276567459106445  9.5422534942626953 34.5706787109375000
  9.1347227096557617  0.3527094423770905 34.5116233825683594
  8.5621633529663086  9.0667152404785156 34.7125701904296875
 18.0083874762058258  0.0232969950884581 34.3744201660156250
  0.7081871032714844  9.0314359664916992 34.5455970764160227
  4.1551327705383301  4.2860198020935059 34.5450668334960938
  4.4992523193359375 13.8909463882446289 34.6227264404296946
 13.3097972869873029  3.6767644882202148 34.7000350952148438
 12.7690725326538086 14.2995243072509766 34.4330558776855469
  0.0288336547091603 17.7830094993114471 40.8881034851074219
  0.1802103519439697  8.9161367416381836 40.9543838500976562
  9.0524396896362305  0.1722508817911148 40.9163017272949219
  9.2791948318481445  8.8319835662841797 40.9637947082519602
  4.6989645957946777  4.4192719459533691 40.8988151550292969
  4.5302548408508292 13.6249771118164045 40.9092636108398438
 13.5554094314575195  4.7556676864624023 40.9070014953613281
 13.4429864883422852 13.6289653778076172 40.8785972595214915
  2.4484615325927734  1.9328083992004395 37.9953155517578125
  2.6648221015930171 10.9886960983276367 38.1358070373535156
 11.7290525436401367  1.9122418165206909 38.2168045043945312
 11.1491928100585938 11.4624481201171875 38.3257331848144531
  6.5011258125305176  6.9723963737487793 37.9243965148925781
  6.6689548492431641 15.9577035903930646 37.9658203125000000
 16.1272926330566406  6.5626878738403320 38.3078346252441406
 15.7691841125488281 15.7328376770019531 38.0098266601562571
  2.2337040901184082  6.5186157226562500 38.1521224975585938
  2.2377483844757080 15.7376117706298828 37.8881072998046875
 10.5240468978881836  5.9826970100402832 37.6861076354980469
 11.1194410324096680 15.7553291320800781 38.1719741821289062
  6.9797754287719718  2.4183006286621094 37.8802757263183594
  6.9402699470520020 11.3768930435180664 38.1885681152343750
 16.0389728546142578  2.4873058795928955 38.2889251708984446
 16.3863296508789062 11.5895080566406232 38.3558578491210938
  0.0000000000000000  0.0000000000000000 47.1735610961914062
 -0.0024593239650130  9.0313997268676740 47.1735610961914062
  9.0304002761840803  0.0000000000000000 47.1735610961914062
  9.0279407501220685  9.0313997268676740 47.1735610961914062
  4.5139794349670410  4.5156998634338379 47.1742515563964844
  4.5115203857421875 13.5470991134643537 47.1742515563964844
 13.5443792343139648  4.5156998634338379 47.1742515563964844
 13.5419197082519531 13.5470991134643537 47.1742515563964844
  2.4519233703613277  2.0629522800445557 44.0401268005371165
  2.4494640827178955 11.0943517684936523 44.0401268005371165
 11.4823226928710920  2.0629522800445557 44.0401268005371165
 11.4798641204833984 11.0943517684936523 44.0401268005371165
  6.5760178565979004  6.9684472084045410 44.0401268005371165
  6.5735583305358887 15.9998464584350586 44.0401268005371165
 15.6064186096191406  6.9684472084045410 44.0401268005371165
 15.6039590835571289 15.9998464584350586 44.0401268005371165
  2.0610768795013428  6.5788145065307617 44.0400009155273509
  2.0586175918579102 15.6102142333984375 44.0400009155273509
 11.0914773941040039  6.5788145065307617 44.0400009155273509
 11.0890178680419922 15.6102142333984375 44.0400009155273509
  6.9668641090393066  2.4525938034057613 44.0400657653808665
  6.9644045829772949 11.4839935302734375 44.0400657653808665
 15.9972639083862305  2.4525938034057613 44.0400657653808665
 15.9948053359985352 11.4839935302734375 44.0400657653808665
  2.4316265583038330  2.0832188129425049 50.0684852600097656
  2.4291670322418213 11.1146183013915998 50.0684852600097656
 11.4620265960693359  2.0832188129425049 50.0684852600097656
 11.4595670700073224 11.1146183013915998 50.0684852600097656
  6.5963144302368164  6.9481806755065918 50.0684852600097656
  6.5938549041748047 15.9795799255371076 50.0684852600097656
 15.6267137527465803  6.9481806755065918 50.0684852600097656
 15.6242542266845703 15.9795799255371076 50.0684852600097656
  2.0811281204223633  6.5990090370178223 50.0690460205078125
  2.0786688327789307 15.6304082870483398 50.0690460205078125
 11.1115283966064453  6.5990090370178223 50.0690460205078125
 11.1090688705444336 15.6304082870483398 50.0690460205078125
  6.9468131065368652  2.4323906898498531 50.0690460205078125
  6.9443535804748535 11.4637899398803711 50.0690460205078125
 15.9772129058837891  2.4323906898498531 50.0690460205078125
 15.9747543334960938 11.4637899398803711 50.0690460205078125
 17.9546912843361497 18.0013329870998859 37.8420104980468821
  0.1649229228496552  9.0317020416259766 37.8540420532226562
  9.0195627212524414  0.1330129504203796 37.7626876831054688
  8.9783782958984375  8.8890686035156250 37.7687911987304759
  4.4002170562744141  4.3486490249633789 37.7012939453125000
  4.4842634201049805 13.5046644210815430 37.7345504760742188
 13.3488683700561523  4.5215549468994141 37.6478309631347656
 13.2261934280395490 13.6664752960205060 37.5885963439941477
  0.0000090280000222  0.0000090310004452 44.0429992675781250
 -0.0024502959568053  9.0314083099365234 44.0429992675781250
  9.0304088592529297  0.0000090310004452 44.0429992675781250
  9.0279493331909180  9.0314083099365234 44.0429992675781250
  4.5139703750610352  4.5156903266906738 44.0427513122558594
  4.5115113258361816 13.5470905303955078 44.0427513122558594
 13.5443706512451172  4.5156903266906738 44.0427513122558594
 13.5419111251831037 13.5470905303955078 44.0427513122558594
  0.0000000000000000  0.0000000000000000 50.4472808837890696
 -0.0024593239650130  9.0313997268676740 50.4472808837890696
  9.0304002761840803  0.0000000000000000 50.4472808837890696
  9.0279407501220685  9.0313997268676740 50.4472808837890696
  4.5139703750610352  4.5156998634338379 50.4472808837890696
  4.5115113258361816 13.5470991134643537 50.4472808837890696
 13.5443706512451172  4.5156998634338379 50.4472808837890696
 13.5419111251831055 13.5470991134643537 50.4472808837890696
