 H  C  N  I Pb 
 1.0000000000000000
    18.0608005523681641    0.0000000000000000    0.0000000000000000
    -0.0049186488613486   18.0627994537353516    0.0000000000000000
     0.0000000000000000    0.0000000000000000   62.4874992370605469
 H   C   N   I   Pb 
 143  39  47  72  24
Cartesian
  7.9270424842834473  5.2129440307617188 36.4474601745605540
  7.8402671813964844 14.1844453811645508 36.2969322204589844
 17.0345172882080078  5.3304634094238281 36.4983634948730540
 17.2076416015625000 14.5083312988281250 36.3124198913574219
  5.4778118133544922  0.9085239768028258 36.3596916198730469
  5.5198960304260254 10.2427034378051758 36.1875534057617188
 14.1622276306152344  1.1753938198089600 36.3495635986328125
  1.5270519256591779  3.1147980690002441 34.9093818664550781
  1.5841369628906254 12.2845106124877930 34.8203353881835938
 10.7400007247924805  3.3882803916931148 34.8777961730957031
 10.7933540344238281 12.6392002105712891 34.8294715881347656
  6.2840046882629395  1.0332167148590088 34.8221282958984375
  5.6944575309753418 10.6957550048828125 34.5188407897949219
 14.8991756439208984  1.5090775489807129 34.8122329711914062
  1.0953788757324239  3.8153791427612305 36.5012435913086009
  0.7917633056640629 12.6113424301147461 36.3039321899414062
  9.9340515136718750  3.5865294933319092 36.4257354736328125
  9.8964595794677734 12.7645721435546857 36.3817291259765696
  4.0359888076782227  8.1167478561401367 36.5545234680175781
  3.3203675011172891 17.4765030741691589 36.3309402465820384
 12.5639976719394326 17.1560570001602173 36.3479690551757884
  7.4543528556823722  5.8086342811584464 34.8569145202636719
  7.4408941268920890 14.9423866271972656 34.7584152221679688
 16.3256206512451172  5.4868807792663574 34.8847885131835938
 16.9510021209716797 15.3014812469482422 34.8117523193359446
  3.4175267219543457  7.3909649848937988 35.0996513366699290
  2.9385706642642617 16.7946722507476807 34.7747383117675781
 12.4467462757602334 16.3358201980590820 34.8114089965820312
  9.2006826400756836  4.6707229614257812 33.6905670166015625
  9.3408899307250959 13.9536342620849609 33.6792144775390625
 17.7495956420898438  4.0294609069824219 33.8725852966308594
  0.5142860412597648 14.0174856185913068 33.6659812927246094
  4.3991994857788086  8.9330978393554688 33.6657295227050781
  4.7514685848727822 17.7329250276088715 33.6754455566406250
 13.8982834080234170 17.7989332377910614 33.6946601867675781
  7.9487252235412589  5.4197006225585938 42.0015716552734375
  8.0060367584228516 14.4601421356201172 42.1425361633300781
 17.0525693893432617  5.4967460632324219 42.0395126342773438
 17.0438380241394043 14.4110422134399414 42.2423667907714844
  5.4016737937927237  0.9986991882324219 42.1078987121582031
  5.4855890274047843  9.9710073471069336 42.1051292419433594
 14.6673231124877930  0.9440770149230957 42.0605621337890625
 14.4398756027221662 10.0151119232177734 42.0715293884277344
  1.4175198078155518  3.0358278751373291 40.6125640869140625
  1.5621222257614136 12.3137331008911133 40.6216697692871094
 10.4623365402221680  3.1062107086181641 40.5600395202636790
 10.4016494750976562 12.0894403457641602 40.7294502258300781
  3.0169227123260494  7.6325216293334961 40.6208190917968821
  3.1693433979526162 16.4799541234970093 40.5995826721191406
 12.0841789245605469  7.4283809661865234 41.0516014099121094
 11.9938844898715615 16.8062061071395910 40.6957054138183594
  0.8107548952102660  3.5950343608856201 42.1614646911621094
  0.9073094725608826 12.7093524932861328 42.2130393981933594
  9.7371902465820312  3.5308752059936523 42.1063346862792969
  9.8337430953979492 12.6584415435791016 42.2636146545410156
  3.5992705821990967  8.1786699295043945 42.1961174011230469
  3.6180280903354287 17.1287689208984375 42.1792182922363281
 12.7090816497802734  8.0822391510009766 42.5272216796875071
 12.6694492558017373 17.3350086212158203 42.2391929626464844
  7.6522879600524902  6.0606656074523926 40.3963699340820384
  7.5719547271728516 14.9814586639404297 40.5169906616211009
 16.6493010520935059  5.9293651580810547 40.4379119873046875
 16.5547646284103394 15.0055856704711914 40.6377334594726562
  5.9429025650024414  1.4387059211730957 40.4862937927246094
  5.9727687835693359 10.4539976119995117 40.4849586486816406
 15.0980653762817383  1.3795583248138428 40.4048118591308594
 14.6743259429931641 10.4373235702514648 40.3739166259765625
  0.0750751644372940  4.4536914825439453 39.4290199279785227
  0.1004510819911957 13.7273044586181641 39.5099830627441406
  9.2223339080810547  4.6320815086364746 39.3730278015136719
  9.0850143432617188 13.4987926483154297 39.5007247924804688
  4.5655087688937783 17.8947485387325287 39.4430427551269602
  4.4386181831359863  8.9981603622436523 39.4423217773437500
 13.4512762287631631 18.0618478804826736 39.4489631652832031
 13.1731185913085938  8.8018636703491211 39.6360664367675781
  8.1032123565673828  5.4420318603515616 48.0459518432617259
  8.1007528305053711 14.4734306335449219 48.0459518432617259
 17.1336116790771484  5.4420318603515616 48.0459518432617259
 17.1311531066894531 14.4734306335449219 48.0459518432617259
  5.4410333633422852  0.9265221953392029 48.0449485778808594
  5.4385743141174316  9.9579219818115234 48.0449485778808594
 14.4714326858520490  0.9265221953392029 48.0449485778808594
 14.4689741134643555  9.9579219818115234 48.0449485778808594
  1.4218254089355467  3.0919990539550781 46.4558296203613281
  1.4193661212921143 12.1233978271484375 46.4558296203613281
 10.4522256851196289  3.0919990539550781 46.4558296203613281
 10.4497661590576172 12.1233978271484375 46.4558296203613281
  3.0899283885955806  7.6075901985168457 46.4545211791992188
  3.0874691009521484 16.6389904022216797 46.4545211791992188
 12.1203289031982422  7.6075901985168457 46.4545211791992188
 12.1178693771362305 16.6389904022216797 46.4545211791992188
  0.9247469902038573  3.5893490314483643 48.0459518432617259
  0.9222877025604248 12.6207475662231445 48.0459518432617259
  9.9551477432250977  3.5893490314483643 48.0459518432617259
  9.9526882171630859 12.6207475662231445 48.0459518432617259
  3.5868983268737793  8.1048498153686523 48.0448913574218821
  3.5844390392303462 17.1362495422363281 48.0448913574218821
 12.6172990798950195  8.1048498153686523 48.0448913574218821
 12.6148395538330078 17.1362495422363281 48.0448913574218821
  7.6061611175537109  5.9393639564514160 46.4558296203613281
  7.6037015914916992 14.9707632064819336 46.4558296203613281
 16.6365604400634766  5.9393639564514160 46.4558296203613281
 16.6341018676757812 14.9707632064819336 46.4558296203613281
  5.9380125999450684  1.4238001108169553 46.4545211791992188
  5.9355530738830566 10.4551992416381836 46.4545211791992188
 14.9684123992919904  1.4238001108169553 46.4545211791992188
 14.9659538269042951 10.4551992416381836 46.4545211791992188
 -0.0011664569610730  4.5157265663146973 45.3548011779785156
 -0.0036257810425013 13.5471258163452148 45.3548011779785156
  9.0292339324951172  4.5157265663146973 45.3548011779785156
  9.0267744064331037 13.5471258163452148 45.3548011779785156
  4.5152091979980469  0.0000000000000000 45.3536758422851562
  4.5127501487731934  9.0313997268676740 45.3536758422851562
 13.5456094741821289  0.0000000000000000 45.3536758422851562
 13.5431499481201172  9.0313997268676740 45.3536758422851562
 14.0712194442749023  9.5194034576415998 32.8067855834960938
 15.7496194839477521  9.3832416534423828 33.4722442626953125
 13.9144477844238281 11.3858003616333008 33.8459014892578196
 14.0048818588256836 11.5748624801635742 35.6212882995605540
 12.4030857086181641  8.5531091690063477 35.2514457702636719
 12.2122964859008789 10.2749729156494123 35.5739059448242188
 14.5747880935668945  7.8392648696899414 35.8682174682617188
 15.7486419677734357  9.1885700225830078 36.0966873168945312
 15.4569501876831055  7.1088123321533203 34.2822990417480469
 13.7229642868041974  7.0853242874145508 33.8397827148437500
 14.0660848617553711  7.2108101844787598 31.5340652465820348
 15.6745901107788086  7.9002022743225098 31.6996383666992188
 16.3503360748291016 11.5188846588134766 33.6331329345703125
 16.6728820800781250 10.9749450683593750 35.3255424499511719
 15.8877916336059553 12.5389804840087891 35.0777359008789062
 10.9019784927368164  9.8718490600585938 33.7222976684570312
 12.1007108688354492  8.9713287353515625 32.8570861816406250
 12.2248878479003906 10.7405233383178711 32.9805374145507812
 13.1420764923095703  8.6786832809448242 37.5905799865722656
 13.4738607406616193 10.3930492401123029 37.1116828918457031
 14.6183395385742188  9.5974540710449219 38.1851730346679688
 15.1324720382690412  4.9670605659484863 32.5900993347167969
 15.1692285537719727  5.3158202171325675 30.8607349395751989
 17.0658187866210938  3.4276876449584961 31.4104518890380895
 17.4452056884765625  7.5876178741455069 32.4533386230468750
  1.4648456573486308  3.1681089401245117 31.6539268493652379
  1.7891597747802759  7.3152689933776855 32.7110252380371094
  2.8865070343017574  5.0834879875183105 32.2929115295410156
 17.9122867584228516  4.2716517448425293 34.9143905639648509
  0.2701950073242212 13.8199958801269531 34.7401542663574219
  9.1168098449707031  4.5639963150024414 34.7748641967773438
  9.1312255859375000 13.7619047164916992 34.7411613464355540
  4.5413303375244141  9.0250186920166016 34.7659797668457102
  4.6210116604343048 17.9271501898765564 34.7626838684082031
 13.6899055698886514 17.9471455067396164 34.7765121459960938
 18.0548663716763258  4.4970874786376953 40.5171966552734446
  0.0268696956336498 13.6615533828735352 40.6294288635253977
  9.0669374465942383  4.5706481933593750 40.4711151123046875
  9.0191144943237305 13.5327167510986328 40.6157646179199219
  4.4913787841796875  9.0387039184570312 40.5470123291015625
  4.5478195408359170 17.9946308732032776 40.5551567077636719
 13.3690500259399414  8.9177694320678711 40.7147140502929688
 13.5553951263427734  0.0483819022774696 40.5522689819336009
  9.0289716720581055  4.5156092643737793 46.4455223083496165
  9.0265130996704102 13.5470085144042969 46.4455223083496165
 18.0593719482421875  4.5156092643737793 46.4455223083496165
 18.0569133758544922 13.5470085144042969 46.4455223083496165
  4.5152091979980469  0.0000180629995157 46.4442062377929759
  4.5127501487731934  9.0314178466796857 46.4442062377929759
 13.5456094741821289  0.0000180629995157 46.4442062377929759
 13.5431499481201172  9.0314178466796857 46.4442062377929759
 17.0662899017333984  5.5179195404052734 31.8932914733886719
 17.6640987396240234  4.3140721321105957 31.6757469177246129
 17.9214515686035156  6.6197113990783691 32.2080039978027344
  1.0107116699218750  4.1641526222229004 31.7741184234619176
  1.2059421539306656  6.4804096221923819 32.3840141296386719
  1.8306465148925817  5.2262735366821289 32.1650924682617188
 14.7048740386962891  9.0557746887207031 33.5757980346679688
 14.4783143997192365 11.0833053588867188 34.7394180297851562
 12.5868587493896484  9.5433044433593750 34.8500213623046946
 14.6791973114013672  8.9224834442138672 36.0894012451171875
 14.7146682739257812  7.4981727600097656 33.5328445434570312
 14.9939136505126953  7.1505908966064453 32.1120986938476562
 15.9643068313598633 11.5238590240478516 34.6737327575683594
 11.9697999954223615  9.8034210205078125 33.5172386169433594
 13.9321498870849609  9.4021978378295898 37.3181800842285156
 15.5494880676269531  5.6879639625549316 31.8410224914550781
  0.8835010528564435  3.6809682846069336 35.5149765014648509
  0.9356079101562506 12.8371829986572266 35.3234672546386790
  9.9768285751342756  3.7633256912231445 35.3917655944824219
  9.9908676147460938 12.9879417419433594 35.3545799255371094
  8.0994100570678711  5.2294068336486816 35.4000434875488281
  8.0360250473022461 14.3304777145385742 35.3211593627929688
 17.0214805603027344  5.0808377265930176 35.4918060302734446
 17.4301033020019531 14.5974979400634766 35.3255577087402344
  3.9664897918701172  8.1307649612426758 35.5160255432128906
  3.5672685364261270 17.3719458580017090 35.3225555419921875
 12.8440956333652139 17.1103084087371826 35.3461151123046946
  5.5039772987365723  0.6476505398750305 35.3497276306152344
  5.2896623611450195 10.0470361709594727 35.1875076293945384
 14.2793855667114240  0.9107310771942139 35.3469009399414062
  0.7813878059387207  3.6768710613250728 41.1430511474609375
  0.8714863061904906 12.8592491149902344 41.2009887695312500
  9.7765531539916992  3.6941697597503662 41.0991630554199219
  9.8092899322509766 12.7254600524902344 41.2895469665527344
  3.6881217956542969  8.2663946151733398 41.2005538940429688
  3.7561401585116982 17.1876324415206909 41.1862144470214844
 12.6734199523925781  8.0894260406494141 41.4841423034667969
 12.7209419468417764 17.4033800363540649 41.2420959472656250
  8.1548461914062500  5.3990373611450195 41.0100860595703125
  8.1256303787231445 14.3900909423828125 41.1460380554199219
 17.2102377414703405  5.3476634025573730 41.0707015991210938
 17.1747828125953674 14.4044008255004883 41.1952095031738352
  5.3074784278869629  0.8132804632186890 41.1218528747558594
  5.3840637207031250  9.8862295150756836 41.1072158813476562
 14.5137128829956055  0.8341164588928223 41.0704727172851634
 14.2231941223144531  9.8367385864257812 41.0902976989746094
  0.8273094892501831  3.6869695186614990 47.0359649658203125
  0.8248501420021057 12.7183685302734375 47.0359649658203125
  9.8577098846435547  3.6869695186614990 47.0359649658203125
  9.8552503585815412 12.7183685302734375 47.0359649658203125
  3.6843190193176270  8.2023353576660156 47.0346527099609375
  3.6818594932556152 17.2337341308593750 47.0346527099609375
 12.7147188186645508  8.2023353576660156 47.0346527099609375
 12.7122592926025391 17.2337341308593750 47.0346527099609375
  8.2006769180297852  5.3445744514465332 47.0360260009765696
  8.1982173919677734 14.3759746551513672 47.0360260009765696
 17.2310771942138672  5.3445744514465332 47.0360260009765696
 17.2286186218261719 14.3759746551513672 47.0360260009765696
  5.3436489105224600  0.8290914893150328 47.0346527099609375
  5.3411893844604483  9.8604917526245117 47.0346527099609375
 14.3740482330322266  0.8290914893150328 47.0346527099609375
 14.3715896606445312  9.8604917526245117 47.0346527099609375
 14.1098403930664062  9.6097030639648438 34.8124771118164062
  8.9613761901855469  0.0373813211917877 34.5084953308105469
  8.6718826293945312  8.7268972396850586 34.6388778686523438
 18.0387684293091297  0.0134615814313293 34.4484825134277415
  0.3184643983840942  9.0107679367065430 34.7957000732421875
  4.7294554710388175  4.4473953247070312 34.6247825622558665
  4.5098786354064941 13.6897630691528320 34.4894943237304688
 13.2915163040161133  4.2126097679138184 34.7024421691894531
 13.2116737365722656 13.8780565261840820 34.2161712646484375
 18.0594874027883634  0.0449257977306843 40.8654479980468750
  0.0928269624710083  9.0019149780273438 41.0020027160644602
  9.0961265563964844  0.0478361397981644 40.9314918518066477
  9.0282926559448242  9.0041084289550781 40.9347801208496094
  4.4919171333312988  4.4474220275878906 40.9549522399902344
  4.4696969985961914 13.5831747055053711 40.8681831359863352
 13.4428482055664045  4.4623589515686035 40.9647521972656250
 13.5034885406494141 13.6057844161987305 40.8859634399414062
  2.6426029205322266  1.9098125696182249 38.0418167114257812
  2.6888487339019775 10.9862403869628906 38.0465087890625000
 11.6484870910644531  1.9567583799362180 38.0819282531738281
 11.2778148651123047 11.3025398254394531 38.2828063964843750
  6.4538717269897452  7.0972356796264648 38.1222419738769531
  6.4301433563232422 16.1420726776123047 38.0605850219726634
 15.8088502883911133  6.7851920127868652 38.2727546691894531
 15.4783573150634766 16.1919441223144531 38.0091400146484375
  2.0112009048461914  6.3650169372558594 38.0416679382324219
  1.9029101133346558 15.4792919158935547 38.0381393432617188
 11.0808181762695312  6.5638008117675781 37.9045944213867188
 10.9286823272705060 15.5571727752685547 38.0745239257812500
  7.1335206031799316  2.5779535770416260 38.0745162963867188
  7.0822000503540039 11.6057271957397461 37.9617080688476562
 16.0731296539306641  2.5347528457641602 38.0584945678711009
 16.3929786682128906 11.8938636779785156 38.2630233764648438
  0.0000000000000000  0.0000000000000000 47.1735610961914062
 -0.0024593239650130  9.0313997268676740 47.1735610961914062
  9.0304002761840803  0.0000000000000000 47.1735610961914062
  9.0279407501220685  9.0313997268676740 47.1735610961914062
  4.5139794349670410  4.5156998634338379 47.1742515563964844
  4.5115203857421875 13.5470991134643537 47.1742515563964844
 13.5443792343139648  4.5156998634338379 47.1742515563964844
 13.5419197082519531 13.5470991134643537 47.1742515563964844
  2.4519233703613277  2.0629522800445557 44.0401268005371165
  2.4494640827178955 11.0943517684936523 44.0401268005371165
 11.4823226928710920  2.0629522800445557 44.0401268005371165
 11.4798641204833984 11.0943517684936523 44.0401268005371165
  6.5760178565979004  6.9684472084045410 44.0401268005371165
  6.5735583305358887 15.9998464584350586 44.0401268005371165
 15.6064186096191406  6.9684472084045410 44.0401268005371165
 15.6039590835571289 15.9998464584350586 44.0401268005371165
  2.0610768795013428  6.5788145065307617 44.0400009155273509
  2.0586175918579102 15.6102142333984375 44.0400009155273509
 11.0914773941040039  6.5788145065307617 44.0400009155273509
 11.0890178680419922 15.6102142333984375 44.0400009155273509
  6.9668641090393066  2.4525938034057613 44.0400657653808665
  6.9644045829772949 11.4839935302734375 44.0400657653808665
 15.9972639083862305  2.4525938034057613 44.0400657653808665
 15.9948053359985352 11.4839935302734375 44.0400657653808665
  2.4316265583038330  2.0832188129425049 50.0684852600097656
  2.4291670322418213 11.1146183013915998 50.0684852600097656
 11.4620265960693359  2.0832188129425049 50.0684852600097656
 11.4595670700073224 11.1146183013915998 50.0684852600097656
  6.5963144302368164  6.9481806755065918 50.0684852600097656
  6.5938549041748047 15.9795799255371076 50.0684852600097656
 15.6267137527465803  6.9481806755065918 50.0684852600097656
 15.6242542266845703 15.9795799255371076 50.0684852600097656
  2.0811281204223633  6.5990090370178223 50.0690460205078125
  2.0786688327789307 15.6304082870483398 50.0690460205078125
 11.1115283966064453  6.5990090370178223 50.0690460205078125
 11.1090688705444336 15.6304082870483398 50.0690460205078125
  6.9468131065368652  2.4323906898498531 50.0690460205078125
  6.9443535804748535 11.4637899398803711 50.0690460205078125
 15.9772129058837891  2.4323906898498531 50.0690460205078125
 15.9747543334960938 11.4637899398803711 50.0690460205078125
  0.0027869772166014 18.0442322175949812 37.7038269042968750
  0.1933026462793350  9.0583858489990234 37.8626899719238281
  8.9801397323608398  0.0002164139295928 37.6575851440429688
  9.0120706558227539  9.0331878662109375 37.7088050842285227
  4.5493206977844238  4.4571619033813477 37.7438964843750071
  4.4740982055664062 13.5840663909912109 37.6759185791015696
 13.5714511871337891  4.5152759552001953 37.8321456909179688
 13.5581445693969727 13.7021503448486328 37.7683143615722656
  0.0000090280000222  0.0000090310004452 44.0429992675781250
 -0.0024502959568053  9.0314083099365234 44.0429992675781250
  9.0304088592529297  0.0000090310004452 44.0429992675781250
  9.0279493331909180  9.0314083099365234 44.0429992675781250
  4.5139703750610352  4.5156903266906738 44.0427513122558594
  4.5115113258361816 13.5470905303955078 44.0427513122558594
 13.5443706512451172  4.5156903266906738 44.0427513122558594
 13.5419111251831037 13.5470905303955078 44.0427513122558594
  0.0000000000000000  0.0000000000000000 50.4472808837890696
 -0.0024593239650130  9.0313997268676740 50.4472808837890696
  9.0304002761840803  0.0000000000000000 50.4472808837890696
  9.0279407501220685  9.0313997268676740 50.4472808837890696
  4.5139703750610352  4.5156998634338379 50.4472808837890696
  4.5115113258361816 13.5470991134643537 50.4472808837890696
 13.5443706512451172  4.5156998634338379 50.4472808837890696
 13.5419111251831055 13.5470991134643537 50.4472808837890696
