 H  C  N  I Pb 
 1.0000000000000000
    18.0608005523681641    0.0000000000000000    0.0000000000000000
    -0.0049186488613486   18.0627994537353516    0.0000000000000000
     0.0000000000000000    0.0000000000000000   62.4874992370605469
 H   C   N   I   Pb 
 143  39  47  72  24
Cartesian
  8.1778087615966797  6.0721588134765625 35.2312126159667969
  7.9325375556945801 14.9860239028930664 35.7041473388671875
 17.3671550750732422  5.9174218177795410 35.9606285095214915
 17.0264701843261719 14.7873268127441406 35.7879562377929688
  6.0482234219089150 17.2161645293235779 35.7534675598144531
  6.3234219551086417  9.9448518753051758 34.8424034118652344
 14.5683650970458984  1.5973169803619385 35.1433715820312500
  0.2264060974121097  2.5831961631774898 34.9180793762207102
  1.2998008728027333 12.0101070404052734 35.6546020507812500
  9.9636554718017578  2.8859224319458003 34.9443817138671875
  8.9514131546020508 11.6020412445068342 34.9119682312011719
  6.6337962150573730  0.4996496438980103 34.8230133056640625
  5.3030304908752441 11.3509635925292969 34.5247611999511719
 15.8782367706298828  0.4984802603721618 34.7022781372070312
 17.2612457275390625  3.4496526718139644 36.0428733825683594
 17.8744163513183594 12.5088863372802717 36.4102020263671946
 10.2277927398681641  4.5469198226928711 35.4537963867187500
  7.9354510307312012 12.5108108520507812 35.9652633666992259
  5.0589804649353018  7.9303932189941406 35.7476310729980469
  3.6348826149478555 16.7750604152679443 35.7878837585449219
 12.3710107803344709  0.5252662897109985 35.6501655578613281
  6.7265467643737793  5.2417526245117179 34.7013854980468750
  9.0862340927124023 15.6747512817382812 34.6096839904785227
  0.3617267608642585  6.6486678123474121 34.7822608947753906
 17.9454650878906250 15.6657915115356445 34.6107254028320312
  3.3211731910705566  8.0346555709838867 35.5881347656250000
  2.6054188469424844 17.9235699325799942 34.9938468933105540
 12.2822984913364035 16.8605508804321289 35.3146629333496094
  7.7721724510192871  3.2321076393127441 34.3840904235839844
  9.8597135543823242 13.5552988052368164 33.9302520751953125
  1.1493816375732431  4.5425734519958496 34.0424537658691406
  1.4967002868652355 13.9739961624145508 34.3986473083496094
  3.3326859474182129 10.1723041534423828 34.8059883117675781
  4.4173932075500488  1.1780070066452026 34.2681846618652344
 14.4663643101230264 16.6901690959930420 34.7156448364257812
  8.7902660369873047  6.1303982734680176 41.1875724792480469
  8.0773487091064453 14.6124162673950178 42.1100654602050781
 17.4030292034149205  5.1700191497802734 42.2254180908203125
 16.7929031848907506 13.0831451416015625 42.0294837951660227
  5.5414843559265137  1.0394203662872314 41.8315505981445312
  5.3810563087463379  9.9294586181640625 42.1740722656250000
 14.4848384857177734  1.0386329889297485 42.1045036315918040
 13.8824920654296875 10.7820987701416016 40.9818496704101562
  1.5609054565429688  2.9557232856750488 40.2980270385742188
  2.1254916191101074 13.0494174957275391 40.7402572631835938
 10.2060232162475586  2.7637987136840820 40.9150276184082031
 10.2319431304931641 12.0578441619873047 40.6052932739257884
  3.1812396049499512  7.5062098503112784 40.4843215942382884
  3.0860387543216348 16.6049300432205200 40.6888313293457031
 12.5361461639404279  7.3805155754089355 41.0944023132324290
 12.1663336018100363 16.6343621015548706 40.6797294616699290
  1.1484624147415161  3.3112001419067383 41.9579277038574290
  1.0784389972686768 12.2234249114990217 41.8477706909179759
 10.7080297470092773  4.4072585105895996 41.2016716003417969
  9.6983661651611328 12.5731620788574219 42.1755752563476562
  3.5918877124786377  8.0241422653198242 42.1047363281250000
  3.7069322327151895 17.2537941932678223 42.1764640808105469
 12.0044393539428711  9.0449619293212891 41.1365127563476562
 12.6019748905673623 17.3057458996772766 42.2249755859375000
  7.1957736015319815  5.4286937713623047 40.9884719848632884
  7.7673635482788077 15.2210531234741211 40.5099411010742188
 16.8903831243515015  5.8712744712829581 40.7216758728027344
 16.3555998802185059 14.3738889694213867 40.9419212341308665
  5.8913583755493164  1.3653733730316162 40.1531143188476562
  5.9200825691223145 10.4406538009643555 40.6035232543945312
 15.0589771270751953  1.3595532178878784 40.4874610900878906
 15.4907178878784180 10.1138591766357404 40.8151969909667969
  0.1397883892059326  4.5567245483398429 39.4110412597656250
  0.4236123263835907 14.4976778030395508 40.0027732849121094
  7.9695143699645996  3.2849938869476318 40.7459106445312500
  9.0866432189941406 13.6641330718994141 39.4512519836425781
  4.3925570705905557 17.9032408446073532 39.3271179199218750
  4.6168522834777832  8.9519443511962891 39.4412231445312500
 13.6690630177035928 17.8882949054241180 39.4771423339843750
 14.7660932540893555  7.9154458045959473 40.8751564025878906
  8.1032123565673828  5.4420318603515616 48.0459518432617259
  8.1007528305053711 14.4734306335449219 48.0459518432617259
 17.1336116790771484  5.4420318603515616 48.0459518432617259
 17.1311531066894531 14.4734306335449219 48.0459518432617259
  5.4410333633422852  0.9265221953392029 48.0449485778808594
  5.4385743141174316  9.9579219818115234 48.0449485778808594
 14.4714326858520490  0.9265221953392029 48.0449485778808594
 14.4689741134643555  9.9579219818115234 48.0449485778808594
  1.4218254089355467  3.0919990539550781 46.4558296203613281
  1.4193661212921143 12.1233978271484375 46.4558296203613281
 10.4522256851196289  3.0919990539550781 46.4558296203613281
 10.4497661590576172 12.1233978271484375 46.4558296203613281
  3.0899283885955806  7.6075901985168457 46.4545211791992188
  3.0874691009521484 16.6389904022216797 46.4545211791992188
 12.1203289031982422  7.6075901985168457 46.4545211791992188
 12.1178693771362305 16.6389904022216797 46.4545211791992188
  0.9247469902038573  3.5893490314483643 48.0459518432617259
  0.9222877025604248 12.6207475662231445 48.0459518432617259
  9.9551477432250977  3.5893490314483643 48.0459518432617259
  9.9526882171630859 12.6207475662231445 48.0459518432617259
  3.5868983268737793  8.1048498153686523 48.0448913574218821
  3.5844390392303462 17.1362495422363281 48.0448913574218821
 12.6172990798950195  8.1048498153686523 48.0448913574218821
 12.6148395538330078 17.1362495422363281 48.0448913574218821
  7.6061611175537109  5.9393639564514160 46.4558296203613281
  7.6037015914916992 14.9707632064819336 46.4558296203613281
 16.6365604400634766  5.9393639564514160 46.4558296203613281
 16.6341018676757812 14.9707632064819336 46.4558296203613281
  5.9380125999450684  1.4238001108169553 46.4545211791992188
  5.9355530738830566 10.4551992416381836 46.4545211791992188
 14.9684123992919904  1.4238001108169553 46.4545211791992188
 14.9659538269042951 10.4551992416381836 46.4545211791992188
 -0.0011664569610730  4.5157265663146973 45.3548011779785156
 -0.0036257810425013 13.5471258163452148 45.3548011779785156
  9.0292339324951172  4.5157265663146973 45.3548011779785156
  9.0267744064331037 13.5471258163452148 45.3548011779785156
  4.5152091979980469  0.0000000000000000 45.3536758422851562
  4.5127501487731934  9.0313997268676740 45.3536758422851562
 13.5456094741821289  0.0000000000000000 45.3536758422851562
 13.5431499481201172  9.0313997268676740 45.3536758422851562
 14.0037870407104474 10.0547962188720703 32.4007377624511790
 12.9853563308715820  8.6524333953857422 32.7618408203125071
 15.6821451187133789  9.0609302520751953 33.6038932800292969
 15.5403089523315412  8.7392435073852539 35.3275489807128977
 13.4361791610717756 11.5887212753295898 34.9563293457031250
 14.6958541870117188 10.8044672012329102 35.9344139099121094
 12.0402603149414062  9.8789157867431641 35.5124168395996094
 12.3111476898193342  8.2179393768310547 34.9767189025878977
 11.1389884948730469 10.1236734390258789 33.5368385314941406
 12.1732759475707990 11.5565280914306641 33.3766822814941406
 10.9354429244995117 11.6645278930664062 31.4170913696289062
 12.4044351577758789 10.8734283447265607 30.8505096435546911
 14.2418432235717756  7.0407581329345694 33.0764732360839915
 14.0274839401245099  6.7275795936584473 34.8205986022949290
 15.6292524337768537  6.6264543533325186 34.0944786071777344
 15.5701141357421875 12.5798511505126935 34.4865455627441477
 15.1205377578735334 11.7263050079345703 33.0238113403320312
 16.3613700866699219 11.0299663543701154 34.1221046447753977
 13.9273262023925781  9.5675725936889631 37.2501678466796875
 13.9914550781249982  7.8629989624023438 36.7752876281738281
 12.5266590118408203  8.5407848358154297 37.4724845886230469
  9.7358827590942383  9.5303134918212891 31.5432186126708984
 10.3502521514892578  9.8373661041259766 29.9171848297119176
 12.7130517959594709  8.6674480438232422 29.3634967803955114
 10.0445270538330078  7.4599194526672363 32.5127067565917969
 13.8393583297729492  6.4621829986572257 29.4659347534179688
 11.1973571777343750  5.2466044425964355 32.6324577331542969
 13.1064147949218732  4.7539410591125488 31.1349315643310547
  0.3595066070556652  4.6067347526550293 34.7948493957519602
  0.6243515014648449 13.8269577026367188 35.0395088195800852
  8.3615303039550781  4.0780353546142578 34.7423858642578125
  9.0555610656738281 13.6308946609497070 34.6617546081543040
  4.2910923957824707  9.6783485412597656 34.9826965332031250
  4.6006550788879386  0.2638329267501831 34.8429107666015625
 14.0823206165805459 17.6754372119903564 34.9994735717773438
  0.1881179362535476  4.4172449111938477 40.4912910461425781
  0.2187100499868393 13.7560119628906250 40.7778663635253906
  8.6854610443115234  4.0800271034240723 40.9467582702636719
  9.0013341903686523 13.6349029541015625 40.5398979187011719
  4.5557436943054199  8.9634542465209961 40.5304031372070312
  4.4895557621493936 18.0156764686107635 40.4070167541503906
 14.0392332077026367  8.7220010757446289 40.9462661743164062
 13.6203798511996865 18.0209170170128345 40.5611076354980469
  9.0289716720581055  4.5156092643737793 46.4455223083496165
  9.0265130996704102 13.5470085144042969 46.4455223083496165
 18.0593719482421875  4.5156092643737793 46.4455223083496165
 18.0569133758544922 13.5470085144042969 46.4455223083496165
  4.5152091979980469  0.0000180629995157 46.4442062377929759
  4.5127501487731934  9.0314178466796857 46.4442062377929759
 13.5456094741821289  0.0000180629995157 46.4442062377929759
 13.5431499481201172  9.0314178466796857 46.4442062377929759
 11.3129110336303711  8.2256908416748047 30.9509811401367223
 12.3741655349731445  7.9229011535644522 30.0840797424316406
 10.8779945373535156  7.2376284599304199 31.8475036621093750
 13.0100708007812500  6.6785011291503906 30.1424045562744141
 11.5157165527343750  6.0016951560974121 31.9132461547851562
 12.5919933319091797  5.7157740592956543 31.0690631866455078
 13.2070426940917969  9.6807832717895508 33.0631217956542969
 15.0186147689819336  8.6417608261108398 34.3685798645019531
 14.3198394775390625 10.9384403228759766 34.9121208190917969
 12.7964506149291992  9.0878410339355469 35.4362754821777344
 11.9670352935791016 10.5629138946533203 32.9606437683105469
 11.5177030563354492 10.7297430038452148 31.4971847534179723
 14.6854724884033203  7.1912393569946289 34.0698928833007884
 15.4106540679931641 11.5767583847045898 34.0736846923828125
 13.3575992584228498  8.7515525817871094 36.7975120544433594
 10.6515417098999023  9.5812625885009766 30.9461212158203161
 17.9498786926269531  3.4804744720458984 35.2855186462402344
  0.5670642852783186 12.7161178588867188 35.7312850952148438
  9.6295814514160156  3.8491582870483398 34.9991950988769602
  8.5941028594970703 12.5199623107910156 35.1836280822753906
  7.7429604530334473  5.2297630310058585 34.8503494262695312
  8.6323690414428711 14.8303375244140625 34.9685134887695312
 17.9992427825927734  5.7927637100219727 35.1612243652343750
 17.7642936706542969 14.7673377990722656 35.0706443786621094
  4.2364840507507324  8.4313793182373047 35.3867492675781250
  3.5584589699283242 17.6151069402694702 35.2098350524902344
 12.8045744160190207 17.7308462858200073 35.3077163696289134
  5.8386935451999307 18.0083946064114571 35.1333122253417969
  5.3898205757141113 10.3588294982910138 34.7534065246582031
 14.9064197540283203  0.6360056400299072 34.9928245544433594
  1.0042493343353271  3.5039725303649902 40.9635086059570312
  1.1798782348632810 12.9238414764404297 41.1070556640625000
  9.9454011917114258  3.7448811531066895 41.0364761352539134
  9.6697921752929688 12.6952438354492188 41.1649322509765696
  3.7206289768218994  8.1263341903686523 41.0892448425293040
  3.7148362854495645 17.2512049078941345 41.1496543884277344
 12.7717561721801758  8.3774662017822266 41.0321273803710938
 12.7506756046786904 17.2747989296913147 41.2098503112793040
  8.2069330215454102  5.2951288223266602 41.0512008666992188
  8.2456912994384766 14.5461816787719727 41.1028556823730540
 17.4678366184234619  5.1953048706054688 41.2130050659179688
 17.0716313123703003 13.7439184188842773 41.2943801879882812
  5.3624792098999015  0.8285384774208069 40.8411598205566406
  5.3385834693908691  9.8228845596313477 41.1558723449707031
 14.4299850463867188  0.8391928672790527 41.0981025695800781
 14.4836101531982404  9.9481725692749023 40.9492607116699219
  0.8273094892501831  3.6869695186614990 47.0359649658203125
  0.8248501420021057 12.7183685302734375 47.0359649658203125
  9.8577098846435547  3.6869695186614990 47.0359649658203125
  9.8552503585815412 12.7183685302734375 47.0359649658203125
  3.6843190193176270  8.2023353576660156 47.0346527099609375
  3.6818594932556152 17.2337341308593750 47.0346527099609375
 12.7147188186645508  8.2023353576660156 47.0346527099609375
 12.7122592926025391 17.2337341308593750 47.0346527099609375
  8.2006769180297852  5.3445744514465332 47.0360260009765696
  8.1982173919677734 14.3759746551513672 47.0360260009765696
 17.2310771942138672  5.3445744514465332 47.0360260009765696
 17.2286186218261719 14.3759746551513672 47.0360260009765696
  5.3436489105224600  0.8290914893150328 47.0346527099609375
  5.3411893844604483  9.8604917526245117 47.0346527099609375
 14.3740482330322266  0.8290914893150328 47.0346527099609375
 14.3715896606445312  9.8604917526245117 47.0346527099609375
 13.8301134109497070  9.5797739028930664 34.4442291259765625
  9.3035535812377930  0.2741550803184509 34.5084266662597656
  8.7207250595092773  8.9360466003417969 34.6372566223144602
  0.2591762244701385  0.1086976155638695 34.2709770202636790
  0.6687053442001342  9.1893033981323242 34.5755348205566406
  4.2774205207824707  4.3549385070800781 34.4972343444824219
  4.6061091423034668 13.8329820632934570 34.5876083374023438
 13.3377494812011701  3.7170064449310303 34.6354904174804688
 12.6518716812133789 14.2947807312011719 34.6306457519531250
  0.0266206013038754 17.7731590867042542 40.8393135070800852
 18.0094491615891457  9.1484708786010742 40.9089279174804688
  8.9627494812011719  0.2160098254680634 40.8918876647949219
  9.1467952728271467  8.8251190185546875 40.9172363281250000
  4.6860685348510742  4.4573278427124023 40.8860855102539134
  4.6649446487426758 13.6271276473999023 40.9077453613281250
 13.4580707550048828  4.8202877044677734 40.8791351318359446
 13.4630584716796875 13.4497537612915021 40.8758659362792969
  2.4294476509094238  2.0196585655212402 37.9455032348632884
  2.6654632091522217 10.9689006805419922 38.0026016235351562
 11.6946735382080078  1.9001538753509521 38.1040306091308665
 11.1281461715698242 11.3435688018798828 38.0269203186035227
  6.4600958824157706  7.0034961700439453 37.7930412292480540
  6.7709479331970215 15.8930883407592756 37.8865356445312500
 16.0717468261718750  6.5863485336303711 38.0410995483398509
 15.6641826629638672 15.8632955551147461 37.7777976989746165
  2.1726233959197998  6.6416225433349600 38.0777893066406321
  2.2345986366271973 15.6730489730834961 37.9691047668457102
 10.7239151000976562  6.1227946281433105 37.5662689208984375
 11.1320104598999006 15.7346057891845703 38.3039894104003906
  6.9813289642333975  2.4399464130401611 37.8233299255371094
  6.9479112625122070 11.3539438247680664 38.1365852355957031
 16.0106468200683594  2.3991692066192627 38.1598396301269602
 16.1578121185302734 11.6760721206665039 38.0973052978515696
  0.0000000000000000  0.0000000000000000 47.1735610961914062
 -0.0024593239650130  9.0313997268676740 47.1735610961914062
  9.0304002761840803  0.0000000000000000 47.1735610961914062
  9.0279407501220685  9.0313997268676740 47.1735610961914062
  4.5139794349670410  4.5156998634338379 47.1742515563964844
  4.5115203857421875 13.5470991134643537 47.1742515563964844
 13.5443792343139648  4.5156998634338379 47.1742515563964844
 13.5419197082519531 13.5470991134643537 47.1742515563964844
  2.4519233703613277  2.0629522800445557 44.0401268005371165
  2.4494640827178955 11.0943517684936523 44.0401268005371165
 11.4823226928710920  2.0629522800445557 44.0401268005371165
 11.4798641204833984 11.0943517684936523 44.0401268005371165
  6.5760178565979004  6.9684472084045410 44.0401268005371165
  6.5735583305358887 15.9998464584350586 44.0401268005371165
 15.6064186096191406  6.9684472084045410 44.0401268005371165
 15.6039590835571289 15.9998464584350586 44.0401268005371165
  2.0610768795013428  6.5788145065307617 44.0400009155273509
  2.0586175918579102 15.6102142333984375 44.0400009155273509
 11.0914773941040039  6.5788145065307617 44.0400009155273509
 11.0890178680419922 15.6102142333984375 44.0400009155273509
  6.9668641090393066  2.4525938034057613 44.0400657653808665
  6.9644045829772949 11.4839935302734375 44.0400657653808665
 15.9972639083862305  2.4525938034057613 44.0400657653808665
 15.9948053359985352 11.4839935302734375 44.0400657653808665
  2.4316265583038330  2.0832188129425049 50.0684852600097656
  2.4291670322418213 11.1146183013915998 50.0684852600097656
 11.4620265960693359  2.0832188129425049 50.0684852600097656
 11.4595670700073224 11.1146183013915998 50.0684852600097656
  6.5963144302368164  6.9481806755065918 50.0684852600097656
  6.5938549041748047 15.9795799255371076 50.0684852600097656
 15.6267137527465803  6.9481806755065918 50.0684852600097656
 15.6242542266845703 15.9795799255371076 50.0684852600097656
  2.0811281204223633  6.5990090370178223 50.0690460205078125
  2.0786688327789307 15.6304082870483398 50.0690460205078125
 11.1115283966064453  6.5990090370178223 50.0690460205078125
 11.1090688705444336 15.6304082870483398 50.0690460205078125
  6.9468131065368652  2.4323906898498531 50.0690460205078125
  6.9443535804748535 11.4637899398803711 50.0690460205078125
 15.9772129058837891  2.4323906898498531 50.0690460205078125
 15.9747543334960938 11.4637899398803711 50.0690460205078125
 18.0505967312492430 18.0429364535957575 37.7745857238769602
  0.0920334309339523  9.1146907806396467 37.7585983276367259
  9.1351470947265625  0.1199743971228599 37.7296142578125000
  9.0214700698852539  8.8813009262084961 37.7644538879394602
  4.4875168800354004  4.4575700759887695 37.6434860229492259
  4.5664625167846680 13.4767398834228498 37.7207450866699219
 13.4581613540649414  4.4320769309997559 37.6399955749511719
 13.3216238021850586 13.6396512985229492 37.6583900451660156
  0.0000090280000222  0.0000090310004452 44.0429992675781250
 -0.0024502959568053  9.0314083099365234 44.0429992675781250
  9.0304088592529297  0.0000090310004452 44.0429992675781250
  9.0279493331909180  9.0314083099365234 44.0429992675781250
  4.5139703750610352  4.5156903266906738 44.0427513122558594
  4.5115113258361816 13.5470905303955078 44.0427513122558594
 13.5443706512451172  4.5156903266906738 44.0427513122558594
 13.5419111251831037 13.5470905303955078 44.0427513122558594
  0.0000000000000000  0.0000000000000000 50.4472808837890696
 -0.0024593239650130  9.0313997268676740 50.4472808837890696
  9.0304002761840803  0.0000000000000000 50.4472808837890696
  9.0279407501220685  9.0313997268676740 50.4472808837890696
  4.5139703750610352  4.5156998634338379 50.4472808837890696
  4.5115113258361816 13.5470991134643537 50.4472808837890696
 13.5443706512451172  4.5156998634338379 50.4472808837890696
 13.5419111251831055 13.5470991134643537 50.4472808837890696
