 H  C  N  I Pb 
 1.0000000000000000
    18.0608005523681641    0.0000000000000000    0.0000000000000000
    -0.0049186488613486   18.0627994537353516    0.0000000000000000
     0.0000000000000000    0.0000000000000000   62.4874992370605469
 H   C   N   I   Pb 
 143  39  47  72  24
Cartesian
  7.3637557029724121  5.1329703330993652 35.0552711486816477
  7.5100893974304199 12.5580253601074219 35.6902122497558594
 16.7072238922119141  5.2899832725524902 36.2090911865234375
 16.7323875427246094 14.7191381454467773 35.7939033508300852
  5.8266658782958984  1.6464884281158447 35.1840553283691406
  5.8592171669006348 10.3380832672119141 35.5131759643554688
 14.4184846878051758  1.8672841787338257 35.2988510131835938
  1.9766292572021498  4.3608713150024414 35.1154975891113281
  1.4176559448242161 12.3324098587036133 35.5629425048828125
 10.5432672500610352  3.3551139831542969 35.3075332641601562
 10.8164434432983398 13.7916841506958008 34.9314575195312500
  6.8299179077148438  0.3065764009952545 34.6270904541015625
  4.6073637008666992 11.2361621856689435 34.6711196899414062
 15.7924690246582031  0.8881248235702515 34.7429809570312571
  1.1434803009033208  5.2236280441284180 36.3586730957031250
 17.9222431182861328 12.5360555648803711 36.3229866027832031
  8.8380565643310547  3.1315727233886719 35.6249237060546875
  9.9742641448974592 12.5574769973754883 35.8381156921386719
  5.5527939796447754  7.8902683258056641 35.7288818359375071
  3.4406461715698238  1.2251533269882202 35.5408248901367188
 12.3349246978759766  0.5925605297088623 35.8320350646972656
  8.2496461868286133  6.5990910530090332 34.6491432189941406
  6.7562718391418448 13.7302722930908185 34.6349487304687500
 15.9716110229492188  4.4087309837341309 34.8960876464843750
 17.5686473846435547 15.7770061492919922 34.6944503784179688
  4.1966223716735840  7.1813874244689941 34.9019699096679688
  2.8112763622775674 17.7528669238090515 35.0356254577636719
 12.3289646366611105 16.9613715410232544 35.3467559814453125
 10.3160991668701172  5.5306949615478516 34.6740570068359375
  8.8483934402465820 14.6796445846557599 34.0445251464843750
 18.0538463592529297  3.6833322048187256 34.0418815612792969
  1.2702083587646502 14.3022508621215820 34.3455047607421875
  3.3972098827362061  9.2705154418945312 34.1690597534179688
  4.9363764980807900 16.9529652595520020 34.4251937866210938
 14.5081848362460732 17.0010434389114380 34.6432304382324219
  8.2151594161987305  5.3646149635314941 42.0502738952636719
  7.9812211990356445 14.7251281738281250 41.9048042297363281
 17.2850049138069153  5.1347336769104004 42.2809486389160227
 16.4877974987030029 13.3525094985961896 41.4823722839355469
  5.3629179000854492  0.7460778951644897 42.1803512573242259
  5.4333848953247061 10.1322250366210938 42.0658874511718821
 14.4025001525878906  0.9282728433609009 42.2125434875488352
 15.0358524322509766  8.5251302719116211 41.6108627319335938
  1.6428501605987549  3.0821681022644043 40.4406738281250000
  1.9517462253570557 12.6475639343261719 40.9072265625000000
 10.4230365753173828  2.9672729969024658 40.3841438293457031
 10.3501043319702148 12.1654605865478516 40.7387046813964844
  3.3415541648864746  7.4334597587585440 40.6954231262207031
  2.9602126339450479 16.7889012098312378 40.2573127746582102
 11.4614543914794922  8.7431869506835938 40.8677787780761719
 12.1420368412509561 16.5875211954116821 40.5807456970214844
  1.1420786380767820  3.4025857448577881 42.0782394409179688
  0.4459486007690430 11.8362922668457031 41.2857589721679688
  9.8881797790527344  3.4001986980438228 41.9776039123535227
  9.8121929168701172 12.8912916183471662 42.2246360778808665
  3.8362753391265869  8.0740661621093750 42.2316856384277344
  3.3149961689487100 17.2023333311080933 41.9124450683593750
 12.6003837585449219  7.8547320365905762 41.8529129028320384
 12.5803827503696084 17.1017982959747314 42.1777610778808594
  7.8818502426147452  6.0921325683593750 40.5105400085449219
  7.5306715965270996 14.9870080947875977 40.2358093261718750
 16.7301132678985596  5.7610597610473624 40.7597160339355469
 16.7641104459762573 15.0212717056274414 41.1096038818359375
  6.1834311485290527  1.1207247972488403 40.7097816467285227
  5.7818293571472168 10.6193685531616211 40.4282951354980540
 14.9180278778076172  1.4389415979385376 40.6214065551757812
 15.3438520431518555  9.8408203125000000 40.4979133605957031
  0.1211539879441261  4.5437369346618652 39.4864158630371094
  0.9523932933807373 14.7262649536132812 40.6521415710449290
  9.2310113906860352  4.6254410743713379 39.3215103149414062
  8.9650764465332031 13.3996629714965820 39.3941421508789062
  4.7234558323398232 17.9700929075479507 39.3785018920898438
  4.5102558135986328  8.9664783477783203 39.4495964050292969
 13.5625576237216592 18.0314503237605095 39.4954109191894531
 13.1131753921508789 10.0639047622680664 39.8981361389160156
  8.1032123565673828  5.4420318603515616 48.0459518432617259
  8.1007528305053711 14.4734306335449219 48.0459518432617259
 17.1336116790771484  5.4420318603515616 48.0459518432617259
 17.1311531066894531 14.4734306335449219 48.0459518432617259
  5.4410333633422852  0.9265221953392029 48.0449485778808594
  5.4385743141174316  9.9579219818115234 48.0449485778808594
 14.4714326858520490  0.9265221953392029 48.0449485778808594
 14.4689741134643555  9.9579219818115234 48.0449485778808594
  1.4218254089355467  3.0919990539550781 46.4558296203613281
  1.4193661212921143 12.1233978271484375 46.4558296203613281
 10.4522256851196289  3.0919990539550781 46.4558296203613281
 10.4497661590576172 12.1233978271484375 46.4558296203613281
  3.0899283885955806  7.6075901985168457 46.4545211791992188
  3.0874691009521484 16.6389904022216797 46.4545211791992188
 12.1203289031982422  7.6075901985168457 46.4545211791992188
 12.1178693771362305 16.6389904022216797 46.4545211791992188
  0.9247469902038573  3.5893490314483643 48.0459518432617259
  0.9222877025604248 12.6207475662231445 48.0459518432617259
  9.9551477432250977  3.5893490314483643 48.0459518432617259
  9.9526882171630859 12.6207475662231445 48.0459518432617259
  3.5868983268737793  8.1048498153686523 48.0448913574218821
  3.5844390392303462 17.1362495422363281 48.0448913574218821
 12.6172990798950195  8.1048498153686523 48.0448913574218821
 12.6148395538330078 17.1362495422363281 48.0448913574218821
  7.6061611175537109  5.9393639564514160 46.4558296203613281
  7.6037015914916992 14.9707632064819336 46.4558296203613281
 16.6365604400634766  5.9393639564514160 46.4558296203613281
 16.6341018676757812 14.9707632064819336 46.4558296203613281
  5.9380125999450684  1.4238001108169553 46.4545211791992188
  5.9355530738830566 10.4551992416381836 46.4545211791992188
 14.9684123992919904  1.4238001108169553 46.4545211791992188
 14.9659538269042951 10.4551992416381836 46.4545211791992188
 -0.0011664569610730  4.5157265663146973 45.3548011779785156
 -0.0036257810425013 13.5471258163452148 45.3548011779785156
  9.0292339324951172  4.5157265663146973 45.3548011779785156
  9.0267744064331037 13.5471258163452148 45.3548011779785156
  4.5152091979980469  0.0000000000000000 45.3536758422851562
  4.5127501487731934  9.0313997268676740 45.3536758422851562
 13.5456094741821289  0.0000000000000000 45.3536758422851562
 13.5431499481201172  9.0313997268676740 45.3536758422851562
 14.4306144714355451  9.1743593215942383 32.1141014099121094
 15.8582334518432617  9.0341920852661115 33.1686134338378906
 13.6831207275390625 11.1679716110229492 33.2515983581542969
 13.6458978652954102 11.2028083801269531 35.0174369812011719
 12.4110946655273438  7.9851999282836914 34.3228073120117188
 12.0644845962524414  9.6453237533569336 34.8157882690429759
 14.3772497177124023  7.6235561370849609 35.3824653625488281
 15.5992374420166016  8.8826704025268555 35.5137786865234375
 15.4899635314941406  6.7416110038757315 33.6522102355957031
 13.7853441238403320  6.7902674674987793 33.2343254089355469
 14.1851310729980469  6.9211692810058594 30.8948020935058629
 15.8725614547729492  7.4010620117187500 31.0695075988769531
 16.1805515289306641 11.1340703964233398 33.2492485046386719
 16.2015781402587891 10.9336156845092773 35.0208854675292969
 15.5698986053466797 12.4293718338012695 34.3050918579101562
 10.8506593704223633  9.1365842819213867 32.7934341430664062
 12.2967548370361310  8.6776857376098633 31.8903160095214844
 12.0380420684814453 10.3697547912597656 32.4071502685546946
 12.7168264389038068  9.0213203430175781 36.6924591064453125
 13.9949464797973633 10.2667970657348633 36.9039764404296875
 14.1881961822509766  8.6545944213867188 37.5719909667968750
 14.8391418457031250  4.6652169227600089 31.9870033264160156
 15.3196754455566388  4.9606695175170898 30.3281974792480504
 16.6983280181884766  2.8699469566345215 31.1619873046875000
 17.5847072601318359  6.9460616111755371 32.2771186828613281
  1.0136966705322272  2.2722005844116211 31.4799709320068359
  1.8733062744140625  6.3436470031738281 32.5900955200195312
  2.6673259735107400  4.0183095932006836 32.1791725158691477
 18.0051326751708984  4.3108911514282227 34.9412078857421875
  0.4409046173095736 14.0119895935058576 34.9976730346679688
  9.4109668731689453  4.9656138420104980 34.9050025939941406
  8.7865552902221680 13.7993164062500000 34.6927108764648438
  4.3471670150756836  9.2093248367309570 34.7158660888671875
  4.8231538990512490 17.9861317276954651 34.7811546325683594
 14.0578664997592568 17.9362888038158417 35.0083885192871094
  0.1514531075954437  4.4234042167663574 40.5715713500976562
  0.3441846966743469 13.8702630996704102 40.9597396850585938
  9.1497831344604492  4.5347394943237305 40.4063301086425781
  8.9347152709960938 13.5680046081542951 40.4735755920410227
  4.5656147003173828  9.0251474380493164 40.5386352539062500
  4.5576614597812295 17.9947190508246422 40.4559097290039062
 13.3911056518554688  9.3063011169433594 40.6395492553710938
 13.5355591038241982 18.0403501261025667 40.5868911743164062
  9.0289716720581055  4.5156092643737793 46.4455223083496165
  9.0265130996704102 13.5470085144042969 46.4455223083496165
 18.0593719482421875  4.5156092643737793 46.4455223083496165
 18.0569133758544922 13.5470085144042969 46.4455223083496165
  4.5152091979980469  0.0000180629995157 46.4442062377929759
  4.5127501487731934  9.0314178466796857 46.4442062377929759
 13.5456094741821289  0.0000180629995157 46.4442062377929759
 13.5431499481201172  9.0314178466796857 46.4442062377929759
 16.9521903991699219  4.9587612152099609 31.6665534973144567
 17.4134254455566406  3.6397027969360352 31.4607009887695348
 17.8896141052246094  5.9181957244873038 32.0708885192871094
  0.6903781890869158  3.3013982772827144 31.6340980529785156
  1.1777286529541009  5.5771903991699219 32.2473907470703125
  1.6203002929687484  4.2769799232482910 32.0167083740234375
 14.8193407058715820  8.7026138305664062 33.0350379943847656
 14.2077856063842773 10.8272514343261719 34.1523323059082031
 12.5434122085571289  9.0327425003051758 34.0437088012695312
 14.5176057815551758  8.7044916152954102 35.4808769226074219
 14.7711143493652344  7.1826076507568359 32.9468307495117259
 15.0885314941406250  6.7482404708862305 31.5067424774169957
 15.6317291259765625 11.3377809524536133 34.1775474548339844
 11.9269008636474609  9.3228349685668928 32.6948509216308594
 13.8009424209594709  9.2102651596069336 36.7094993591308665
 15.5024528503417969  5.2875032424926758 31.3621902465820348
  1.0772190093994158  4.6387906074523926 35.5221061706542969
  0.5457668304443354 12.8629684448242188 35.6202850341796875
  9.5857706069946289  3.7041878700256348 35.2202987670898438
  9.9225835800170898 13.3188486099243164 35.1496200561523438
  8.2602882385253906  5.5865383148193359 34.8216133117675852
  7.6142749786376953 13.2995252609252930 34.9880981445312571
 16.8268527984619141  4.6963410377502441 35.3749351501464915
 17.4721107482910156 14.8274202346801758 35.0856208801269531
  4.7398409843444815  8.0192699432373047 35.1199951171875000
  3.6168537139892578  0.3160365223884583 35.1162185668945312
 12.7947792271152121 17.8700840175151825 35.3753204345703125
  5.8928942680358887  0.6912911534309387 34.8286857604980540
  5.0050206184387207 10.3202724456787109 34.9505004882812500
 14.8034067153930646  0.9613741636276244 35.0274925231933665
  1.0238133668899536  3.5817077159881587 41.0748825073242188
  0.9445461630821228 12.7037820816040021 41.0649566650390625
  9.8599452972412109  3.5781683921813965 40.9724540710449290
  9.7372694015502930 12.8274927139282227 41.2080497741699219
  3.8815188407897949  8.1269531250000000 41.2150840759277344
  3.5527369240298863 17.2978030443191528 40.9235267639160156
 12.4394140243530256  8.5718193054199219 41.1466178894043040
 12.7182563999667764 17.1898210644721985 41.1720199584961009
  8.3729877471923828  5.3766102790832511 41.0398216247558594
  8.0929212570190430 14.4727230072021484 40.9188270568847656
 17.3599783182144165  5.1476159095764160 41.2654151916503906
 17.1307762265205419 14.0755987167358398 41.1784858703613281
  5.3972668647766113  0.6420432329177856 41.1697082519531250
  5.2990980148315430  9.9781723022460938 41.0559158325195312
 14.3225145339965803  0.8368940353393555 41.1929397583007812
 14.6751575469970703  9.2187528610229492 40.9480247497558594
  0.8273094892501831  3.6869695186614990 47.0359649658203125
  0.8248501420021057 12.7183685302734375 47.0359649658203125
  9.8577098846435547  3.6869695186614990 47.0359649658203125
  9.8552503585815412 12.7183685302734375 47.0359649658203125
  3.6843190193176270  8.2023353576660156 47.0346527099609375
  3.6818594932556152 17.2337341308593750 47.0346527099609375
 12.7147188186645508  8.2023353576660156 47.0346527099609375
 12.7122592926025391 17.2337341308593750 47.0346527099609375
  8.2006769180297852  5.3445744514465332 47.0360260009765696
  8.1982173919677734 14.3759746551513672 47.0360260009765696
 17.2310771942138672  5.3445744514465332 47.0360260009765696
 17.2286186218261719 14.3759746551513672 47.0360260009765696
  5.3436489105224600  0.8290914893150328 47.0346527099609375
  5.3411893844604483  9.8604917526245117 47.0346527099609375
 14.3740482330322266  0.8290914893150328 47.0346527099609375
 14.3715896606445312  9.8604917526245117 47.0346527099609375
 14.0307073593139648  9.3145303726196289 34.1710739135742188
  9.2575258472934348 17.7519066333770752 34.5622787475585938
  8.5680294036865234  9.2323713302612305 34.5602912902832031
  0.1251302510499954  0.2316472232341766 34.4487800598144531
  0.5566141605377197  8.8102893829345703 34.6368789672851562
  4.6748957633972168  4.3312273025512695 34.6209793090820312
  4.1506495475769043 13.8312005996704102 34.4116210937500071
 13.2627706527709961  4.1657080650329590 34.6494407653808665
 13.2304811477661133 14.3617839813232422 34.6253662109375000
 17.9847528273239732 17.7882590889930725 40.8794250488281250
  0.1808570623397827  9.1218957901000977 40.9273910522460938
  8.9814071655273438  0.0363565161824226 40.9012336730957031
  8.9174337387084961  9.0865011215209961 40.8588676452636719
  4.7427182197570801  4.3745465278625488 40.9392204284667969
  4.4378762245178223 13.6585493087768555 40.8410568237304759
 13.4532928466796875  4.8195528984069824 40.9507598876953125
 13.5249967575073242 13.2445602416992188 40.9111938476562500
  2.4415898323059082  2.1204128265380859 38.0312194824218750
  2.6558516025543213 10.9925708770751935 37.8935356140136719
 11.5147161483764648  2.0447371006011963 38.0264205932617188
 11.1777963638305664 11.3934526443481445 37.9319915771484375
  6.6350288391113281  6.9416975975036621 37.9917564392089844
  6.5731754302978516 15.9889802932739258 37.8328857421875000
 16.0243091583251953  6.6202220916748047 38.1991195678710938
 15.5580158233642578 16.0810050964355469 37.9002685546875071
  2.2912023067474365  6.6603169441223145 38.2189254760742188
  2.0824348926544189 15.7690744400024414 37.8612060546875071
 11.0755624771118164  6.6013832092285156 37.6237869262695312
 11.1202964782714844 15.5998945236206055 38.2734603881835938
  7.1441068649291983  2.5010008811950684 37.7265777587890625
  6.8465013504028320 11.4510679244995117 37.9410324096679688
 15.9318399429321289  2.4427795410156250 38.2425346374511790
 16.2864208221435547 11.6856403350830078 38.1092987060546875
  0.0000000000000000  0.0000000000000000 47.1735610961914062
 -0.0024593239650130  9.0313997268676740 47.1735610961914062
  9.0304002761840803  0.0000000000000000 47.1735610961914062
  9.0279407501220685  9.0313997268676740 47.1735610961914062
  4.5139794349670410  4.5156998634338379 47.1742515563964844
  4.5115203857421875 13.5470991134643537 47.1742515563964844
 13.5443792343139648  4.5156998634338379 47.1742515563964844
 13.5419197082519531 13.5470991134643537 47.1742515563964844
  2.4519233703613277  2.0629522800445557 44.0401268005371165
  2.4494640827178955 11.0943517684936523 44.0401268005371165
 11.4823226928710920  2.0629522800445557 44.0401268005371165
 11.4798641204833984 11.0943517684936523 44.0401268005371165
  6.5760178565979004  6.9684472084045410 44.0401268005371165
  6.5735583305358887 15.9998464584350586 44.0401268005371165
 15.6064186096191406  6.9684472084045410 44.0401268005371165
 15.6039590835571289 15.9998464584350586 44.0401268005371165
  2.0610768795013428  6.5788145065307617 44.0400009155273509
  2.0586175918579102 15.6102142333984375 44.0400009155273509
 11.0914773941040039  6.5788145065307617 44.0400009155273509
 11.0890178680419922 15.6102142333984375 44.0400009155273509
  6.9668641090393066  2.4525938034057613 44.0400657653808665
  6.9644045829772949 11.4839935302734375 44.0400657653808665
 15.9972639083862305  2.4525938034057613 44.0400657653808665
 15.9948053359985352 11.4839935302734375 44.0400657653808665
  2.4316265583038330  2.0832188129425049 50.0684852600097656
  2.4291670322418213 11.1146183013915998 50.0684852600097656
 11.4620265960693359  2.0832188129425049 50.0684852600097656
 11.4595670700073224 11.1146183013915998 50.0684852600097656
  6.5963144302368164  6.9481806755065918 50.0684852600097656
  6.5938549041748047 15.9795799255371076 50.0684852600097656
 15.6267137527465803  6.9481806755065918 50.0684852600097656
 15.6242542266845703 15.9795799255371076 50.0684852600097656
  2.0811281204223633  6.5990090370178223 50.0690460205078125
  2.0786688327789307 15.6304082870483398 50.0690460205078125
 11.1115283966064453  6.5990090370178223 50.0690460205078125
 11.1090688705444336 15.6304082870483398 50.0690460205078125
  6.9468131065368652  2.4323906898498531 50.0690460205078125
  6.9443535804748535 11.4637899398803711 50.0690460205078125
 15.9772129058837891  2.4323906898498531 50.0690460205078125
 15.9747543334960938 11.4637899398803711 50.0690460205078125
 18.0052028112113476  0.1191551312804222 37.7450675964355540
  0.1857928931713104  9.0498485565185547 37.7249908447265625
  9.0603641727939248 17.9522800594568253 37.7141380310058594
  9.0308828353881818  9.0308103561401367 37.6576042175293040
  4.6142463684082031  4.4780974388122559 37.8424987792968821
  4.3947110176086426 13.6528139114379883 37.6736030578613281
 13.4987049102783203  4.5399250984191886 37.8529624938964915
 13.5695705413818359 13.6812925338745117 37.7736930847167969
  0.0000090280000222  0.0000090310004452 44.0429992675781250
 -0.0024502959568053  9.0314083099365234 44.0429992675781250
  9.0304088592529297  0.0000090310004452 44.0429992675781250
  9.0279493331909180  9.0314083099365234 44.0429992675781250
  4.5139703750610352  4.5156903266906738 44.0427513122558594
  4.5115113258361816 13.5470905303955078 44.0427513122558594
 13.5443706512451172  4.5156903266906738 44.0427513122558594
 13.5419111251831037 13.5470905303955078 44.0427513122558594
  0.0000000000000000  0.0000000000000000 50.4472808837890696
 -0.0024593239650130  9.0313997268676740 50.4472808837890696
  9.0304002761840803  0.0000000000000000 50.4472808837890696
  9.0279407501220685  9.0313997268676740 50.4472808837890696
  4.5139703750610352  4.5156998634338379 50.4472808837890696
  4.5115113258361816 13.5470991134643537 50.4472808837890696
 13.5443706512451172  4.5156998634338379 50.4472808837890696
 13.5419111251831055 13.5470991134643537 50.4472808837890696
