 H  C  N  I Pb 
 1.0000000000000000
    18.0608005523681641    0.0000000000000000    0.0000000000000000
    -0.0049186488613486   18.0627994537353516    0.0000000000000000
     0.0000000000000000    0.0000000000000000   62.4874992370605469
 H   C   N   I   Pb 
 143  39  47  72  24
Cartesian
  8.1163187026977539  5.5153937339782715 36.3170852661132812
  8.0220775604248047 14.6738109588623047 36.2753906250000000
 17.3696708679199219  5.6367349624633780 36.0673027038574290
 17.4883613586425781 14.6913986206054688 36.3366851806640696
  5.6869578361511230  0.5956140756607056 36.3538093566894602
  5.4438576698303223  9.9628772735595703 36.3026962280273438
 14.1141910552978516  1.0964746475219727 36.4162826538086009
  1.3441905975341799  2.6112353801727290 35.0999794006347656
  1.2132663726806658 11.8931837081909180 34.7161369323730540
 10.6469306945800781  3.3477716445922852 34.7861976623535156
 10.2321491241455078 12.0345458984375000 34.9160728454589844
  6.1035871505737305  1.2341942787170410 34.7735824584960938
  5.6944484710693359 10.6552190780639648 34.7117958068847656
 14.8960123062133789  1.5299742221832275 34.9086608886718821
  0.6885852813720713  3.4364984035491943 36.5625724792480540
  0.9100456237792970 12.5842113494873047 36.2946739196777344
 10.2456369400024414  4.1825537681579590 36.2926483154296875
  9.4476556777954084 12.6016893386840820 36.3910369873046946
  3.7654576301574707  7.9841413497924805 36.3864974975585938
  3.5608710506930947 17.1546765565872192 36.3999824523925781
 12.5265611866489053 17.1102299094200134 36.3011741638183594
  7.1999783515930176  5.5348043441772461 34.8385963439941477
  7.9504628181457520 15.4602251052856445 34.7101898193359375
 17.2359638214111328  5.9926691055297843 34.3904380798339844
 16.9040107727050781 15.1828851699829084 34.8145408630371094
  3.0507934093475342  7.5424613952636719 34.8463554382324219
  2.7471188763156533 16.9594943523407018 34.8592300415039062
 12.4158529499545693 16.3433072566986084 34.7209625244140625
  8.7635059356689453  4.1296234130859375 33.6842422485351634
  9.3281650543212891 13.8681135177612305 33.6730041503906321
  0.3685417175292964  4.2298469543457031 33.6045989990234446
 17.9774303436279297 13.4755725860595703 33.6008720397949219
  4.2062511444091797  9.1851434707641602 33.6440353393554688
  4.2811837196350098  0.2321447432041168 33.6881713867187500
 13.8869699696078879 17.8491235226392746 33.6959075927734446
  8.2116060256958008  5.5331187248229972 42.2220077514648509
  8.0683946609497070 14.4715824127197266 42.1971206665039062
 17.0481331348419225  5.4157600402832031 42.1551704406738352
 17.0864493846893311 14.5379304885864258 42.2373466491699290
  5.3390531539916992  0.8989346027374268 42.2097434997558665
  5.3853521347045898 10.0285158157348633 42.1704101562500071
 14.5360593795776367  0.8827161192893982 42.1245498657226562
 14.4932670593261701 10.2670717239379883 42.1835289001464844
  1.4628162384033203  3.1145479679107666 40.6237716674804688
  1.4678456783294678 12.2029457092285156 40.7352447509765625
 10.3201694488525391  2.9595191478729248 40.6146049499511719
 10.3090820312500000 12.0661306381225586 40.5360908508300781
  3.1961531639099121  7.5478329658508301 40.5037002563476562
  3.0626403549686074 16.6048125028610229 40.4543876647949219
 12.3054800033569336  7.5686540603637695 40.8851814270019602
 11.9515833118930459 16.7604275941848755 40.5752105712890625
  0.8910936117172241  3.6344709396362305 42.2104606628417969
  0.7725314497947692 12.6611623764038086 42.3020248413085938
 10.0072717666625977  3.6688446998596191 42.1951599121093750
  9.8785943984985352 12.5328464508056641 42.1619186401367188
  3.6541271209716792  8.0642633438110352 42.1156005859375071
  3.5107211330905557 17.0670947432518005 42.0947608947753906
 12.6452636718750000  8.3186740875244141 42.3615112304687571
 12.5059789875522256 17.2667804360389709 42.1711158752441406
  7.5304698944091797  5.8978176116943359 40.6506805419921875
  7.5429573059082031 15.0234594345092773 40.6277275085449219
 16.5726537704467809  5.8675160408020020 40.5309829711914134
 16.7428109645843506 15.1543178558349609 40.6437873840332031
  5.8873515129089355  1.4686248302459717 40.6464958190917969
  5.9063191413879395 10.5755224227905256 40.5765762329101562
 15.0947628021240234  1.2866941690444946 40.5156021118164062
 15.0516729354858398 10.4823923110961914 40.5395698547363281
  0.0449066199362278  4.4455771446228027 39.4586791992187571
  0.2275551557540894 13.7386322021484375 39.5728836059570312
  8.7656307220458984  4.2743282318115234 39.5541648864746165
  8.8761692047119141 13.5925893783569318 39.4634246826171946
  4.5108513832092285  0.0401722826063633 39.4361801147460938
  4.6025400161743155  9.1124887466430664 39.4257507324218750
 13.4903167942538857 17.9847125709056854 39.4321975708007884
 13.7673482894897461  8.8252983093261719 39.6141242980957031
  8.1032123565673828  5.4420318603515616 48.0459518432617259
  8.1007528305053711 14.4734306335449219 48.0459518432617259
 17.1336116790771484  5.4420318603515616 48.0459518432617259
 17.1311531066894531 14.4734306335449219 48.0459518432617259
  5.4410333633422852  0.9265221953392029 48.0449485778808594
  5.4385743141174316  9.9579219818115234 48.0449485778808594
 14.4714326858520490  0.9265221953392029 48.0449485778808594
 14.4689741134643555  9.9579219818115234 48.0449485778808594
  1.4218254089355467  3.0919990539550781 46.4558296203613281
  1.4193661212921143 12.1233978271484375 46.4558296203613281
 10.4522256851196289  3.0919990539550781 46.4558296203613281
 10.4497661590576172 12.1233978271484375 46.4558296203613281
  3.0899283885955806  7.6075901985168457 46.4545211791992188
  3.0874691009521484 16.6389904022216797 46.4545211791992188
 12.1203289031982422  7.6075901985168457 46.4545211791992188
 12.1178693771362305 16.6389904022216797 46.4545211791992188
  0.9247469902038573  3.5893490314483643 48.0459518432617259
  0.9222877025604248 12.6207475662231445 48.0459518432617259
  9.9551477432250977  3.5893490314483643 48.0459518432617259
  9.9526882171630859 12.6207475662231445 48.0459518432617259
  3.5868983268737793  8.1048498153686523 48.0448913574218821
  3.5844390392303462 17.1362495422363281 48.0448913574218821
 12.6172990798950195  8.1048498153686523 48.0448913574218821
 12.6148395538330078 17.1362495422363281 48.0448913574218821
  7.6061611175537109  5.9393639564514160 46.4558296203613281
  7.6037015914916992 14.9707632064819336 46.4558296203613281
 16.6365604400634766  5.9393639564514160 46.4558296203613281
 16.6341018676757812 14.9707632064819336 46.4558296203613281
  5.9380125999450684  1.4238001108169553 46.4545211791992188
  5.9355530738830566 10.4551992416381836 46.4545211791992188
 14.9684123992919904  1.4238001108169553 46.4545211791992188
 14.9659538269042951 10.4551992416381836 46.4545211791992188
 -0.0011664569610730  4.5157265663146973 45.3548011779785156
 -0.0036257810425013 13.5471258163452148 45.3548011779785156
  9.0292339324951172  4.5157265663146973 45.3548011779785156
  9.0267744064331037 13.5471258163452148 45.3548011779785156
  4.5152091979980469  0.0000000000000000 45.3536758422851562
  4.5127501487731934  9.0313997268676740 45.3536758422851562
 13.5456094741821289  0.0000000000000000 45.3536758422851562
 13.5431499481201172  9.0313997268676740 45.3536758422851562
 14.1702003479003906 10.2427177429199219 33.0118942260742188
 13.2514085769653303  8.6896200180053711 33.1347541809082031
 15.7802515029907227  9.1360549926757812 34.3668327331542969
 15.3497390747070312  8.6519107818603516 36.0498046875000000
 13.3724784851074219 11.5636844635009766 35.5129280090332031
 14.4792327880859375 10.6887950897216779 36.6213722229003977
 11.7171039581298828  9.7156047821044922 35.7947349548339844
 12.2003421783447248  8.1273956298828125 35.1116638183593821
 11.2639026641845703  9.8822231292724609 33.8637504577636719
 12.1239891052246076 11.4330692291259766 34.0036430358886719
 11.3075866699218750 11.9151592254638672 31.9896774291992188
 12.6652507781982404 10.9797525405883789 31.4472255706787109
 14.9176301956176758  7.1220374107360840 33.5107040405273438
 13.6763200759887695  7.0394372940063468 34.7830238342285227
 15.3018522262573242  6.5863404273986816 35.1381378173828125
 15.5805301666259766 12.4828462600708008 35.0488128662109446
 15.3347549438476562 11.3072614669799805 33.8256683349609375
 16.3682804107666016 10.8977775573730469 35.1850013732910156
 13.8747100830078125  9.0787830352783203 37.4798812866211009
 13.3597145080566388  7.4001269340515128 37.0923118591308594
 12.2040777206420898  8.5087261199951172 37.9025840759277344
  9.8639259338378906  9.8598423004150391 31.9639129638671875
 10.4820623397827148 10.1934776306152344 30.3006095886230469
 13.0244112014770508  9.0429992675781250 29.9221038818359375
 10.0255050659179688  7.6485033035278320 32.7045898437500000
 14.1137180328369123  6.7981109619140625 29.9885749816894567
 11.1380386352539062  5.4443964958190918 32.8030128479003906
 13.2254152297973633  4.9986381530761719 31.4712543487548828
  0.2490215301513658  4.3100342750549316 34.6864738464355469
  0.0427284240722654 13.5289363861083984 34.6838645935058594
  8.9219026565551758  4.4350500106811523 34.7303924560546875
  9.0923414230346680 13.7544918060302734 34.7352561950683665
  4.3659234046936035  9.0961952209472656 34.7375106811523438
  4.4202542304992676  0.0685079172253609 34.7777557373046946
 13.6592754581943154 17.9697285443544388 34.7763175964355469
 18.0590891158208251  4.4800763130187988 40.5603981018066406
  0.0704519599676132 13.6928625106811506 40.6601409912109375
  8.9196643829345703  4.4244446754455566 40.6132125854492188
  8.9302806854248047 13.5435218811035156 40.5635643005371094
  4.5502934455871582  9.0475168228149414 40.5184745788574219
  4.4835443496704102  0.0118587166070938 40.5260200500488281
 13.6736421585083008  9.0154390335083008 40.7032241821289062
 13.5280279377475363 18.0623819036409259 40.5195388793945384
  9.0289716720581055  4.5156092643737793 46.4455223083496165
  9.0265130996704102 13.5470085144042969 46.4455223083496165
 18.0593719482421875  4.5156092643737793 46.4455223083496165
 18.0569133758544922 13.5470085144042969 46.4455223083496165
  4.5152091979980469  0.0000180629995157 46.4442062377929759
  4.5127501487731934  9.0314178466796857 46.4442062377929759
 13.5456094741821289  0.0000180629995157 46.4442062377929759
 13.5431499481201172  9.0314178466796857 46.4442062377929759
 11.4072189331054688  8.5139789581298828 31.2687053680419922
 12.5598001480102539  8.2350397109985352 30.5070838928222656
 10.9005947113037092  7.4541091918945312 32.0678749084472727
 13.1905288696289062  6.9830470085144043 30.5823669433593750
 11.5464067459106445  6.2067327499389648 32.1358642578125000
 12.6976518630981445  5.9719953536987305 31.3856334686279332
 13.3181791305541992  9.7180585861206037 33.5324745178222727
 15.0067949295043945  8.6616363525390625 35.0065574645996094
 14.2052545547485352 10.8458003997802717 35.5699615478515696
 12.5523614883422852  8.9551725387573242 35.7239799499511719
 12.0671062469482422 10.4900760650634766 33.4084587097167969
 11.7072906494140625 10.9279766082763672 32.0138740539550781
 14.7333097457885742  7.2991437911987305 34.5714569091796875
 15.4386329650878888 11.4022312164306641 34.9010620117187500
 13.0007209777832031  8.4549922943115234 37.1226806640625000
 10.7788715362548828  9.8859157562255859 31.3279418945312536
  0.7984237670898423  3.4163737297058105 35.4972915649414062
  0.7521934509277348 12.6190271377563477 35.2718086242675781
  9.9933032989501953  3.9587671756744385 35.3082695007324219
  9.6309509277343750 12.7395601272583008 35.3848991394042969
  8.0286779403686523  5.2034783363342285 35.3317451477050852
  8.2877893447875977 14.6849737167358398 35.2753868103027344
 17.5869331359863281  5.3444514274597168 35.0848274230957031
 17.4769020080566406 14.5025634765625000 35.3075981140136719
  3.7043335437774658  8.1584453582763672 35.3793792724609375
  3.5389107922092080 17.3708078861236572 35.4003219604492259
 12.8180765369907022 17.1124503016471863 35.3233299255371094
  5.4521775245666504  0.6539800763130188 35.3599967956543040
  5.2079505920410156  9.9397935867309570 35.3086547851562500
 14.2622442245483398  0.8817564845085144 35.4262351989746094
  0.8492191433906555  3.6822259426116943 41.1722984313964844
  0.8329071402549743 12.7937231063842773 41.2922935485839915
  9.7992305755615234  3.6286382675170898 41.1747932434082102
  9.7278451919555664 12.6928491592407227 41.1491546630859375
  3.7658739089965820  8.1565885543823242 41.0944786071777344
  3.6525613525882363 17.2182487249374390 41.0904846191406250
 12.8170595169067383  8.2485475540161133 41.3538398742675781
 12.6269821384921670 17.3396737575531041 41.1553039550781250
  8.1760959625244141  5.3397645950317383 41.2050399780273438
  8.1384277343750000 14.3979434967041016 41.1650848388671875
 17.1942006945610046  5.2823820114135742 41.1346359252929759
 17.2772466540336644 14.5078306198120117 41.2132911682128906
  5.2867975234985352  0.8449147343635559 41.1793289184570312
  5.3088455200195312  9.9182634353637695 41.1545333862304759
 14.4431295394897461  0.7694712281227112 41.1007804870605540
 14.4385986328125000  9.9695043563842756 41.1891708374023438
  0.8273094892501831  3.6869695186614990 47.0359649658203125
  0.8248501420021057 12.7183685302734375 47.0359649658203125
  9.8577098846435547  3.6869695186614990 47.0359649658203125
  9.8552503585815412 12.7183685302734375 47.0359649658203125
  3.6843190193176270  8.2023353576660156 47.0346527099609375
  3.6818594932556152 17.2337341308593750 47.0346527099609375
 12.7147188186645508  8.2023353576660156 47.0346527099609375
 12.7122592926025391 17.2337341308593750 47.0346527099609375
  8.2006769180297852  5.3445744514465332 47.0360260009765696
  8.1982173919677734 14.3759746551513672 47.0360260009765696
 17.2310771942138672  5.3445744514465332 47.0360260009765696
 17.2286186218261719 14.3759746551513672 47.0360260009765696
  5.3436489105224600  0.8290914893150328 47.0346527099609375
  5.3411893844604483  9.8604917526245117 47.0346527099609375
 14.3740482330322266  0.8290914893150328 47.0346527099609375
 14.3715896606445312  9.8604917526245117 47.0346527099609375
 13.7207775115966797  9.5487518310546875 34.9560737609863281
  9.0019369125366211  0.2086843103170395 34.4999504089355469
  8.6622743606567383  9.3577508926391602 34.8154067993164134
 18.0298423850908911 18.0596502544358408 34.4912109375000000
  0.3964403867721558  8.6921005249023438 34.3428764343261719
  4.5693345069885254  4.5208768844604483 34.4704856872558594
  4.5115609169006348 13.5789222717285156 34.5065155029296875
 13.6765546798706055  4.1215710639953613 34.7025375366210938
 13.2591152191162092 13.9125986099243164 34.2476539611816406
  0.0670053586363792  0.0489416196942329 40.8812294006347656
  0.1270982027053833  9.1132326126098633 40.8341484069824219
  9.0971636036410928 18.0488922828808462 40.9370307922363352
  8.9935884475708008  8.9944524765014648 41.0015945434570384
  4.5036168098449707  4.5041351318359375 40.9367027282714844
  4.4415578842163086 13.5763349533081055 40.8527259826660156
 13.4776830673217773  4.4929862022399902 40.9783744812011790
 13.5520267486572266 13.6595783233642578 40.8794250488281250
  2.6061856746673584  1.9015344381332397 38.1124572753906250
  2.6200366020202637 10.9000310897827148 38.0024948120117188
 11.6576166152954102  1.8615103960037231 38.0194931030273438
 11.2989444732666016 11.2885808944702148 38.2710800170898438
  6.3723702430725098  7.1021971702575684 38.0658073425293040
  6.4099645614624023 16.1458435058593750 38.0680046081542969
 15.8672599792480469  6.7377161979675293 38.2954444885253906
 15.4385938644409180 16.1963386535644531 37.9855079650878906
  1.9540108442306519  6.4379301071166983 37.9721374511718750
  1.9513835906982420 15.4972791671752930 38.0573234558105540
 10.5920448303222656  6.1039333343505859 37.9902915954589844
 10.9419631958007812 15.5454015731811523 38.1049880981445312
  7.0793561935424805  2.5500397682189941 37.9817390441894531
  6.9911327362060538 11.5837821960449219 38.0967750549316406
 16.1361503601074219  2.5371348857879639 38.0171546936035227
 16.4592876434326172 11.9323663711547852 38.3046607971191406
  0.0000000000000000  0.0000000000000000 47.1735610961914062
 -0.0024593239650130  9.0313997268676740 47.1735610961914062
  9.0304002761840803  0.0000000000000000 47.1735610961914062
  9.0279407501220685  9.0313997268676740 47.1735610961914062
  4.5139794349670410  4.5156998634338379 47.1742515563964844
  4.5115203857421875 13.5470991134643537 47.1742515563964844
 13.5443792343139648  4.5156998634338379 47.1742515563964844
 13.5419197082519531 13.5470991134643537 47.1742515563964844
  2.4519233703613277  2.0629522800445557 44.0401268005371165
  2.4494640827178955 11.0943517684936523 44.0401268005371165
 11.4823226928710920  2.0629522800445557 44.0401268005371165
 11.4798641204833984 11.0943517684936523 44.0401268005371165
  6.5760178565979004  6.9684472084045410 44.0401268005371165
  6.5735583305358887 15.9998464584350586 44.0401268005371165
 15.6064186096191406  6.9684472084045410 44.0401268005371165
 15.6039590835571289 15.9998464584350586 44.0401268005371165
  2.0610768795013428  6.5788145065307617 44.0400009155273509
  2.0586175918579102 15.6102142333984375 44.0400009155273509
 11.0914773941040039  6.5788145065307617 44.0400009155273509
 11.0890178680419922 15.6102142333984375 44.0400009155273509
  6.9668641090393066  2.4525938034057613 44.0400657653808665
  6.9644045829772949 11.4839935302734375 44.0400657653808665
 15.9972639083862305  2.4525938034057613 44.0400657653808665
 15.9948053359985352 11.4839935302734375 44.0400657653808665
  2.4316265583038330  2.0832188129425049 50.0684852600097656
  2.4291670322418213 11.1146183013915998 50.0684852600097656
 11.4620265960693359  2.0832188129425049 50.0684852600097656
 11.4595670700073224 11.1146183013915998 50.0684852600097656
  6.5963144302368164  6.9481806755065918 50.0684852600097656
  6.5938549041748047 15.9795799255371076 50.0684852600097656
 15.6267137527465803  6.9481806755065918 50.0684852600097656
 15.6242542266845703 15.9795799255371076 50.0684852600097656
  2.0811281204223633  6.5990090370178223 50.0690460205078125
  2.0786688327789307 15.6304082870483398 50.0690460205078125
 11.1115283966064453  6.5990090370178223 50.0690460205078125
 11.1090688705444336 15.6304082870483398 50.0690460205078125
  6.9468131065368652  2.4323906898498531 50.0690460205078125
  6.9443535804748535 11.4637899398803711 50.0690460205078125
 15.9772129058837891  2.4323906898498531 50.0690460205078125
 15.9747543334960938 11.4637899398803711 50.0690460205078125
  0.0094390064477921  0.0067379949614406 37.6910362243652344
  0.0310489945113659  9.1002235412597656 37.6902999877929688
  8.9825906753540039  0.0524471960961819 37.6118278503417969
  8.9497919082641602  8.9928083419799805 37.8605422973632884
  4.5272488594055176  4.4781961441040039 37.6263999938964844
  4.4910221099853516 13.5212535858154297 37.6159210205078125
 13.5049991607666016  4.4383740425109863 37.8286628723144531
 13.5159511566162109 13.7092466354370117 37.7748794555664062
  0.0000090280000222  0.0000090310004452 44.0429992675781250
 -0.0024502959568053  9.0314083099365234 44.0429992675781250
  9.0304088592529297  0.0000090310004452 44.0429992675781250
  9.0279493331909180  9.0314083099365234 44.0429992675781250
  4.5139703750610352  4.5156903266906738 44.0427513122558594
  4.5115113258361816 13.5470905303955078 44.0427513122558594
 13.5443706512451172  4.5156903266906738 44.0427513122558594
 13.5419111251831037 13.5470905303955078 44.0427513122558594
  0.0000000000000000  0.0000000000000000 50.4472808837890696
 -0.0024593239650130  9.0313997268676740 50.4472808837890696
  9.0304002761840803  0.0000000000000000 50.4472808837890696
  9.0279407501220685  9.0313997268676740 50.4472808837890696
  4.5139703750610352  4.5156998634338379 50.4472808837890696
  4.5115113258361816 13.5470991134643537 50.4472808837890696
 13.5443706512451172  4.5156998634338379 50.4472808837890696
 13.5419111251831055 13.5470991134643537 50.4472808837890696
