 H  C  N  I Pb 
 1.0000000000000000
    18.0608005523681641    0.0000000000000000    0.0000000000000000
    -0.0049186488613486   18.0627994537353516    0.0000000000000000
     0.0000000000000000    0.0000000000000000   62.4874992370605469
 H   C   N   I   Pb 
 143  39  47  72  24
Cartesian
  7.6967673301696777  4.7097978591918945 36.3475837707519531
  7.5162649154663086 13.4259614944458008 36.1258506774902415
 16.8987407684326172  5.2273921966552734 36.3684730529785156
 17.0835189819335938 14.6111783981323242 36.2358932495117188
  5.6214890480041504  1.0755275487899780 36.2203102111816406
  5.4816050529479980 10.4406919479370117 35.9607620239257812
 14.1830101013183594  1.3506268262863159 36.3454093933105469
  1.8702621459960942  3.5488028526306152 35.2450141906738281
  1.5328693389892587 12.2110576629638672 35.2416229248046946
 10.8377285003662109  3.5173156261444092 35.1934967041015625
 10.9773168563842773 13.3922367095947266 35.1911315917968821
  6.6695384979248038  0.3603002429008484 35.0443687438964844
  4.9378952980041504 11.0486040115356445 34.4565200805664062
 15.4119186401367188  1.0625272989273071 35.1759300231933594
  1.2645874023437527  4.4689054489135742 36.5680503845214915
  0.2211093902587889 12.4807558059692383 36.3869705200195384
  9.6800546646118164  3.2466905117034908 36.4119377136230469
  9.8695058822631836 12.6255493164062500 36.3196525573730469
  4.7750272750854492  8.0428276062011719 36.4826469421386790
  3.1786208152770996  0.3461086153984070 36.0957527160644531
 12.2090076664462686 17.8227652013301849 36.2831993103027344
  7.5701570510864258  5.8679628372192383 35.0519943237304759
  7.1462373733520508 14.5617227554321289 34.8678359985351562
 16.0797538757324219  4.6693968772888184 34.9347190856933594
 17.5799617767333984 15.7123832702636701 34.9620361328125000
  3.8068792819976802  7.2641897201538086 35.2943229675292969
  2.7865752438083291 17.3079742193222046 34.8190994262695312
 12.3207496860995889 16.5516263246536255 35.0916290283203125
  9.5483322143554688  5.1747913360595703 34.1314964294433594
  9.3750324249267578 14.5966024398803711 34.1152458190917969
 17.9356651306152344  3.6425764560699463 34.0830612182617259
  1.1679019927978538 14.2451601028442383 34.1882705688476562
  3.7989051342010498  9.0943346023559570 33.8798370361328196
  4.9476398685947061 17.2040904164314270 34.0252990722656250
 14.3391136387363076 17.3007301688194275 34.2544937133789062
  7.8819417953491202  5.1667985916137695 42.1906356811523438
  7.7894616127014160 14.8316593170166016 41.9702796936035156
 17.5364740490913391  4.9671363830566406 42.6212081909179688
 16.8815407752990723 14.2673559188842773 42.2087936401367259
  5.3896050453186035  0.8568068742752075 42.3040351867675781
  5.3844933509826660  9.9534111022949219 42.2253913879394531
 14.4376974105834943  1.0135740041732788 42.1680450439453125
 14.5730714797973633  9.9914417266845703 42.2486038208007812
  1.5067306756973267  3.0426435470581055 40.2544326782226562
  1.7163705825805664 12.4129467010498047 40.8566017150878906
 10.4788570404052734  3.1457147598266597 40.5917015075683594
 10.1319217681884766 12.1763496398925781 41.0581130981445384
  3.2949354648590088  7.4241862297058105 40.5808868408203196
  3.1165281990543008 16.6490974426269531 40.4138259887695384
 12.1272974014282227  7.6785526275634766 40.8227653503417969
 12.0387958744540811 16.7598502635955811 40.6346740722656250
  1.2808916568756104  3.2434661388397217 41.9757995605468821
  0.6810760498046875 12.4585657119750977 42.2531700134277415
  9.6601190567016602  3.3210091590881348 42.1123542785644602
  9.4435062408447266 12.9715175628662109 42.4512748718261719
  3.8244428634643555  7.8901109695434570 42.1636886596679688
  3.4198509911075234 17.1298743486404419 42.0464859008789062
 12.8369903564453125  8.0634870529174805 42.3448524475097656
 12.4629120090976357 17.4077167510986328 42.1885833740234375
  7.6467366218566895  6.0419783592224121 40.6957054138183594
  7.5405535697937003 15.1695652008056641 40.2812881469726634
 16.7591179609298706  5.7541718482971191 41.2432823181152344
 16.8801283836364746 15.2242240905761719 40.7549018859863281
  6.1180114746093741  1.3050143718719482 40.8133087158203196
  5.7253265380859366 10.6695365905761719 40.6871376037597656
 15.1506567001342773  1.3085055351257322 40.6083488464355469
 14.7439451217651367 10.7061262130737305 40.6825103759765625
 17.9580857157707250  4.6183557510375977 39.7211494445800781
  0.6240434646606444 14.1831083297729492 39.8124885559082031
  9.3023328781127930  4.8535065650939941 39.5846023559570384
  8.9900779724121094 13.5467433929443359 39.5729064941406321
  4.7709659794345498 18.0136867426335812 39.5159759521484375
  4.4567861557006836  9.1683883666992188 39.5274963378906321
 13.7243751743808389 17.9486326575279236 39.5272064208984375
 13.2312269210815412  9.2884483337402344 39.6734390258789134
  8.1032123565673828  5.4420318603515616 48.0459518432617259
  8.1007528305053711 14.4734306335449219 48.0459518432617259
 17.1336116790771484  5.4420318603515616 48.0459518432617259
 17.1311531066894531 14.4734306335449219 48.0459518432617259
  5.4410333633422852  0.9265221953392029 48.0449485778808594
  5.4385743141174316  9.9579219818115234 48.0449485778808594
 14.4714326858520490  0.9265221953392029 48.0449485778808594
 14.4689741134643555  9.9579219818115234 48.0449485778808594
  1.4218254089355467  3.0919990539550781 46.4558296203613281
  1.4193661212921143 12.1233978271484375 46.4558296203613281
 10.4522256851196289  3.0919990539550781 46.4558296203613281
 10.4497661590576172 12.1233978271484375 46.4558296203613281
  3.0899283885955806  7.6075901985168457 46.4545211791992188
  3.0874691009521484 16.6389904022216797 46.4545211791992188
 12.1203289031982422  7.6075901985168457 46.4545211791992188
 12.1178693771362305 16.6389904022216797 46.4545211791992188
  0.9247469902038573  3.5893490314483643 48.0459518432617259
  0.9222877025604248 12.6207475662231445 48.0459518432617259
  9.9551477432250977  3.5893490314483643 48.0459518432617259
  9.9526882171630859 12.6207475662231445 48.0459518432617259
  3.5868983268737793  8.1048498153686523 48.0448913574218821
  3.5844390392303462 17.1362495422363281 48.0448913574218821
 12.6172990798950195  8.1048498153686523 48.0448913574218821
 12.6148395538330078 17.1362495422363281 48.0448913574218821
  7.6061611175537109  5.9393639564514160 46.4558296203613281
  7.6037015914916992 14.9707632064819336 46.4558296203613281
 16.6365604400634766  5.9393639564514160 46.4558296203613281
 16.6341018676757812 14.9707632064819336 46.4558296203613281
  5.9380125999450684  1.4238001108169553 46.4545211791992188
  5.9355530738830566 10.4551992416381836 46.4545211791992188
 14.9684123992919904  1.4238001108169553 46.4545211791992188
 14.9659538269042951 10.4551992416381836 46.4545211791992188
 -0.0011664569610730  4.5157265663146973 45.3548011779785156
 -0.0036257810425013 13.5471258163452148 45.3548011779785156
  9.0292339324951172  4.5157265663146973 45.3548011779785156
  9.0267744064331037 13.5471258163452148 45.3548011779785156
  4.5152091979980469  0.0000000000000000 45.3536758422851562
  4.5127501487731934  9.0313997268676740 45.3536758422851562
 13.5456094741821289  0.0000000000000000 45.3536758422851562
 13.5431499481201172  9.0313997268676740 45.3536758422851562
 14.1721792221069318  9.1829500198364258 32.4348602294921875
 15.7226266860961914  9.1584014892578125 33.2590904235839844
 13.6090412139892578 11.3531847000122070 33.6956977844238281
 13.8622894287109375 11.3537855148315430 35.4253234863281250
 12.2616024017333967  8.2230443954467773 34.9070014953613352
 12.1268367767333984  9.9496116638183594 35.2557220458984375
 14.4695730209350586  7.7407488822937012 35.6995086669921946
 15.6901922225952148  9.0558404922485352 35.7446403503417969
 15.5629730224609375  6.8868479728698730 33.9026794433593750
 13.8001604080200195  6.8270449638366699 33.6676368713378906
 13.9985246658325195  6.9054894447326660 31.2357559204101598
 15.5930604934692383  7.5875549316406250 31.2830181121826172
 16.1044120788574219 11.0605592727661133 33.3156661987304688
 16.3997936248779297 11.0227193832397461 35.0723915100097656
 15.6718292236328125 12.4737768173217773 34.2988815307617259
 10.7673559188842773  9.4576272964477521 33.3981094360351562
 12.0269165039062500  8.7225723266601562 32.4322967529296875
 12.0960788726806641 10.4897794723510742 32.7500953674316477
 13.1126480102539045  8.6984462738037109 37.3095664978027344
 13.5509424209594727 10.3660888671875000 37.0675277709961009
 14.7138423919677734  9.2728366851806641 37.8573188781738281
 15.0762338638305646  4.7816057205200195 32.3636970520019531
 15.2465782165527326  5.0246086120605469 30.6364936828613281
 16.9691963195800781  3.1705930233001709 31.4326477050781250
 17.5966453552246094  7.3928017616271964 32.1333618164062500
  1.3291568756103516  2.7628953456878662 31.4586563110351562
  1.9300689697265654  6.9773712158203125 32.2288513183593750
  2.8758277893066406  4.7101922035217285 31.9296188354492223
 17.9972820281982422  4.0983271598815918 35.0456962585449290
  0.5279235839843759 13.9563331604003906 35.0490417480468750
  9.1982412338256836  4.6627221107482910 35.0299797058105540
  9.0870161056518555 13.9461832046508789 34.9464225769042969
  4.3323774337768555  9.1403093338012695 34.8119812011718750
  4.7385477283969522 17.8266163915395737 34.8760414123535227
 13.8729528645053506 17.8181104958057404 35.0742797851562571
  0.1089175343513489  4.3969359397888184 40.7662773132324219
  0.2682734131813049 13.8044490814208984 40.7984504699707102
  9.0671424865722656  4.5875210762023917 40.6371307373046875
  8.8512773513793945 13.6704006195068359 40.6585159301757812
  4.5002393722534180  9.0317935943603516 40.6173133850097656
  4.6119307735934854 18.0076721124351025 40.6200256347656321
 13.4364757537841797  9.2011585235595703 40.7266349792480469
 13.5853924015536904 18.0529529675841331 40.6138954162597656
  9.0289716720581055  4.5156092643737793 46.4455223083496165
  9.0265130996704102 13.5470085144042969 46.4455223083496165
 18.0593719482421875  4.5156092643737793 46.4455223083496165
 18.0569133758544922 13.5470085144042969 46.4455223083496165
  4.5152091979980469  0.0000180629995157 46.4442062377929759
  4.5127501487731934  9.0314178466796857 46.4442062377929759
 13.5456094741821289  0.0000180629995157 46.4442062377929759
 13.5431499481201172  9.0314178466796857 46.4442062377929759
 17.0746746063232422  5.2748131752014160 31.7387161254882812
 17.6272163391113281  4.0186214447021484 31.5826606750488281
 17.9648914337158203  6.3629932403564453 31.9986953735351562
  0.9444084167480454  3.7818543910980225 31.6276931762695312
  1.2665863037109355  6.1382570266723624 32.0210037231445312
  1.8093986511230489  4.8605437278747559 31.8421821594238281
 14.6839618682861328  8.8161592483520508 33.3187026977539062
 14.2482547760009748 10.9371795654296875 34.4902534484863281
 12.5047245025634766  9.2273120880126953 34.5197677612304759
 14.6086006164550781  8.8288536071777344 35.7867279052734375
 14.7239084243774414  7.2656650543212891 33.2693557739257812
 14.9572372436523438  6.8808016777038574 31.7813186645507848
 15.7001905441284180 11.3714971542358398 34.2908020019531250
 11.8435277938842756  9.5029859542846680 33.1812934875488281
 13.9556741714477521  9.3398494720458984 37.0648384094238352
 15.5559768676757812  5.4547238349914551 31.6112709045410192
  1.0669136047363277  4.0141987800598145 35.6891288757324219
  0.7693042755126985 12.7929754257202148 35.5885391235351562
  9.9171428680419922  3.7121267318725586 35.5483436584472656
 10.0149602890014648 13.1840476989746094 35.4789237976074290
  8.0623083114624023  5.1080913543701163 35.5212593078613352
  7.8184013366699219 13.9790687561035138 35.3608016967773509
 16.9409008026123047  4.7159891128540039 35.4838485717773438
 17.6475639343261719 14.7865581512451172 35.4139671325683665
  4.2759780883789062  8.0986490249633789 35.5748596191406250
  3.4987701633945107 17.8338395357131958 35.2854728698730469
 12.6982912281528098 17.4056021571159363 35.4741249084472727
  5.7193889617919913  0.4633249938488006 35.3884696960449290
  4.9433388710021964 10.2790851593017578 35.0977096557617188
 14.5320863723754883  0.7709775567054749 35.5667953491211009
  1.0071103572845459  3.5112221240997310 41.0298156738281250
  0.9090104103088378 12.8442583084106445 41.3477706909179688
  9.7656297683715820  3.6451120376586914 41.1531867980957102
  9.5260534286499023 12.8881816864013654 41.4662551879882812
  3.8510360717773438  8.0773229598999023 41.1868667602539134
  3.6744364956393838 17.2327532768249512 41.0868759155273438
 12.7444858551025373  8.2473726272583008 41.3366737365722727
 12.6617206791415811 17.3808863162994385 41.2140541076660156
  8.1277484893798828  5.3101205825805664 41.2387657165527415
  8.0042715072631836 14.6237258911132812 41.0213127136230540
 17.4363352060317993  5.0876851081848145 41.6232147216796875
 17.2988026142120361 14.4550514221191406 41.2805671691894602
  5.3879857063293457  0.7185316085815429 41.3121528625488281
  5.2557711601257324  9.9440326690673828 41.2434883117675781
 14.4519071578979492  0.8237793445587158 41.2005996704101562
 14.3014316558837873 10.0179052352905273 41.2682571411132812
  0.8273094892501831  3.6869695186614990 47.0359649658203125
  0.8248501420021057 12.7183685302734375 47.0359649658203125
  9.8577098846435547  3.6869695186614990 47.0359649658203125
  9.8552503585815412 12.7183685302734375 47.0359649658203125
  3.6843190193176270  8.2023353576660156 47.0346527099609375
  3.6818594932556152 17.2337341308593750 47.0346527099609375
 12.7147188186645508  8.2023353576660156 47.0346527099609375
 12.7122592926025391 17.2337341308593750 47.0346527099609375
  8.2006769180297852  5.3445744514465332 47.0360260009765696
  8.1982173919677734 14.3759746551513672 47.0360260009765696
 17.2310771942138672  5.3445744514465332 47.0360260009765696
 17.2286186218261719 14.3759746551513672 47.0360260009765696
  5.3436489105224600  0.8290914893150328 47.0346527099609375
  5.3411893844604483  9.8604917526245117 47.0346527099609375
 14.3740482330322266  0.8290914893150328 47.0346527099609375
 14.3715896606445312  9.8604917526245117 47.0346527099609375
 14.0094547271728516  9.4174976348876953 34.5137519836425781
  9.1526140430942178 17.9223338663578033 34.5613975524902344
  8.2698259353637695  8.6160802841186523 34.6771812438964844
 17.9291787296533585  0.1910620331764221 34.4460601806640696
  0.6154180765151978  8.8638601303100586 34.8859634399414062
  4.4474177360534668  4.4484844207763672 34.6907615661621094
  4.3517808914184570 13.9002056121826172 34.4642677307128906
 13.4070835113525391  4.0967974662780762 34.6642990112304688
 12.9258060455322266 14.2308635711669922 34.0387535095214844
  0.0412782812491059 18.0033778101205826 40.8645668029785156
 18.0395308267325198  9.1427803039550781 41.0334053039550852
  8.9441394805908203  0.0087923798710108 40.9494705200195312
  8.9291458129882812  8.9888992309570312 40.9437942504882812
  4.5981044769287109  4.3437442779541016 40.9752616882324219
  4.5838184356689453 13.5995416641235352 40.8646354675292969
 13.4433631896972656  4.4809489250183105 40.9482727050781250
 13.6763963699340820 13.6649217605590820 40.8561172485351562
  2.7087640762329102  1.8961532115936279 38.0912857055664062
  2.7427809238433838 10.9718742370605469 38.0468635559082102
 11.6621665954589826  1.9351944923400879 38.1371574401855540
 11.0224552154541016 11.5617694854736328 38.4324188232421946
  6.5524110794067383  7.0193715095520020 38.2938728332519531
  6.5333280563354492 16.1015262603759766 38.0402030944824219
 16.0567436218261719  6.5494160652160645 38.4961891174316406
 15.5471334457397461 16.1193122863769531 37.9974365234375000
  2.1141169071197510  6.4776434898376465 38.2048492431640625
  2.0498793125152588 15.7139825820922852 38.0004158020019531
 11.1417913436889648  6.6732525825500488 37.9262313842773438
 11.1406965255737305 15.6468582153320312 38.2417678833007812
  7.1916003227233887  2.5674960613250732 38.0644226074218750
  6.9524979591369629 11.5734577178955078 37.9561843872070312
 15.9921340942382812  2.4698958396911621 38.3247413635253906
 16.5189800262451172 12.0145044326782227 38.3967514038085938
  0.0000000000000000  0.0000000000000000 47.1735610961914062
 -0.0024593239650130  9.0313997268676740 47.1735610961914062
  9.0304002761840803  0.0000000000000000 47.1735610961914062
  9.0279407501220685  9.0313997268676740 47.1735610961914062
  4.5139794349670410  4.5156998634338379 47.1742515563964844
  4.5115203857421875 13.5470991134643537 47.1742515563964844
 13.5443792343139648  4.5156998634338379 47.1742515563964844
 13.5419197082519531 13.5470991134643537 47.1742515563964844
  2.4519233703613277  2.0629522800445557 44.0401268005371165
  2.4494640827178955 11.0943517684936523 44.0401268005371165
 11.4823226928710920  2.0629522800445557 44.0401268005371165
 11.4798641204833984 11.0943517684936523 44.0401268005371165
  6.5760178565979004  6.9684472084045410 44.0401268005371165
  6.5735583305358887 15.9998464584350586 44.0401268005371165
 15.6064186096191406  6.9684472084045410 44.0401268005371165
 15.6039590835571289 15.9998464584350586 44.0401268005371165
  2.0610768795013428  6.5788145065307617 44.0400009155273509
  2.0586175918579102 15.6102142333984375 44.0400009155273509
 11.0914773941040039  6.5788145065307617 44.0400009155273509
 11.0890178680419922 15.6102142333984375 44.0400009155273509
  6.9668641090393066  2.4525938034057613 44.0400657653808665
  6.9644045829772949 11.4839935302734375 44.0400657653808665
 15.9972639083862305  2.4525938034057613 44.0400657653808665
 15.9948053359985352 11.4839935302734375 44.0400657653808665
  2.4316265583038330  2.0832188129425049 50.0684852600097656
  2.4291670322418213 11.1146183013915998 50.0684852600097656
 11.4620265960693359  2.0832188129425049 50.0684852600097656
 11.4595670700073224 11.1146183013915998 50.0684852600097656
  6.5963144302368164  6.9481806755065918 50.0684852600097656
  6.5938549041748047 15.9795799255371076 50.0684852600097656
 15.6267137527465803  6.9481806755065918 50.0684852600097656
 15.6242542266845703 15.9795799255371076 50.0684852600097656
  2.0811281204223633  6.5990090370178223 50.0690460205078125
  2.0786688327789307 15.6304082870483398 50.0690460205078125
 11.1115283966064453  6.5990090370178223 50.0690460205078125
 11.1090688705444336 15.6304082870483398 50.0690460205078125
  6.9468131065368652  2.4323906898498531 50.0690460205078125
  6.9443535804748535 11.4637899398803711 50.0690460205078125
 15.9772129058837891  2.4323906898498531 50.0690460205078125
 15.9747543334960938 11.4637899398803711 50.0690460205078125
 17.9768376499414444  0.0805064737796783 37.7201690673828196
  0.1612212955951691  9.1268472671508789 37.9263267517089844
  9.0326637485995889 17.9764487147331238 37.6664390563964844
  8.9431543350219727  9.0428504943847656 37.6940650939941406
  4.5423531532287589  4.5109872817993164 37.8108711242675781
  4.4049725532531738 13.6546211242675763 37.6900672912597727
 13.5814323425292969  4.5557250976562500 37.8167381286621094
 13.5539140701293945 13.6336565017700178 37.7866134643554759
  0.0000090280000222  0.0000090310004452 44.0429992675781250
 -0.0024502959568053  9.0314083099365234 44.0429992675781250
  9.0304088592529297  0.0000090310004452 44.0429992675781250
  9.0279493331909180  9.0314083099365234 44.0429992675781250
  4.5139703750610352  4.5156903266906738 44.0427513122558594
  4.5115113258361816 13.5470905303955078 44.0427513122558594
 13.5443706512451172  4.5156903266906738 44.0427513122558594
 13.5419111251831037 13.5470905303955078 44.0427513122558594
  0.0000000000000000  0.0000000000000000 50.4472808837890696
 -0.0024593239650130  9.0313997268676740 50.4472808837890696
  9.0304002761840803  0.0000000000000000 50.4472808837890696
  9.0279407501220685  9.0313997268676740 50.4472808837890696
  4.5139703750610352  4.5156998634338379 50.4472808837890696
  4.5115113258361816 13.5470991134643537 50.4472808837890696
 13.5443706512451172  4.5156998634338379 50.4472808837890696
 13.5419111251831055 13.5470991134643537 50.4472808837890696
