 H  C  N  I Pb 
 1.0000000000000000
    18.0608005523681641    0.0000000000000000    0.0000000000000000
    -0.0049186488613486   18.0627994537353516    0.0000000000000000
     0.0000000000000000    0.0000000000000000   62.4874992370605469
 H   C   N   I   Pb 
 143  39  47  72  24
Cartesian
  8.4095020294189453  6.1289267539978027 35.1903228759765625
  7.9082264900207511 14.8736076354980469 35.9163742065429759
 16.6810913085937500  5.0703120231628418 36.0529251098632812
 16.8850498199462891 14.7726306915283203 35.7792968750000000
  5.8084878921508789  1.4168856143951414 35.6555175781250000
  6.2763862609863281  9.8116292953491211 34.7684593200683594
 14.5664377212524414  1.6682387590408325 35.3464889526367188
  1.9612751007080089  4.5302801132202148 34.7721595764160156
  1.3461208343505868 12.1941108703613263 36.0499687194824219
  9.9443283081054688  2.8152716159820557 35.0449256896972656
  9.1019077301025391 11.6270895004272461 34.7853698730468750
  6.7939867973327637  0.2699945569038391 34.8040504455566406
  5.3187026977539062 11.2530107498168945 34.4458274841308594
 15.8392696380615234  0.5923992991447449 34.7706069946289062
  1.0749969482421899  5.1606755256652832 36.1251144409179688
 17.8081283569335938 12.5905408859252930 36.5861930847167969
 10.3296279907226545  4.4770126342773438 35.4467430114746094
  8.0781164169311523 12.3829870223999023 35.9540939331054688
  4.9233598709106445  7.8809456825256348 35.7511672973632884
  3.3890728950500484  1.0450596809387207 35.7479896545410156
 12.3868503570556641  0.5791323184967041 35.9508171081542969
  6.8940258026123047  5.3876318931579590 34.6931838989257812
  8.9562559127807617 15.7011966705322266 34.8016128540039062
 15.9304351806640607  4.2726154327392578 34.6856575012207031
 17.8600940704345703 15.6779727935790998 34.6559715270996094
  3.1910035610198975  8.0520038604736328 35.5967864990234446
  2.7521609524264932 17.7005818486213684 34.9616813659667969
 12.2941660145297647 16.9233733415603638 35.5678672790527344
  7.7593703269958496  3.3024899959564209 34.5015678405761790
  9.8210000991821289 13.7088766098022461 33.9103088378906250
 18.0311603546142578  3.8867862224578857 33.6496810913085938
  1.5144309997558569 14.0737562179565430 34.6619453430175852
  3.2904999256134033 10.1763935089111310 34.7693710327148438
  4.8891934612765908 16.9843641519546509 34.2654838562011719
 14.4268583515658975 16.7876555919647217 34.8048439025878906
  8.0015945434570312  5.4308867454528809 41.9801597595214844
  8.1457624435424805 14.5711965560913086 42.1011619567871094
 17.0686615705490112  5.1215796470642090 42.1492385864257812
 16.6193801164627111 13.2859668731689453 41.7870254516601634
  5.4318575859069815  0.9552242755889891 42.0272712707519531
  5.3247580528259277 10.1232318878173828 42.1050338745117188
 14.5392055511474609  1.0068874359130859 42.1288223266601562
 15.2227411270141602  8.4865608215332031 41.3903923034668040
  1.5604993104934692  3.0479862689971924 40.5071182250976562
  2.0320067405700684 12.8346643447875977 40.8187217712402415
 10.4683179855346680  3.0859839916229248 40.6026763916015625
 10.3136281967163086 12.0925550460815430 40.4602851867675781
  3.3426029682159424  7.4331641197204581 40.5512237548828196
  3.0537687996402383 16.6864683628082275 40.4589462280273438
 11.5978326797485352  8.5520524978637695 40.9662628173828125
 12.1805767277255654 16.6161810159683263 40.7230377197265625
  0.9439651966094971  3.3545460700988770 42.1013221740722727
  0.7341971397399902 12.0497188568115217 41.6813926696777415
  9.8548221588134766  3.6329171657562251 42.1425285339355469
  9.8924865722656250 12.6120586395263672 42.0650596618652344
  3.6740293502807617  8.0907154083251953 42.1259765625000000
  3.5659877518191934 17.1709154844284058 42.0518341064453196
 12.8860349655151367  7.4837055206298819 41.4466819763183594
 12.7001346806064248 17.2063187360763550 42.2744102478027415
  7.5719585418701172  5.8698205947875977 40.3582344055175781
  7.6440033912658691 15.0894832611083984 40.5157928466796875
 16.6820683479309118  5.7808051109313956 40.5860557556152344
 16.5550614595413244 14.8020591735839844 40.9365234375000000
  5.9233760833740234  1.4337712526321411 40.4297294616699219
  5.8347744941711426 10.5997056961059553 40.5063514709472656
 14.9780445098876953  1.4286464452743530 40.4904251098632812
 15.3429269790649396 10.0700960159301758 40.6893844604492188
  0.1871372759342193  4.5442943572998047 39.4504928588867188
  0.7025922536849974 14.6751375198364258 40.2256088256836009
  9.0845203399658203  4.4638581275939941 39.3611297607421875
  8.9344301223754883 13.5781202316284180 39.3865127563476562
  4.4747695922851562  0.0228706859052181 39.3386230468750000
  4.6761670112609854  8.9225368499755859 39.4268531799316406
 13.5573343494907004 17.9901565238833427 39.5020790100097727
 13.0513553619384766 10.3037948608398438 40.4057350158691406
  8.1032123565673828  5.4420318603515616 48.0459518432617259
  8.1007528305053711 14.4734306335449219 48.0459518432617259
 17.1336116790771484  5.4420318603515616 48.0459518432617259
 17.1311531066894531 14.4734306335449219 48.0459518432617259
  5.4410333633422852  0.9265221953392029 48.0449485778808594
  5.4385743141174316  9.9579219818115234 48.0449485778808594
 14.4714326858520490  0.9265221953392029 48.0449485778808594
 14.4689741134643555  9.9579219818115234 48.0449485778808594
  1.4218254089355467  3.0919990539550781 46.4558296203613281
  1.4193661212921143 12.1233978271484375 46.4558296203613281
 10.4522256851196289  3.0919990539550781 46.4558296203613281
 10.4497661590576172 12.1233978271484375 46.4558296203613281
  3.0899283885955806  7.6075901985168457 46.4545211791992188
  3.0874691009521484 16.6389904022216797 46.4545211791992188
 12.1203289031982422  7.6075901985168457 46.4545211791992188
 12.1178693771362305 16.6389904022216797 46.4545211791992188
  0.9247469902038573  3.5893490314483643 48.0459518432617259
  0.9222877025604248 12.6207475662231445 48.0459518432617259
  9.9551477432250977  3.5893490314483643 48.0459518432617259
  9.9526882171630859 12.6207475662231445 48.0459518432617259
  3.5868983268737793  8.1048498153686523 48.0448913574218821
  3.5844390392303462 17.1362495422363281 48.0448913574218821
 12.6172990798950195  8.1048498153686523 48.0448913574218821
 12.6148395538330078 17.1362495422363281 48.0448913574218821
  7.6061611175537109  5.9393639564514160 46.4558296203613281
  7.6037015914916992 14.9707632064819336 46.4558296203613281
 16.6365604400634766  5.9393639564514160 46.4558296203613281
 16.6341018676757812 14.9707632064819336 46.4558296203613281
  5.9380125999450684  1.4238001108169553 46.4545211791992188
  5.9355530738830566 10.4551992416381836 46.4545211791992188
 14.9684123992919904  1.4238001108169553 46.4545211791992188
 14.9659538269042951 10.4551992416381836 46.4545211791992188
 -0.0011664569610730  4.5157265663146973 45.3548011779785156
 -0.0036257810425013 13.5471258163452148 45.3548011779785156
  9.0292339324951172  4.5157265663146973 45.3548011779785156
  9.0267744064331037 13.5471258163452148 45.3548011779785156
  4.5152091979980469  0.0000000000000000 45.3536758422851562
  4.5127501487731934  9.0313997268676740 45.3536758422851562
 13.5456094741821289  0.0000000000000000 45.3536758422851562
 13.5431499481201172  9.0313997268676740 45.3536758422851562
 13.0051927566528320  8.0248165130615234 33.6876296997070384
 13.3862218856811523  8.9601306915283203 32.2480621337890625
 11.9724988937377930  9.9818553924560547 34.7594451904296875
 12.8149394989013672 11.5370950698852539 34.6749229431152415
 15.4060106277465820  9.1955938339233398 35.4442787170410156
 14.3214874267578107 10.4579315185546875 36.0462608337402344
 15.8560800552368164 10.1069965362548828 33.1713066101074219
 14.5987062454223615 11.1994352340698242 32.5448760986328125
 15.7641658782958967  8.3290100097656250 32.3459815979003906
 15.5729045867919904  7.6824941635131836 33.9709396362304759
 15.7628040313720703  5.8839797973632812 32.4026260375976562
 14.1597299575805646  5.8497276306152344 33.1124801635742259
 11.5290651321411133  9.9710464477539062 32.3547439575195384
 12.5471162796020508 11.4251451492309570 32.0927352905273438
 11.0572471618652344 11.5286369323730469 33.0339164733886719
 13.7806987762451172  8.4257421493530273 37.1921501159667969
 13.6281108856201154  7.4646921157836914 35.7221679687500000
 12.4126806259155273  8.7176599502563477 36.1131477355957031
 14.7841749191284162 12.4958162307739258 34.7999687194824219
 16.1947307586669922 12.5134401321411133 33.7340621948242188
 16.2102260589599609 11.4513731002807599 35.1516342163085938
 14.8110427856445312  6.8754911422729492 30.2969017028808594
 14.2051486968994141  5.2718954086303702 30.7029666900634801
 11.9596529006957990  5.4710845947265625 32.3752632141113281
 13.2302474975585938  8.3283977508544922 29.4148654937744176
  9.6620788574218750  6.3995647430419922 32.2901763916015625
 10.9211006164550781  9.2399816513061523 29.2971458435058594
  9.1324491500854474  8.3102464675903320 30.7718067169189489
 17.9739418029785156  4.3545498847961426 34.6292343139648438
  0.5944290161132827 13.9003915786743164 35.2320518493652344
  8.4287490844726562  4.1106548309326172 34.8036193847656250
  9.0646467208862305 13.6770124435424805 34.6995201110839915
  4.2298235893249512  9.6414375305175781 34.9527206420898438
  4.7753042438998818 17.9226649254560471 34.8173675537109375
 14.0611156681552529 17.7604205906391144 35.1512565612792969
  0.0923773199319839  4.4211316108703613 40.5296821594238352
  0.2831397056579590 13.8623561859130859 40.8315582275390696
  9.0254354476928711  4.4812903404235840 40.4499778747558665
  8.9687948226928711 13.5843391418457031 40.4720191955566406
  4.6072969436645508  8.9998474121093750 40.5122528076171875
  4.4932003021240234  0.0274635702371597 40.4311027526855469
 13.4454336166381818  9.3748149871826154 40.8163414001464844
 13.5814832905307394 18.0542691722512245 40.5927124023437500
  9.0289716720581055  4.5156092643737793 46.4455223083496165
  9.0265130996704102 13.5470085144042969 46.4455223083496165
 18.0593719482421875  4.5156092643737793 46.4455223083496165
 18.0569133758544922 13.5470085144042969 46.4455223083496165
  4.5152091979980469  0.0000180629995157 46.4442062377929759
  4.5127501487731934  9.0314178466796857 46.4442062377929759
 13.5456094741821289  0.0000180629995157 46.4442062377929759
 13.5431499481201172  9.0314178466796857 46.4442062377929759
 12.7627611160278320  6.8440065383911133 30.9105033874511754
 11.7324647903442383  6.3017749786376953 31.7031097412109375
 12.4456148147583008  7.8969898223876953 30.0435523986816442
 10.4404592514038086  6.8190841674804679 31.6512680053710902
 11.1381063461303711  8.4136352539062500 29.9827785491943359
 10.1414232254028303  7.8859672546386719 30.7919406890869176
 13.7882375717163086  8.6223859786987305 33.2027435302734446
 12.6181039810180664 10.6030950546264648 34.1341400146484375
 14.3546247482299805  9.5165195465087873 35.4844474792480540
 15.0324907302856445 10.7708911895751953 33.4583587646484375
 15.0548477172851562  7.8062934875488281 33.0054321289062500
 14.7965879440307617  6.4148778915405273 32.4213256835937500
 11.9241533279418945 10.8842315673828107 32.8152961730957031
 13.4820890426635742  8.4707345962524414 36.1394309997558665
 15.5690383911132812 11.8636789321899414 34.3638763427734375
 14.1810474395751953  6.3306875228881836 31.0121669769287109
  1.0450897216796906  4.6787075996398926 35.2161369323730469
  0.5374832153320335 12.8118944168090820 35.9561614990234375
  9.6648006439208984  3.7948658466339111 35.0888404846191477
  8.7107915878295898 12.4970054626464844 35.1518630981445312
  7.9043297767639160  5.3142313957214355 34.8503227233886790
  8.5758256912231445 14.8081178665161133 35.1338424682617188
 16.7902622222900391  4.5488004684448242 35.1671524047851562
 17.6781272888183594 14.7802648544311523 35.1297798156738281
  4.1176810264587402  8.3993244171142578 35.3807334899902344
  3.5737617015838623  0.2003136128187180 35.1984138488769602
 12.8086675861850381 17.7985232174396515 35.5547981262207102
  5.8576545715332031  0.5704265832901001 35.0775871276855540
  5.3595781326293945 10.2573671340942365 34.6904335021972727
 14.8798179626464844  0.7233470082283019 35.1075630187988352
  0.8958135843276978  3.5543007850646973 41.0970764160156250
  1.0469150543212891 12.8294143676757795 41.0983810424804688
  9.8328075408935547  3.6923305988311768 41.1208763122558594
  9.7561950683593750 12.7051963806152344 41.0472106933593750
  3.8438432216644283  8.1204557418823242 41.1141662597656250
  3.6512982109561558 17.2703686952590942 41.0343284606933594
 12.6023769378662109  8.4092559814453125 41.1029815673828196
 12.7843498447909951 17.2407281994819641 41.2521476745605469
  8.1549406051635742  5.3083324432373047 40.9754028320312500
  8.2143983840942383 14.4636201858520508 41.0845108032226634
 17.2566463351249695  5.1573810577392569 41.1481170654296875
 17.0943899154663086 13.9888019561767578 41.2168426513671946
  5.3320455551147461  0.8446569442749023 41.0117263793945312
  5.2924337387084961  9.9533576965332013 41.0930213928222656
 14.3980913162231445  0.8695396184921265 41.1216392517089844
 14.7498207092285156  9.2946920394897461 40.9748802185058594
  0.8273094892501831  3.6869695186614990 47.0359649658203125
  0.8248501420021057 12.7183685302734375 47.0359649658203125
  9.8577098846435547  3.6869695186614990 47.0359649658203125
  9.8552503585815412 12.7183685302734375 47.0359649658203125
  3.6843190193176270  8.2023353576660156 47.0346527099609375
  3.6818594932556152 17.2337341308593750 47.0346527099609375
 12.7147188186645508  8.2023353576660156 47.0346527099609375
 12.7122592926025391 17.2337341308593750 47.0346527099609375
  8.2006769180297852  5.3445744514465332 47.0360260009765696
  8.1982173919677734 14.3759746551513672 47.0360260009765696
 17.2310771942138672  5.3445744514465332 47.0360260009765696
 17.2286186218261719 14.3759746551513672 47.0360260009765696
  5.3436489105224600  0.8290914893150328 47.0346527099609375
  5.3411893844604483  9.8604917526245117 47.0346527099609375
 14.3740482330322266  0.8290914893150328 47.0346527099609375
 14.3715896606445312  9.8604917526245117 47.0346527099609375
 13.9503307342529297  9.8716859817504883 34.0564346313476562
  9.3474464416503906  0.2032740414142609 34.5742454528808665
  8.8284444808959961  8.9513921737670898 34.5408287048339844
  0.1854727119207382  0.1349568963050842 34.3741073608398438
  0.4477399289608002  9.0347461700439435 34.6385765075683594
  4.5339112281799316  4.2467660903930664 34.5464439392089844
  4.5869021415710449 13.7560262680053711 34.5053024291992259
 13.2742996215820312  3.8353900909423828 34.7315521240234375
 12.6280317306518555 14.3861637115478516 34.7000885009765696
 18.0354640232399142 17.8513573557138443 40.8469467163085938
  0.2294266223907471  9.0071907043457031 40.9560050964355469
  8.9431877136230469  0.0723444819450378 40.9392776489257812
  9.0331602096557617  8.9344263076782227 40.8866119384765625
  4.5566692352294922  4.4482154846191406 40.9108581542968750
  4.5841555595397949 13.6383047103881836 40.8857765197753906
 13.4953222274780256  4.8598785400390625 40.9353942871093750
 13.4938297271728516 13.3740892410278320 40.9000930786132884
  2.3399946689605713  2.2139108180999756 37.9457130432128906
  2.7382910251617432 10.9747343063354492 37.9740295410156250
 11.5441455841064453  2.0621256828308105 38.2108078002929688
 11.4094743728637695 11.1691122055053711 37.9236183166503906
  6.5154161453247070  7.0353393554687500 37.8447647094726634
  6.6673126220703116 16.0140972137451172 37.9504165649414062
 16.0422840118408203  6.6466493606567383 37.9789237976074219
 15.6614179611206055 15.9419231414794922 37.8743057250976562
  2.1967983245849609  6.5999088287353516 38.0571022033691477
  2.2242603302001953 15.8103952407836914 37.9130325317382812
 10.7644624710082990  6.2761583328247070 37.5832443237304688
 11.1410455703735352 15.6614866256713867 38.4032402038574219
  7.0010371208190918  2.4201383590698242 37.9485168457031250
  6.9672260284423828 11.4869556427001953 38.0839233398437500
 15.9648027420043945  2.4724135398864746 38.1857604980468750
 16.1750030517578125 11.5565013885498047 38.3268089294433594
  0.0000000000000000  0.0000000000000000 47.1735610961914062
 -0.0024593239650130  9.0313997268676740 47.1735610961914062
  9.0304002761840803  0.0000000000000000 47.1735610961914062
  9.0279407501220685  9.0313997268676740 47.1735610961914062
  4.5139794349670410  4.5156998634338379 47.1742515563964844
  4.5115203857421875 13.5470991134643537 47.1742515563964844
 13.5443792343139648  4.5156998634338379 47.1742515563964844
 13.5419197082519531 13.5470991134643537 47.1742515563964844
  2.4519233703613277  2.0629522800445557 44.0401268005371165
  2.4494640827178955 11.0943517684936523 44.0401268005371165
 11.4823226928710920  2.0629522800445557 44.0401268005371165
 11.4798641204833984 11.0943517684936523 44.0401268005371165
  6.5760178565979004  6.9684472084045410 44.0401268005371165
  6.5735583305358887 15.9998464584350586 44.0401268005371165
 15.6064186096191406  6.9684472084045410 44.0401268005371165
 15.6039590835571289 15.9998464584350586 44.0401268005371165
  2.0610768795013428  6.5788145065307617 44.0400009155273509
  2.0586175918579102 15.6102142333984375 44.0400009155273509
 11.0914773941040039  6.5788145065307617 44.0400009155273509
 11.0890178680419922 15.6102142333984375 44.0400009155273509
  6.9668641090393066  2.4525938034057613 44.0400657653808665
  6.9644045829772949 11.4839935302734375 44.0400657653808665
 15.9972639083862305  2.4525938034057613 44.0400657653808665
 15.9948053359985352 11.4839935302734375 44.0400657653808665
  2.4316265583038330  2.0832188129425049 50.0684852600097656
  2.4291670322418213 11.1146183013915998 50.0684852600097656
 11.4620265960693359  2.0832188129425049 50.0684852600097656
 11.4595670700073224 11.1146183013915998 50.0684852600097656
  6.5963144302368164  6.9481806755065918 50.0684852600097656
  6.5938549041748047 15.9795799255371076 50.0684852600097656
 15.6267137527465803  6.9481806755065918 50.0684852600097656
 15.6242542266845703 15.9795799255371076 50.0684852600097656
  2.0811281204223633  6.5990090370178223 50.0690460205078125
  2.0786688327789307 15.6304082870483398 50.0690460205078125
 11.1115283966064453  6.5990090370178223 50.0690460205078125
 11.1090688705444336 15.6304082870483398 50.0690460205078125
  6.9468131065368652  2.4323906898498531 50.0690460205078125
  6.9443535804748535 11.4637899398803711 50.0690460205078125
 15.9772129058837891  2.4323906898498531 50.0690460205078125
 15.9747543334960938 11.4637899398803711 50.0690460205078125
 18.0185740627348459  0.0698564052581787 37.7297744750976562
  0.1029720231890678  9.1064767837524414 37.7528953552246094
  9.1133871078491211  0.0183886252343655 37.8342475891113281
  9.0655136108398438  9.0070886611938477 37.7222137451171946
  4.5834369659423828  4.4927878379821777 37.7557601928710938
  4.5371236801147461 13.6012706756591797 37.6832160949707031
 13.4822549819946289  4.5348505973815918 37.8135452270507812
 13.4285602569580078 13.6562461853027344 37.7432556152343750
  0.0000090280000222  0.0000090310004452 44.0429992675781250
 -0.0024502959568053  9.0314083099365234 44.0429992675781250
  9.0304088592529297  0.0000090310004452 44.0429992675781250
  9.0279493331909180  9.0314083099365234 44.0429992675781250
  4.5139703750610352  4.5156903266906738 44.0427513122558594
  4.5115113258361816 13.5470905303955078 44.0427513122558594
 13.5443706512451172  4.5156903266906738 44.0427513122558594
 13.5419111251831037 13.5470905303955078 44.0427513122558594
  0.0000000000000000  0.0000000000000000 50.4472808837890696
 -0.0024593239650130  9.0313997268676740 50.4472808837890696
  9.0304002761840803  0.0000000000000000 50.4472808837890696
  9.0279407501220685  9.0313997268676740 50.4472808837890696
  4.5139703750610352  4.5156998634338379 50.4472808837890696
  4.5115113258361816 13.5470991134643537 50.4472808837890696
 13.5443706512451172  4.5156998634338379 50.4472808837890696
 13.5419111251831055 13.5470991134643537 50.4472808837890696
