 H  C  N  I Pb 
 1.0000000000000000
    18.0608005523681641    0.0000000000000000    0.0000000000000000
    -0.0049186488613486   18.0627994537353516    0.0000000000000000
     0.0000000000000000    0.0000000000000000   62.4874992370605469
 H   C   N   I   Pb 
 143  39  47  72  24
Cartesian
  7.8934206962585440  5.5634193420410156 35.8284835815429759
  7.7728452682495117 15.0960235595703125 35.8312492370605469
 17.7425231933593750  5.7103528976440430 36.3984260559082102
 17.4221439361572266 14.5926256179809570 36.3176422119140625
  5.6646427372470498 17.4239439368247986 36.0019454956054688
  5.8228659629821777 10.1570549011230469 35.9860534667968750
 14.3665552139282227  1.2757908105850220 36.3027610778808594
  0.6665401458740268  2.4723417758941650 35.0943031311035227
  1.0448875427246080 11.5845613479614258 35.0822906494140625
 10.4591140747070312  3.3267736434936523 34.5403938293457031
  9.5857286453247070 12.0001697540283185 35.2514762878417969
  6.3758130073547354  0.4782988131046295 34.8695793151855469
  5.0837883949279785 11.2472124099731445 34.8301963806152344
 15.6529312133789045  0.7504064440727234 35.2546043395996094
  0.1796989440918005  3.2546992301940918 36.5778846740722656
  0.2469768524169936 12.2583389282226545 36.4838867187500000
 10.1673784255981428  4.6424169540405265 35.6605644226074219
  8.3558082580566406 12.6738357543945312 36.2675895690917969
  4.9222793579101554  7.8526639938354492 36.1066169738769531
  3.1961216190829869 17.0340009927749634 35.8652229309082031
 12.2381572723388672  0.1061753854155540 36.1937065124511719
  6.6639022827148429  4.7707042694091797 34.8801231384277344
  8.7713851928710938 15.9197044372558594 34.6542243957519531
  0.2319107055664076  6.5003314018249512 34.9379119873046946
 17.8052806854248047 15.4607915878295881 34.8861312866210938
  3.4915025234222412  7.5203223228454590 35.1283073425292969
  2.3233224609866738 17.9915425926446915 34.7032661437988281
 12.1855262974277139 16.7375071048736572 35.1490707397460938
  8.1878223419189453  3.2889084815979004 33.8845329284667969
 10.0083322525024414 14.0056610107421857 34.1537742614746094
  0.7671642303466807  4.4753022193908691 33.8816986083984375
  0.8157176971435529 13.5926513671875000 33.8889389038086009
  3.5200545787811275  9.6327018737792969 34.1464538574218750
  4.2686867713928223  1.0051100254058838 33.9263420104980469
 14.3246788242831826 17.0341825485229492 34.3980331420898438
  8.4687843322753906  5.7864398956298819 42.0665550231933594
  7.8120918273925772 14.7924289703369123 41.9520912170410156
 17.5398028492927587  4.9891901016235343 42.6226577758789062
 16.6336292028427124 13.9096736907958984 42.0594024658203125
  5.3837809562683105  0.9931735396385193 42.1565170288085938
  5.5579786300659180  9.8300657272338867 42.1636466979980469
 14.2461252212524414  1.1606936454772947 42.1924514770507812
 14.3656425476074219 10.6705579757690430 41.7556190490722656
  1.5549552440643311  3.0343010425567627 40.2927856445312500
  1.8075231313705442 12.6269130706787109 40.9762763977050781
 10.4045925140380859  2.9838929176330566 40.7311553955078125
 10.3438720703124982 12.2466773986816406 41.0739479064941406
  3.2605340480804439  7.4278693199157715 40.6151161193847656
  3.1498791435733438 16.5939409732818604 40.5755271911621094
 12.6947765350341797  7.4166121482849121 41.2799568176269531
 12.1909460285678506 16.6286638975143468 40.5819168090820312
  1.2543020248413086  3.2418985366821289 41.9992980957031250
  0.6731204390525817 12.4370727539062500 42.2596168518066406
 10.4848814010620117  4.2344799041748047 41.9452209472656321
  9.5658683776855469 12.9521541595458967 42.4951362609863281
  3.8298163414001465  7.8549251556396475 42.1772766113281250
  3.5531045654788613 17.1478607058525085 42.1457862854003906
 12.6425704956054688  8.8088521957397461 42.3411140441894531
 12.4309391239657998 17.3381443023681641 42.1440658569335938
  7.2102727890014648  5.3921065330505371 40.9424057006835938
  7.6232957839965811 15.0878267288208008 40.2421722412109375
 16.8341333866119420  5.7901539802551270 41.2319450378418040
 16.5886338949203491 14.9276046752929688 40.6488075256347656
  5.9136052131652832  1.4250199794769285 40.5671005249023509
  5.8481273651123047 10.4824457168579102 40.5905342102050781
 14.9891614913940430  1.4319632053375244 40.6534690856933665
 15.2258605957031250 10.4374084472656232 40.2677383422851562
  0.0220284610986710  4.6235284805297852 39.6995658874511719
  0.5805305242538452 14.1669950485229492 39.8556900024414134
  8.3094205856323242  3.6265666484832759 40.0023002624511790
  9.1917591094970703 13.5315408706665039 39.5894699096679688
  4.5813674191012970 18.0042077042162418 39.4619102478027344
  4.4805679321289062  9.0422077178955078 39.4971961975097656
 13.7571787098422629 17.8891661763191223 39.5344009399414062
 14.2878112792968732  8.3317413330078125 39.8832550048828125
  8.1032123565673828  5.4420318603515616 48.0459518432617259
  8.1007528305053711 14.4734306335449219 48.0459518432617259
 17.1336116790771484  5.4420318603515616 48.0459518432617259
 17.1311531066894531 14.4734306335449219 48.0459518432617259
  5.4410333633422852  0.9265221953392029 48.0449485778808594
  5.4385743141174316  9.9579219818115234 48.0449485778808594
 14.4714326858520490  0.9265221953392029 48.0449485778808594
 14.4689741134643555  9.9579219818115234 48.0449485778808594
  1.4218254089355467  3.0919990539550781 46.4558296203613281
  1.4193661212921143 12.1233978271484375 46.4558296203613281
 10.4522256851196289  3.0919990539550781 46.4558296203613281
 10.4497661590576172 12.1233978271484375 46.4558296203613281
  3.0899283885955806  7.6075901985168457 46.4545211791992188
  3.0874691009521484 16.6389904022216797 46.4545211791992188
 12.1203289031982422  7.6075901985168457 46.4545211791992188
 12.1178693771362305 16.6389904022216797 46.4545211791992188
  0.9247469902038573  3.5893490314483643 48.0459518432617259
  0.9222877025604248 12.6207475662231445 48.0459518432617259
  9.9551477432250977  3.5893490314483643 48.0459518432617259
  9.9526882171630859 12.6207475662231445 48.0459518432617259
  3.5868983268737793  8.1048498153686523 48.0448913574218821
  3.5844390392303462 17.1362495422363281 48.0448913574218821
 12.6172990798950195  8.1048498153686523 48.0448913574218821
 12.6148395538330078 17.1362495422363281 48.0448913574218821
  7.6061611175537109  5.9393639564514160 46.4558296203613281
  7.6037015914916992 14.9707632064819336 46.4558296203613281
 16.6365604400634766  5.9393639564514160 46.4558296203613281
 16.6341018676757812 14.9707632064819336 46.4558296203613281
  5.9380125999450684  1.4238001108169553 46.4545211791992188
  5.9355530738830566 10.4551992416381836 46.4545211791992188
 14.9684123992919904  1.4238001108169553 46.4545211791992188
 14.9659538269042951 10.4551992416381836 46.4545211791992188
 -0.0011664569610730  4.5157265663146973 45.3548011779785156
 -0.0036257810425013 13.5471258163452148 45.3548011779785156
  9.0292339324951172  4.5157265663146973 45.3548011779785156
  9.0267744064331037 13.5471258163452148 45.3548011779785156
  4.5152091979980469  0.0000000000000000 45.3536758422851562
  4.5127501487731934  9.0313997268676740 45.3536758422851562
 13.5456094741821289  0.0000000000000000 45.3536758422851562
 13.5431499481201172  9.0313997268676740 45.3536758422851562
 13.9967002868652344 10.0207433700561523 32.5918006896972656
 13.0230903625488281  8.5501708984375000 32.9240531921386790
 15.7606306076049805  9.0393962860107404 33.9349479675293040
 15.4458484649658203  8.6117553710937500 35.6220207214355469
 13.4036531448364258 11.5254659652709961 35.0072059631347656
 14.4919166564941388 10.7608051300048810 36.2045249938964844
 12.0339117050170898  9.8566217422485352 35.6895446777343750
 12.2370090484619141  8.1875019073486328 35.0536918640136719
 11.0813798904418945  9.9272508621215820 33.6484985351562500
 12.0465698242187482 11.4197416305541992 33.6373062133789062
 10.9551181793212873 11.6857452392578107 31.6528930664062536
 12.4045019149780273 10.8905210494995117 31.0556755065917969
 14.8034858703613281  6.9834694862365723 33.1276473999023438
 13.8298120498657227  6.7681341171264648 34.5767211914062500
 15.5506887435913068  6.5371956825256339 34.6695404052734375
 15.5990562438964844 12.4780912399291992 34.8380165100097656
 15.3180141448974609 11.6239480972290039 33.3456230163574219
 16.3916740417480469 10.9364252090454102 34.5949859619140625
 13.6692667007446271  9.4031324386596680 37.5470085144042969
 13.9721841812133789  7.7532081604003906 36.8856010437011719
 12.3652887344360352  8.1764488220214844 37.5014228820800781
  9.6567888259887695  9.6226902008056641 31.6076641082763672
 10.3986377716064435  9.9778537750244141 30.0257625579834020
 12.5586776733398438  8.6925363540649414 29.3788547515869141
 10.1237716674804688  7.5602607727050781 32.7196121215820384
 13.7811746597290039  6.5208067893981934 29.5252342224121094
 11.3162946701049805  5.4116144180297852 32.8922576904296946
 13.1493978500366193  4.8845582008361816 31.3169612884521520
  0.3969287872314432  4.4706873893737793 34.9086799621582102
  0.3996086120605483 13.5269393920898438 34.8733139038085938
  8.5081567764282227  4.0224494934082031 34.6104431152343821
  9.2031126022338849 13.9540023803710920 34.8897209167480469
  4.2786231040954590  9.3841352462768555 34.9060249328613281
  4.3470621109008789  0.2511519193649292 34.7251396179199219
 13.9123558262363076 17.7329755127429962 35.1427764892578125
  0.1544382721185684  4.4197626113891602 40.7387199401855469
  0.1671077311038971 13.7885951995849592 40.7792434692382812
  8.7946615219116211  4.1860694885253906 40.7926979064941406
  8.9854116439819336 13.6688280105590820 40.6296653747558665
  4.5418944358825675  8.9440917968750000 40.5664253234863281
  4.5387138584628701 18.0517189893871546 40.5388488769531321
 13.9533557891845703  8.9158344268798828 40.7425613403320384
 13.6126785278320312  0.0058795586228371 40.5886650085449219
  9.0289716720581055  4.5156092643737793 46.4455223083496165
  9.0265130996704102 13.5470085144042969 46.4455223083496165
 18.0593719482421875  4.5156092643737793 46.4455223083496165
 18.0569133758544922 13.5470085144042969 46.4455223083496165
  4.5152091979980469  0.0000180629995157 46.4442062377929759
  4.5127501487731934  9.0314178466796857 46.4442062377929759
 13.5456094741821289  0.0000180629995157 46.4442062377929759
 13.5431499481201172  9.0314178466796857 46.4442062377929759
 11.2662210464477521  8.2856388092041016 31.0706062316894531
 12.2983789443969709  7.9625129699707031 30.1797485351562500
 10.9234609603881836  7.3327894210815430 32.0258941650390625
 12.9614458084106445  6.7526168823242188 30.2423801422119141
 11.5803661346435547  6.1255664825439453 32.1138343811035156
 12.6129865646362305  5.8292913436889648 31.2265205383300817
 13.2114334106445312  9.5941247940063477 33.2274703979492188
 15.0237207412719727  8.5849037170410156 34.6088714599609375
 14.2735700607299805 10.8668746948242188 35.1311607360839844
 12.7255020141601562  9.0078639984130859 35.5961799621582031
 11.9168100357055646 10.4304351806640625 33.1274185180664062
 11.5088529586791992 10.7266921997070312 31.6777381896972656
 14.7663297653198242  7.1494283676147461 34.2066459655761719
 15.4569654464721680 11.4768533706665039 34.4260635375976562
 13.2364320755004883  8.5734310150146484 36.9625091552734375
 10.6215362548828125  9.6473131179809570 31.0538139343261719
  0.4134120941162133  3.3394484519958496 35.5673561096191406
  0.5963668823242181 12.4080495834350586 35.5195198059082102
  9.7861051559448224  4.0039210319519043 34.9336280822753906
  9.0471944808959961 12.8160400390625000 35.5224342346191406
  7.6557173728942871  4.8805294036865234 35.0784416198730540
  8.5104732513427734 15.0318298339843732 35.0937767028808594
 18.0509090423583984  5.6154780387878418 35.4078216552734375
 17.7826137542724609 14.5495271682739258 35.3578491210937500
  4.2460622787475586  8.1610279083251953 35.4117279052734375
  3.2378586987033486 17.7001169621944427 35.1050338745117259
 12.6669935444369894 17.5955091416835785 35.4790115356445312
  5.5116591453552246  0.0438382811844349 35.2610549926757812
  5.1211538314819336 10.2969913482666016 35.2742004394531250
 14.7021160125732404  0.6036736369132996 35.6423759460449219
  1.0537648200988770  3.4900679588317867 41.0472106933593750
  0.9302341938018799 12.8755750656127930 41.3934135437011790
  9.9867124557495117  3.7702095508575435 41.1859283447265625
  9.6660928726196289 12.9182758331298828 41.4675712585449219
  3.8440108299255371  8.0232181549072266 41.1574935913086009
  3.6967422226443887 17.2217663526535034 41.1305313110351562
 13.0436000823974592  8.3693532943725586 41.5124015808105469
 12.6888698795810342 17.2984774112701416 41.1460609436035156
  8.1400070190429688  5.1816825866699219 41.2869949340820312
  8.0887117385864258 14.5613126754760742 40.9761199951171875
 17.4939219355583191  5.0927700996398917 41.5921669006347656
 17.0700781345367432 14.2174692153930646 41.1996955871582031
  5.3132276535034180  0.8381712436676025 41.1256332397461009
  5.3614802360534668  9.8072042465209961 41.1511154174804759
 14.3104276657104492  0.9089326858520508 41.1856994628906250
 14.5041007995605469 10.0731735229492188 40.9506187438964844
  0.8273094892501831  3.6869695186614990 47.0359649658203125
  0.8248501420021057 12.7183685302734375 47.0359649658203125
  9.8577098846435547  3.6869695186614990 47.0359649658203125
  9.8552503585815412 12.7183685302734375 47.0359649658203125
  3.6843190193176270  8.2023353576660156 47.0346527099609375
  3.6818594932556152 17.2337341308593750 47.0346527099609375
 12.7147188186645508  8.2023353576660156 47.0346527099609375
 12.7122592926025391 17.2337341308593750 47.0346527099609375
  8.2006769180297852  5.3445744514465332 47.0360260009765696
  8.1982173919677734 14.3759746551513672 47.0360260009765696
 17.2310771942138672  5.3445744514465332 47.0360260009765696
 17.2286186218261719 14.3759746551513672 47.0360260009765696
  5.3436489105224600  0.8290914893150328 47.0346527099609375
  5.3411893844604483  9.8604917526245117 47.0346527099609375
 14.3740482330322266  0.8290914893150328 47.0346527099609375
 14.3715896606445312  9.8604917526245117 47.0346527099609375
 13.8231410980224592  9.5132789611816388 34.6250000000000000
  9.1096572875976562  0.3958683907985687 34.5449714660644531
  8.5146379470825195  9.1700754165649414 34.7724952697753906
 17.8445227602496779 18.0136714279651642 34.3649444580078196
  0.6798814535140991  8.9254179000854492 34.5636596679687500
  4.1593432426452637  4.2173757553100586 34.5642929077148438
  4.6690974235534668 13.7348356246948242 34.5585174560546875
 13.3958635330200178  3.7421340942382808 34.6937828063964844
 12.8614683151245117 14.2569065093994141 34.2548904418945312
  0.0252713756635785 17.8987994343042374 40.9107208251953125
  0.2146806120872497  8.9671344757080078 40.9796066284179759
  9.0059490203857422  0.1554675847291946 40.9133720397949290
  9.1210069656372070  8.9115839004516602 40.9622611999511790
  4.6018114089965820  4.4287824630737305 40.9306983947753906
  4.4552011489868164 13.5982437133789062 40.9092903137207031
 13.4451723098754883  4.8018255233764648 40.9179534912109375
 13.5714340209960938 13.5975694656372070 40.8540611267089844
  2.5112798213958740  1.8797156810760498 38.1190795898437500
  2.6534149646759033 10.9513053894042969 38.1104011535644531
 11.7214183807373029  1.8466759920120239 38.2144622802734375
 11.1459341049194336 11.4996547698974609 38.3944587707519531
  6.4432005882263184  7.0495414733886719 38.0702209472656250
  6.5578751564025879 16.0796661376953125 37.9899024963378906
 16.1309509277343750  6.5467791557312012 38.3730010986328196
 15.6650018692016602 15.8715829849243164 38.0942726135253906
  2.1417355537414551  6.4596571922302237 38.1862602233886719
  2.1649360656738281 15.6880645751953125 37.9790534973144531
 10.4520282745361328  5.9405136108398438 37.7972068786621094
 11.1033239364624023 15.6728496551513672 38.2237739562988281
  6.9317555427551270  2.3814935684204102 37.8908653259277344
  7.0112338066101074 11.5522460937500000 38.1995658874511790
 16.0672130584716797  2.5121576786041255 38.3114280700683594
 16.4668025970458984 11.6636142730712891 38.4259796142578125
  0.0000000000000000  0.0000000000000000 47.1735610961914062
 -0.0024593239650130  9.0313997268676740 47.1735610961914062
  9.0304002761840803  0.0000000000000000 47.1735610961914062
  9.0279407501220685  9.0313997268676740 47.1735610961914062
  4.5139794349670410  4.5156998634338379 47.1742515563964844
  4.5115203857421875 13.5470991134643537 47.1742515563964844
 13.5443792343139648  4.5156998634338379 47.1742515563964844
 13.5419197082519531 13.5470991134643537 47.1742515563964844
  2.4519233703613277  2.0629522800445557 44.0401268005371165
  2.4494640827178955 11.0943517684936523 44.0401268005371165
 11.4823226928710920  2.0629522800445557 44.0401268005371165
 11.4798641204833984 11.0943517684936523 44.0401268005371165
  6.5760178565979004  6.9684472084045410 44.0401268005371165
  6.5735583305358887 15.9998464584350586 44.0401268005371165
 15.6064186096191406  6.9684472084045410 44.0401268005371165
 15.6039590835571289 15.9998464584350586 44.0401268005371165
  2.0610768795013428  6.5788145065307617 44.0400009155273509
  2.0586175918579102 15.6102142333984375 44.0400009155273509
 11.0914773941040039  6.5788145065307617 44.0400009155273509
 11.0890178680419922 15.6102142333984375 44.0400009155273509
  6.9668641090393066  2.4525938034057613 44.0400657653808665
  6.9644045829772949 11.4839935302734375 44.0400657653808665
 15.9972639083862305  2.4525938034057613 44.0400657653808665
 15.9948053359985352 11.4839935302734375 44.0400657653808665
  2.4316265583038330  2.0832188129425049 50.0684852600097656
  2.4291670322418213 11.1146183013915998 50.0684852600097656
 11.4620265960693359  2.0832188129425049 50.0684852600097656
 11.4595670700073224 11.1146183013915998 50.0684852600097656
  6.5963144302368164  6.9481806755065918 50.0684852600097656
  6.5938549041748047 15.9795799255371076 50.0684852600097656
 15.6267137527465803  6.9481806755065918 50.0684852600097656
 15.6242542266845703 15.9795799255371076 50.0684852600097656
  2.0811281204223633  6.5990090370178223 50.0690460205078125
  2.0786688327789307 15.6304082870483398 50.0690460205078125
 11.1115283966064453  6.5990090370178223 50.0690460205078125
 11.1090688705444336 15.6304082870483398 50.0690460205078125
  6.9468131065368652  2.4323906898498531 50.0690460205078125
  6.9443535804748535 11.4637899398803711 50.0690460205078125
 15.9772129058837891  2.4323906898498531 50.0690460205078125
 15.9747543334960938 11.4637899398803711 50.0690460205078125
 17.9258218565955758 18.0548055693507195 37.8552131652832031
  0.1373021304607391  9.0051498413085938 37.9142417907714844
  9.0846014022827148  0.1686066091060638 37.7546195983886719
  8.9699287414550781  8.9153242111206055 37.8346900939941406
  4.4246864318847656  4.3698711395263672 37.7149963378906321
  4.4774413108825684 13.4721870422363281 37.6810226440429688
 13.3831281661987305  4.4636340141296387 37.7028045654296875
 13.2842054367065430 13.6220140457153303 37.6508483886718821
  0.0000090280000222  0.0000090310004452 44.0429992675781250
 -0.0024502959568053  9.0314083099365234 44.0429992675781250
  9.0304088592529297  0.0000090310004452 44.0429992675781250
  9.0279493331909180  9.0314083099365234 44.0429992675781250
  4.5139703750610352  4.5156903266906738 44.0427513122558594
  4.5115113258361816 13.5470905303955078 44.0427513122558594
 13.5443706512451172  4.5156903266906738 44.0427513122558594
 13.5419111251831037 13.5470905303955078 44.0427513122558594
  0.0000000000000000  0.0000000000000000 50.4472808837890696
 -0.0024593239650130  9.0313997268676740 50.4472808837890696
  9.0304002761840803  0.0000000000000000 50.4472808837890696
  9.0279407501220685  9.0313997268676740 50.4472808837890696
  4.5139703750610352  4.5156998634338379 50.4472808837890696
  4.5115113258361816 13.5470991134643537 50.4472808837890696
 13.5443706512451172  4.5156998634338379 50.4472808837890696
 13.5419111251831055 13.5470991134643537 50.4472808837890696
