 H  C  N  I Pb 
 1.0000000000000000
    18.0608005523681641    0.0000000000000000    0.0000000000000000
    -0.0049186488613486   18.0627994537353516    0.0000000000000000
     0.0000000000000000    0.0000000000000000   62.4874992370605469
 H   C   N   I   Pb 
 143  39  47  72  24
Cartesian
  7.9796729087829590  5.4570899009704590 36.1744155883789062
  7.9599552154541016 14.8305149078369141 36.2636108398437571
 17.6070652008056641  5.5642051696777344 36.2118759155273438
 17.5247936248779297 14.5135097503662109 36.4140663146972727
  5.6733736991882324  0.2905630469322204 36.3646926879882812
  5.5002670288085929  9.9666576385498029 36.3100051879882812
 14.0117950439453125  1.1294271945953369 36.4457473754882812
  1.1906147003173806  2.5011913776397705 35.0992927551269531
  1.1022548675537098 11.7331619262695295 34.7653427124023438
 10.6919078826904297  3.4739460945129395 34.7271347045898438
 10.0826311111450195 12.0899543762207013 35.0401878356933665
  6.1463074684143066  1.0918283462524414 34.8645858764648438
  5.4933247566223145 10.8504867553710920 34.7945098876953125
 15.0404767990112305  1.3959425687789917 35.0481758117675781
  0.6402873992919896  3.3157820701599121 36.5587272644043040
  0.7006206512451160 12.3197450637817383 36.3674850463867259
 10.2754135131835938  4.4753370285034180 36.1162528991699219
  9.2050161361694336 12.5427703857421857 36.3897933959960938
  4.0630474090576172  7.9114332199096680 36.4085159301757812
  3.4617554405704141 17.1557073593139648 36.3658676147460938
 12.4236749866977334 17.2900698184967077 36.3410835266113352
  6.9486136436462402  5.0942349433898926 34.8269271850585938
  8.2217273712158203 15.7098245620727539 34.7988014221191406
 17.5341377258300781  6.1641721725463867 34.5946044921875000
 17.1529216766357422 15.2568731307983381 34.8673210144043040
  3.1677229404449463  7.5106873512268066 34.9506034851074290
  2.5150465229526162 17.2810746431350708 34.8917236328125000
 12.4469780186191201 16.3084559440612793 34.8546562194824219
  8.5744247436523438  3.7968287467956543 33.7307662963867188
  9.5844039916992188 14.0478677749633789 33.8505363464355469
  0.4787921905517576  4.1944832801818848 33.7181472778320312
  0.0956134796142587 13.4937734603881836 33.6669692993164062
  4.0024981498718262  9.3334798812866211 33.7895545959472656
  4.1689672470092773  0.4966760575771332 33.8023223876953125
 14.0974630573764443 17.6164075732231140 33.9034805297851562
  8.2444467544555664  5.5734205245971680 42.2164268493652344
  7.8879981040954581 14.6337127685546875 42.1320114135742259
 17.2738496065139771  5.2285518646240234 42.4238281250000000
 16.9674661159515416 14.4951829910278320 42.2441558837890625
  5.3761363029479980  0.9128879904747009 42.2127532958984375
  5.4096093177795410 10.0419692993164062 42.2421112060546875
 14.4894151687622053  0.9026557803153992 42.1541366577148438
 14.5167694091796875 10.3871746063232422 42.0396385192871094
  1.5004779100418091  3.0470538139343262 40.4771385192871165
  1.6209565401077271 12.4104413986206055 40.8959503173828125
 10.3104200363159180  2.9267544746398926 40.6758308410644531
 10.3227062225341779 12.1809215545654297 40.8553314208984446
  3.3121340274810791  7.4999008178710938 40.5811157226562500
  3.1006445148959751 16.5573929548263550 40.6089706420898438
 12.3323040008544922  7.5474920272827148 41.0634002685546946
 12.0163368443027139 16.7265563011169434 40.5863571166992188
  1.0933599472045898  3.4115633964538574 42.1126823425292969
  0.7798640727996826 12.6744232177734375 42.3751640319824219
 10.1633768081665039  3.7294731140136714 42.1889152526855540
  9.7320947647094727 12.7726659774780273 42.3841438293457102
  3.7858710289001465  7.9809155464172363 42.1826019287109375
  3.5361165264621377 17.1020151972770691 42.2111663818359446
 12.6866168975830078  8.4951820373535156 42.4873161315917969
 12.4969152668491006 17.2578696012496948 42.1768417358398438
  7.4103269577026367  5.7138528823852539 40.7137794494628906
  7.4974980354309082 15.0222387313842773 40.4980964660644531
 16.6728286743164062  5.8324928283691397 40.8937187194824219
 16.8026849031448364 15.1842546463012695 40.6768264770507812
  5.9171385765075684  1.3691326379776001 40.6367530822753906
  5.8144454956054679 10.6476249694824219 40.6569519042968821
 15.0864219665527344  1.2716240882873535 40.5683403015136719
 15.0757255554199201 10.4722595214843750 40.3746452331542969
 17.9984064698219299  4.5750069618225098 39.5987052917480540
  0.4538171887397766 14.0190219879150391 39.7359542846679688
  8.5859003067016602  4.0871462821960449 39.6147270202636719
  8.9772300720214844 13.5390729904174805 39.5742721557617188
  4.5655297497287393 17.9768215715885162 39.4993515014648438
  4.5434784889221183  9.1417264938354492 39.5009613037109375
 13.5964225986972451 17.9480325952172279 39.4576339721679759
 13.7428083419799805  8.6842117309570312 39.6921920776367188
  8.1032123565673828  5.4420318603515616 48.0459518432617259
  8.1007528305053711 14.4734306335449219 48.0459518432617259
 17.1336116790771484  5.4420318603515616 48.0459518432617259
 17.1311531066894531 14.4734306335449219 48.0459518432617259
  5.4410333633422852  0.9265221953392029 48.0449485778808594
  5.4385743141174316  9.9579219818115234 48.0449485778808594
 14.4714326858520490  0.9265221953392029 48.0449485778808594
 14.4689741134643555  9.9579219818115234 48.0449485778808594
  1.4218254089355467  3.0919990539550781 46.4558296203613281
  1.4193661212921143 12.1233978271484375 46.4558296203613281
 10.4522256851196289  3.0919990539550781 46.4558296203613281
 10.4497661590576172 12.1233978271484375 46.4558296203613281
  3.0899283885955806  7.6075901985168457 46.4545211791992188
  3.0874691009521484 16.6389904022216797 46.4545211791992188
 12.1203289031982422  7.6075901985168457 46.4545211791992188
 12.1178693771362305 16.6389904022216797 46.4545211791992188
  0.9247469902038573  3.5893490314483643 48.0459518432617259
  0.9222877025604248 12.6207475662231445 48.0459518432617259
  9.9551477432250977  3.5893490314483643 48.0459518432617259
  9.9526882171630859 12.6207475662231445 48.0459518432617259
  3.5868983268737793  8.1048498153686523 48.0448913574218821
  3.5844390392303462 17.1362495422363281 48.0448913574218821
 12.6172990798950195  8.1048498153686523 48.0448913574218821
 12.6148395538330078 17.1362495422363281 48.0448913574218821
  7.6061611175537109  5.9393639564514160 46.4558296203613281
  7.6037015914916992 14.9707632064819336 46.4558296203613281
 16.6365604400634766  5.9393639564514160 46.4558296203613281
 16.6341018676757812 14.9707632064819336 46.4558296203613281
  5.9380125999450684  1.4238001108169553 46.4545211791992188
  5.9355530738830566 10.4551992416381836 46.4545211791992188
 14.9684123992919904  1.4238001108169553 46.4545211791992188
 14.9659538269042951 10.4551992416381836 46.4545211791992188
 -0.0011664569610730  4.5157265663146973 45.3548011779785156
 -0.0036257810425013 13.5471258163452148 45.3548011779785156
  9.0292339324951172  4.5157265663146973 45.3548011779785156
  9.0267744064331037 13.5471258163452148 45.3548011779785156
  4.5152091979980469  0.0000000000000000 45.3536758422851562
  4.5127501487731934  9.0313997268676740 45.3536758422851562
 13.5456094741821289  0.0000000000000000 45.3536758422851562
 13.5431499481201172  9.0313997268676740 45.3536758422851562
 14.0876054763793945 10.1168098449707031 32.8391838073730469
 13.1166648864746094  8.6321697235107422 33.0038032531738281
 15.6722002029418928  9.1551208496093750 34.2371559143066477
 15.3518667221069336  8.7308340072631836 35.9096336364746165
 13.3476181030273438 11.5952844619750977 35.3897590637207031
 14.3677673339843750 10.6735754013061523 36.4873046875000000
 11.7729749679565430  9.6804246902465820 35.7267456054687571
 12.1157369613647461  8.0941667556762695 35.0897369384765625
 11.1237916946411133  9.8746051788330078 33.6920738220214844
 12.0944747924804688 11.3530759811401367 33.9378509521484375
 11.1388130187988281 11.8410768508911133 31.8521709442138672
 12.5910320281982422 10.9714994430541992 31.3028812408447266
 14.9670753479003906  7.0527963638305664 33.3860702514648509
 13.7039957046508789  6.9336414337158203 34.5558853149414134
 15.3122987747192365  6.4907069206237793 35.0528450012207031
 15.4183511734008771 12.4867095947265625 34.9482040405273438
 15.3521184921264648 11.3911991119384766 33.6164741516113281
 16.2966556549072266 10.9207687377929688 35.0455551147460938
 13.7376470565795898  9.1568889617919904 37.4757690429687500
 13.4145622253417969  7.5064573287963867 37.0007209777832102
 12.1361961364746094  8.5057678222656250 37.6834144592285156
  9.7746372222900391  9.7029399871826172 31.7883853912353516
 10.4576301574707031 10.1290922164916992 30.1956062316894567
 12.9895973205566406  9.0024242401123047 29.8013668060302734
  9.9407224655151367  7.5327138900756836 32.5183792114257812
 14.1410808563232422  6.7937660217285156 29.9275932312011754
 11.1723508834838867  5.3337426185607910 32.6576194763183594
 13.2755632400512695  4.9534311294555664 31.4058322906494176
  0.3273220062255889  4.2975172996520996 34.7942581176757812
  0.0840492248535180 13.4944820404052734 34.7462425231933665
  8.7934789657592773  4.2812142372131348 34.6759262084960938
  9.1585683822631818 13.9077177047729492 34.8384246826171875
  4.3369765281677246  9.1963243484497070 34.8243865966796875
  4.3462872505187988  0.1745626032352447 34.8345794677734375
 13.7364343861117959 17.8668325543403625 34.9070205688476562
  0.0372509993612766  4.4565410614013672 40.6522827148437571
  0.1833647787570953 13.8177433013916016 40.7470397949218821
  8.8338479995727539  4.3216199874877930 40.6537628173828125
  8.9156179428100586 13.6026391983032227 40.6389999389648438
  4.5629801750183097  9.0577554702758789 40.5738716125488281
  4.5206178883090615 18.0055976063013077 40.5790748596191406
 13.7111606597900391  9.0171928405761719 40.7171745300293040
 13.5581354359164834 18.0374648664146662 40.5344619750976634
  9.0289716720581055  4.5156092643737793 46.4455223083496165
  9.0265130996704102 13.5470085144042969 46.4455223083496165
 18.0593719482421875  4.5156092643737793 46.4455223083496165
 18.0569133758544922 13.5470085144042969 46.4455223083496165
  4.5152091979980469  0.0000180629995157 46.4442062377929759
  4.5127501487731934  9.0314178466796857 46.4442062377929759
 13.5456094741821289  0.0000180629995157 46.4442062377929759
 13.5431499481201172  9.0314178466796857 46.4442062377929759
 11.3652715682983398  8.3907794952392578 31.1703128814697266
 12.5390243530273438  8.1682462692260742 30.4123611450195348
 10.8523359298706055  7.3490571975708008 31.9560604095458984
 13.1992969512939453  6.9640650749206543 30.4928131103515625
 11.5193662643432617  6.1402583122253418 32.0150718688964844
 12.7103986740112305  5.9178376197814941 31.3033485412597692
 13.2706575393676758  9.6571149826049787 33.3927497863769602
 14.9652557373046875  8.6549444198608398 34.8827705383300852
 14.1601114273071289 10.8714275360107422 35.4241294860839915
 12.5566644668579102  8.9293689727783203 35.6675415039062500
 11.9651699066162109 10.4514474868774414 33.2980995178222656
 11.6261444091796875 10.8166046142578125 31.8433017730712891
 14.7364358901977539  7.2105507850646973 34.4451942443847656
 15.3932542800903303 11.4267177581787109 34.7134246826171875
 13.0023593902587891  8.4959745407104492 37.0273361206054688
 10.7203874588012695  9.7569780349731445 31.1959609985351562
  0.7549839019775377  3.3142416477203365 35.5292320251464844
  0.6693458557128905 12.4632186889648438 35.3311080932617188
  9.9873666763305664  4.0273060798645020 35.2047462463378977
  9.5238580703735352 12.8153505325317383 35.4684028625488281
  7.8738198280334473  4.9923014640808105 35.2390136718750000
  8.4047737121582031 14.8327884674072266 35.2987976074218750
 17.7597484588623047  5.3783655166625977 35.2067260742187500
 17.5594997406005859 14.4777193069458008 35.3942184448242188
  3.8456389904022212  8.1260690689086914 35.4458923339843750
  3.3954242924228311 17.5033295154571533 35.4164161682128906
 12.7933582523837668 17.1363695859909058 35.4081382751464844
  5.4520616531372061  0.5394785404205322 35.4029312133789062
  5.1529150009155273 10.0496034622192383 35.3575782775878906
 14.3312196731567383  0.8149894475936890 35.5390548706054688
  0.9390861988067627  3.5771911144256587 41.1391487121582102
  0.9180865287780762 12.8949918746948224 41.4017066955566477
  9.8413009643554670  3.6196055412292480 41.2380981445312500
  9.6917657852172852 12.8184137344360334 41.3592109680175852
  3.8494458198547363  8.1314058303833008 41.1400947570800781
  3.6473716953769326 17.1518463492393529 41.1579895019531250
 12.8786239624023438  8.3472414016723633 41.4901275634765625
 12.6147913197055459 17.2796944975852966 41.1283912658691406
  8.1396083831787109  5.2435445785522452 41.2289390563964844
  8.0611915588378906 14.4637498855590820 41.1252708435058594
 17.3176419734954834  5.1981902122497559 41.3856430053711009
 17.2735320925712585 14.5195732116699201 41.2876243591308665
  5.3025751113891602  0.7707512974739075 41.1729469299316406
  5.3183531761169434  9.9934921264648438 41.1916389465332031
 14.4130067825317365  0.7463632225990295 41.1146659851074219
 14.4470472335815430 10.0053386688232422 41.1050415039062571
  0.8273094892501831  3.6869695186614990 47.0359649658203125
  0.8248501420021057 12.7183685302734375 47.0359649658203125
  9.8577098846435547  3.6869695186614990 47.0359649658203125
  9.8552503585815412 12.7183685302734375 47.0359649658203125
  3.6843190193176270  8.2023353576660156 47.0346527099609375
  3.6818594932556152 17.2337341308593750 47.0346527099609375
 12.7147188186645508  8.2023353576660156 47.0346527099609375
 12.7122592926025391 17.2337341308593750 47.0346527099609375
  8.2006769180297852  5.3445744514465332 47.0360260009765696
  8.1982173919677734 14.3759746551513672 47.0360260009765696
 17.2310771942138672  5.3445744514465332 47.0360260009765696
 17.2286186218261719 14.3759746551513672 47.0360260009765696
  5.3436489105224600  0.8290914893150328 47.0346527099609375
  5.3411893844604483  9.8604917526245117 47.0346527099609375
 14.3740482330322266  0.8290914893150328 47.0346527099609375
 14.3715896606445312  9.8604917526245117 47.0346527099609375
 13.7222719192504883  9.5481033325195312 34.8471145629882812
  8.8522939682006836  0.2765363752841949 34.4627456665039062
  8.5425825119018555  9.3623552322387678 34.8802452087402344
  0.0320743331685662 17.9561035707592964 34.4892845153808665
  0.5505454540252686  8.7613878250122070 34.4188613891601562
  4.4352521896362305  4.4813327789306641 34.4812126159668040
  4.5166568756103516 13.5000190734863281 34.5328598022460938
 13.6039419174194336  3.9586296081542969 34.7292251586914062
 13.1310844421386719 14.0663337707519513 34.2025833129882812
  0.0693293670192361 18.0174071863293648 40.9159126281738281
  0.1645861864089966  9.1245679855346680 40.9191894531250000
  9.0285406112670898  0.0164917875081301 40.8449287414550781
  9.1271982192993146  8.8217296600341797 41.0021896362304688
  4.5035800933837891  4.4742364883422852 40.8561172485351562
  4.4750833511352539 13.5927190780639648 40.9343986511230469
 13.3772745132446289  4.5581059455871582 40.9400444030761719
 13.6653966903686523 13.7073841094970703 40.8390426635742188
  2.5805530548095703  1.8878978490829468 38.0716896057128906
  2.6035161018371582 10.9643182754516602 37.8992156982421875
 11.6360311508178711  1.8142771720886230 37.9589538574218750
 11.2049350738525391 11.4006624221801758 38.3586349487304688
  6.3657684326171866  7.1139435768127441 37.9589614868164062
  6.4044032096862793 16.0977573394775391 37.9599494934082031
 16.0132102966308594  6.6229367256164551 38.3722877502441477
 15.4978504180908203 16.1864471435546875 37.8778419494628977
  1.9692528247833250  6.4653482437133789 38.0144309997558665
  1.9677424430847166 15.5080595016479492 37.9372863769531250
 10.4687900543212873  5.9940128326416016 38.0706253051757812
 11.0072040557861310 15.5675468444824201 38.0485534667968750
  6.9638323783874503  2.4465968608856201 37.9811820983886719
  6.9333286285400391 11.4702568054199201 38.1650161743164062
 16.1326999664306641  2.5116002559661865 38.1767044067382812
 16.5235786437988281 11.8863945007324219 38.3991317749023509
  0.0000000000000000  0.0000000000000000 47.1735610961914062
 -0.0024593239650130  9.0313997268676740 47.1735610961914062
  9.0304002761840803  0.0000000000000000 47.1735610961914062
  9.0279407501220685  9.0313997268676740 47.1735610961914062
  4.5139794349670410  4.5156998634338379 47.1742515563964844
  4.5115203857421875 13.5470991134643537 47.1742515563964844
 13.5443792343139648  4.5156998634338379 47.1742515563964844
 13.5419197082519531 13.5470991134643537 47.1742515563964844
  2.4519233703613277  2.0629522800445557 44.0401268005371165
  2.4494640827178955 11.0943517684936523 44.0401268005371165
 11.4823226928710920  2.0629522800445557 44.0401268005371165
 11.4798641204833984 11.0943517684936523 44.0401268005371165
  6.5760178565979004  6.9684472084045410 44.0401268005371165
  6.5735583305358887 15.9998464584350586 44.0401268005371165
 15.6064186096191406  6.9684472084045410 44.0401268005371165
 15.6039590835571289 15.9998464584350586 44.0401268005371165
  2.0610768795013428  6.5788145065307617 44.0400009155273509
  2.0586175918579102 15.6102142333984375 44.0400009155273509
 11.0914773941040039  6.5788145065307617 44.0400009155273509
 11.0890178680419922 15.6102142333984375 44.0400009155273509
  6.9668641090393066  2.4525938034057613 44.0400657653808665
  6.9644045829772949 11.4839935302734375 44.0400657653808665
 15.9972639083862305  2.4525938034057613 44.0400657653808665
 15.9948053359985352 11.4839935302734375 44.0400657653808665
  2.4316265583038330  2.0832188129425049 50.0684852600097656
  2.4291670322418213 11.1146183013915998 50.0684852600097656
 11.4620265960693359  2.0832188129425049 50.0684852600097656
 11.4595670700073224 11.1146183013915998 50.0684852600097656
  6.5963144302368164  6.9481806755065918 50.0684852600097656
  6.5938549041748047 15.9795799255371076 50.0684852600097656
 15.6267137527465803  6.9481806755065918 50.0684852600097656
 15.6242542266845703 15.9795799255371076 50.0684852600097656
  2.0811281204223633  6.5990090370178223 50.0690460205078125
  2.0786688327789307 15.6304082870483398 50.0690460205078125
 11.1115283966064453  6.5990090370178223 50.0690460205078125
 11.1090688705444336 15.6304082870483398 50.0690460205078125
  6.9468131065368652  2.4323906898498531 50.0690460205078125
  6.9443535804748535 11.4637899398803711 50.0690460205078125
 15.9772129058837891  2.4323906898498531 50.0690460205078125
 15.9747543334960938 11.4637899398803711 50.0690460205078125
  0.0019414710113779  0.0468355752527714 37.7475509643554759
  0.1121315881609917  9.0621356964111328 37.7429122924804759
  9.0691528320312482  0.1056855767965317 37.6426086425781250
  8.9326715469360352  8.9476556777954102 37.9120674133300781
  4.4751276969909668  4.4543132781982422 37.6334037780761790
  4.5016241073608398 13.5443515777587891 37.5939559936523438
 13.4683485031127930  4.4474692344665527 37.8089447021484446
 13.5072908401489258 13.6890821456909162 37.7433128356933594
  0.0000090280000222  0.0000090310004452 44.0429992675781250
 -0.0024502959568053  9.0314083099365234 44.0429992675781250
  9.0304088592529297  0.0000090310004452 44.0429992675781250
  9.0279493331909180  9.0314083099365234 44.0429992675781250
  4.5139703750610352  4.5156903266906738 44.0427513122558594
  4.5115113258361816 13.5470905303955078 44.0427513122558594
 13.5443706512451172  4.5156903266906738 44.0427513122558594
 13.5419111251831037 13.5470905303955078 44.0427513122558594
  0.0000000000000000  0.0000000000000000 50.4472808837890696
 -0.0024593239650130  9.0313997268676740 50.4472808837890696
  9.0304002761840803  0.0000000000000000 50.4472808837890696
  9.0279407501220685  9.0313997268676740 50.4472808837890696
  4.5139703750610352  4.5156998634338379 50.4472808837890696
  4.5115113258361816 13.5470991134643537 50.4472808837890696
 13.5443706512451172  4.5156998634338379 50.4472808837890696
 13.5419111251831055 13.5470991134643537 50.4472808837890696
