 H  C  N  I Pb 
 1.0000000000000000
    18.0608005523681641    0.0000000000000000    0.0000000000000000
    -0.0049186488613486   18.0627994537353516    0.0000000000000000
     0.0000000000000000    0.0000000000000000   62.4874992370605469
 H   C   N   I   Pb 
 143  39  47  72  24
Cartesian
  8.4459810256958008  6.1237716674804688 35.2532501220703125
  7.9324445724487296 14.8984069824218750 35.9109649658203125
 16.6789684295654297  4.9490346908569336 36.1157875061035156
 16.9111614227294922 14.7807207107543945 35.7890777587890625
  5.7813873291015625  1.4243334531784058 35.6331558227539062
  6.2838840484619141  9.8009014129638672 34.8142967224121094
 14.5436325073242188  1.6638659238815308 35.4019699096679759
  1.9531784057617188  4.5233130455017090 34.7888793945312571
  1.3514099121093737 12.1783933639526367 36.0243453979492188
  9.9041061401367188  2.7883105278015137 35.0500297546386719
  9.1026906967163086 11.6322937011718750 34.8303451538085938
  6.7638320922851562  0.2815697789192200 34.7660293579101562
  5.3550252914428711 11.2711725234985352 34.4918441772460938
 15.8343019485473633  0.6020036935806274 34.8162345886230469
  1.0611305236816415  5.0199604034423828 36.1925392150878906
 17.8199100494384766 12.5910644531250000 36.5923423767089844
 10.3282737731933594  4.4381375312805176 35.4640617370605540
  8.1017780303955078 12.4122343063354492 36.0013160705566406
  4.9063668251037598  7.8948230743408203 35.7659072875976562
  3.3664419651031490  1.0551062822341919 35.7420997619628977
 12.3530750274658203  0.5723653435707091 35.9171600341796875
  6.9132313728332511  5.4310283660888672 34.7288360595703125
  8.9753198623657227 15.7072200775146484 34.7740325927734375
 15.9122648239135724  4.3023581504821777 34.6924324035644531
 17.8710269927978516 15.6675500869750977 34.6383209228515625
  3.1681063175201412  8.0759716033935547 35.5938796997070312
  2.7113494137302041 17.7175243794918060 34.9430465698242188
 12.2650894382968527 16.9188748598098755 35.5013046264648438
  7.7439846992492676  3.3256187438964844 34.4888916015625000
  9.8347139358520508 13.6942367553710938 33.9159927368164062
 18.0150375366210938  3.9951629638671875 33.6072120666503977
  1.5094375610351554 14.0496072769165039 34.6296005249023438
  3.2989428043365474 10.2123184204101562 34.7812080383300781
  4.8555516460910431 16.9986816644668579 34.2345695495605469
 14.4204315403476357 16.8004776239395177 34.7778663635253977
  8.0528764724731445  5.4384703636169434 42.0175933837890625
  8.1212568283081055 14.5948276519775391 42.0858268737792969
 17.0323286056518555  5.0807552337646484 42.1457633972167969
 16.6451997756958043 13.2396678924560547 41.8239135742187500
  5.4456462860107422  0.9552224278450012 42.0273208618164062
  5.3184280395507812 10.0851306915283203 42.1367797851562571
 14.5294532775878888  0.9787405133247374 42.1738243103027344
 15.2167253494262678  8.4922819137573242 41.4159431457519531
  1.6010242700576782  3.0813245773315430 40.5332603454589915
  2.0477910041809082 12.8949651718139648 40.7893524169921875
 10.4705123901367188  3.0688292980194087 40.6002769470214844
 10.2886180877685547 12.0764265060424805 40.5107765197753906
  3.3431940078735352  7.4318361282348633 40.5114288330078125
  3.0421270588412876 16.7030808925628662 40.4633369445800852
 11.5950098037719727  8.5621814727783203 40.9836692810058594
 12.1805919865146279 16.6318963766098022 40.6777801513671946
  0.9459252357482910  3.3647155761718750 42.1160621643066406
  0.8104527592658997 12.0887889862060547 41.7110748291015625
  9.9065942764282227  3.6310546398162842 42.1468009948730469
  9.8302154541015625 12.6136598587036133 42.0980529785156250
  3.6516976356506348  8.0744180679321289 42.1020698547363352
  3.5559350708499546 17.1848864555358922 42.0527763366699219
 12.8809890747070312  7.5123591423034668 41.5014915466308594
 12.6774563053622842 17.1864481568336487 42.2471427917480540
  7.5727677345275879  5.8516216278076172 40.4044227600097656
  7.6567502021789551 15.1099357604980469 40.4843292236328125
 16.6695833206176758  5.7507195472717285 40.5883598327636719
 16.5030537843704259 14.7221174240112305 40.9436111450195312
  5.9435048103332511  1.4239761829376218 40.4270896911621165
  5.8614921569824219 10.5804100036621094 40.5566368103027415
 14.9898490905761719  1.4366397857666013 40.5495452880859446
 15.3471460342407227 10.0677528381347656 40.6876335144042969
  0.2159879356622696  4.5657844543457031 39.4682044982910156
  0.6463947296142578 14.6642293930053711 40.1836433410644531
  9.0557126998901367  4.4149641990661621 39.3786849975585938
  8.9543867111206055 13.5772218704223633 39.3944282531738281
  4.4743752479553223  0.0189299657940865 39.3412933349609375
  4.7148890495300284  8.9255704879760742 39.4330749511718750
 13.5778822163119912 18.0270096324384212 39.5074234008789062
 13.0543584823608398 10.3047294616699219 40.3853797912597656
  8.1032123565673828  5.4420318603515616 48.0459518432617259
  8.1007528305053711 14.4734306335449219 48.0459518432617259
 17.1336116790771484  5.4420318603515616 48.0459518432617259
 17.1311531066894531 14.4734306335449219 48.0459518432617259
  5.4410333633422852  0.9265221953392029 48.0449485778808594
  5.4385743141174316  9.9579219818115234 48.0449485778808594
 14.4714326858520490  0.9265221953392029 48.0449485778808594
 14.4689741134643555  9.9579219818115234 48.0449485778808594
  1.4218254089355467  3.0919990539550781 46.4558296203613281
  1.4193661212921143 12.1233978271484375 46.4558296203613281
 10.4522256851196289  3.0919990539550781 46.4558296203613281
 10.4497661590576172 12.1233978271484375 46.4558296203613281
  3.0899283885955806  7.6075901985168457 46.4545211791992188
  3.0874691009521484 16.6389904022216797 46.4545211791992188
 12.1203289031982422  7.6075901985168457 46.4545211791992188
 12.1178693771362305 16.6389904022216797 46.4545211791992188
  0.9247469902038573  3.5893490314483643 48.0459518432617259
  0.9222877025604248 12.6207475662231445 48.0459518432617259
  9.9551477432250977  3.5893490314483643 48.0459518432617259
  9.9526882171630859 12.6207475662231445 48.0459518432617259
  3.5868983268737793  8.1048498153686523 48.0448913574218821
  3.5844390392303462 17.1362495422363281 48.0448913574218821
 12.6172990798950195  8.1048498153686523 48.0448913574218821
 12.6148395538330078 17.1362495422363281 48.0448913574218821
  7.6061611175537109  5.9393639564514160 46.4558296203613281
  7.6037015914916992 14.9707632064819336 46.4558296203613281
 16.6365604400634766  5.9393639564514160 46.4558296203613281
 16.6341018676757812 14.9707632064819336 46.4558296203613281
  5.9380125999450684  1.4238001108169553 46.4545211791992188
  5.9355530738830566 10.4551992416381836 46.4545211791992188
 14.9684123992919904  1.4238001108169553 46.4545211791992188
 14.9659538269042951 10.4551992416381836 46.4545211791992188
 -0.0011664569610730  4.5157265663146973 45.3548011779785156
 -0.0036257810425013 13.5471258163452148 45.3548011779785156
  9.0292339324951172  4.5157265663146973 45.3548011779785156
  9.0267744064331037 13.5471258163452148 45.3548011779785156
  4.5152091979980469  0.0000000000000000 45.3536758422851562
  4.5127501487731934  9.0313997268676740 45.3536758422851562
 13.5456094741821289  0.0000000000000000 45.3536758422851562
 13.5431499481201172  9.0313997268676740 45.3536758422851562
 13.0082302093505859  8.0128040313720703 33.7194519042968750
 13.3646879196166992  8.9435968399047852 32.2702636718750000
 11.9600429534912109  9.9712781906127912 34.7859268188476562
 12.7997694015502930 11.5261707305908185 34.7055091857910156
 15.3849401473999023  9.1890487670898438 35.4530601501464915
 14.3034114837646484 10.4427042007446289 36.0733337402343821
 15.8340778350830078 10.1206560134887695 33.1844520568847656
 14.5795774459838867 11.2332963943481445 32.5828895568847656
 15.7675485610961896  8.3282861709594727 32.3650016784668040
 15.5621633529663086  7.6645951271057129 33.9772491455078125
 15.7565250396728516  5.8869524002075195 32.3933982849121094
 14.1577100753784180  5.8443102836608878 33.1213417053222727
 11.5238132476806641  9.9590959548950195 32.3827171325683594
 12.5191183090209961 11.4256849288940430 32.1289176940917969
 11.0358829498290998 11.5071401596069336 33.0753746032714844
 13.7404842376708984  8.4187517166137695 37.2159233093261719
 13.6233596801757795  7.4485306739807129 35.7480049133300781
 12.4032402038574201  8.7020416259765625 36.1155433654785156
 14.7804164886474609 12.4883432388305664 34.8435821533203196
 16.1964569091796875 12.4976091384887695 33.7944183349609446
 16.1839370727539062 11.4198083877563477 35.2021675109863281
 14.8155307769775391  6.8864350318908691 30.2873764038085938
 14.2052345275878906  5.2788772583007812 30.7051467895507812
 11.9611358642578125  5.4810767173767090 32.3593177795410227
 13.2337779998779297  8.3497962951660156 29.4221038818359375
  9.6678600311279297  6.4049530029296875 32.2895088195800781
 10.9208173751831037  9.2668943405151367 29.3171119689941406
  9.1378831863403320  8.3306474685668945 30.7827625274658203
 17.9645004272460938  4.3714103698730469 34.6323547363281250
  0.5963344573974615 13.8903360366821271 35.2166595458984375
  8.4187393188476562  4.1200137138366699 34.8170204162597727
  9.0821590423583984 13.6799392700195312 34.7115287780761719
  4.2340621948242188  9.6684818267822266 34.9756431579589915
  4.7397450665012002 17.9375520348548889 34.7908782958984375
 14.0419315556064248 17.7676099240779877 35.1361541748046875
  0.1057207137346268  4.4239797592163086 40.5380401611328196
  0.2602344751358032 13.8576002120971680 40.8224372863769531
  9.0245685577392578  4.4660882949829102 40.4659461975097727
  8.9617748260498047 13.5881853103637695 40.4819755554199219
  4.6224784851074219  8.9916086196899414 40.5195541381836009
  4.4979362487792969  0.0310815721750259 40.4304695129394531
 13.4470424652099609  9.3740863800048828 40.8169364929199290
 13.5952062606811523  0.0042295223101974 40.5981903076171875
  9.0289716720581055  4.5156092643737793 46.4455223083496165
  9.0265130996704102 13.5470085144042969 46.4455223083496165
 18.0593719482421875  4.5156092643737793 46.4455223083496165
 18.0569133758544922 13.5470085144042969 46.4455223083496165
  4.5152091979980469  0.0000180629995157 46.4442062377929759
  4.5127501487731934  9.0314178466796857 46.4442062377929759
 13.5456094741821289  0.0000180629995157 46.4442062377929759
 13.5431499481201172  9.0314178466796857 46.4442062377929759
 12.7654514312744141  6.8527507781982422 30.9083900451660192
 11.7377929687500000  6.3097624778747550 31.6939315795898473
 12.4479780197143555  7.9150071144103995 30.0480213165283239
 10.4484996795654297  6.8287863731384277 31.6537666320800817
 11.1438331604003906  8.4343242645263672 29.9939575195312536
 10.1453227996826172  7.9023919105529785 30.8032855987548828
 13.7775478363037109  8.6164093017578125 33.2236976623535227
 12.6062660217285156 10.5949831008911133 34.1597251892089844
 14.3355712890625000  9.5068292617797852 35.5014457702636790
 15.0099802017211896 10.7772035598754883 33.4813499450683665
 15.0513162612915039  7.8034033775329590 33.0142822265625000
 14.7894334793090803  6.4130477905273438 32.4238967895507812
 11.9045619964599609 10.8736000061035156 32.8501510620117188
 13.4662227630615234  8.4557323455810547 36.1551017761230469
 15.5600843429565430 11.8473815917968750 34.4100379943847727
 14.1826972961425781  6.3408389091491699 31.0165481567382812
  1.0375404357910165  4.6263809204101562 35.2445030212402415
  0.5444774627685562 12.8058824539184570 35.9556236267089844
  9.6474599838256836  3.7771756649017334 35.1032791137695312
  8.7269153594970703 12.5108480453491211 35.1919288635253906
  7.9203906059265137  5.3328161239624023 34.8890075683593750
  8.5953407287597656 14.8229866027832031 35.1220664978027344
 16.7834110260009766  4.5273633003234863 35.1817512512207031
 17.6876068115234375 14.7782173156738281 35.1240119934082031
  4.1095237731933594  8.4239921569824219 35.3943595886230469
  3.5374906063079834  0.2184811830520630 35.1771011352539062
 12.7815307835116982 17.7994500100612640 35.5115547180175781
  5.8204774856567383  0.5826963186264038 35.0520629882812500
  5.3753604888916016 10.2719793319702148 34.7355651855468750
 14.8634805679321289  0.7313066124916076 35.1445198059082102
  0.9188826084136963  3.5652995109558105 41.1156539916992188
  1.0783528089523315 12.8606138229370117 41.0992393493652344
  9.8541316986083984  3.6826097965240479 41.1288452148437571
  9.7232389450073224 12.7023839950561523 41.0863609313964844
  3.8402171134948730  8.1074991226196289 41.0982704162597656
  3.6475857952609658 17.2857559323310852 41.0376358032226562
 12.5989732742309570  8.4218854904174805 41.1258811950683594
 12.7806438663974404 17.2428013682365417 41.2310142517089844
  8.1755628585815430  5.2990493774414062 41.0075607299804759
  8.2050523757934570 14.4823102951049805 41.0713157653808594
 17.2414269447326660  5.1332392692565918 41.1497001647949219
 17.0811769366264343 13.9434270858764648 41.2351875305175852
  5.3450727462768555  0.8405980467796326 41.0084762573242259
  5.3053708076477051  9.9334630966186523 41.1247520446777344
 14.4024686813354492  0.8649793267250061 41.1579170227050852
 14.7493953704833984  9.2983675003051740 40.9861335754394531
  0.8273094892501831  3.6869695186614990 47.0359649658203125
  0.8248501420021057 12.7183685302734375 47.0359649658203125
  9.8577098846435547  3.6869695186614990 47.0359649658203125
  9.8552503585815412 12.7183685302734375 47.0359649658203125
  3.6843190193176270  8.2023353576660156 47.0346527099609375
  3.6818594932556152 17.2337341308593750 47.0346527099609375
 12.7147188186645508  8.2023353576660156 47.0346527099609375
 12.7122592926025391 17.2337341308593750 47.0346527099609375
  8.2006769180297852  5.3445744514465332 47.0360260009765696
  8.1982173919677734 14.3759746551513672 47.0360260009765696
 17.2310771942138672  5.3445744514465332 47.0360260009765696
 17.2286186218261719 14.3759746551513672 47.0360260009765696
  5.3436489105224600  0.8290914893150328 47.0346527099609375
  5.3411893844604483  9.8604917526245117 47.0346527099609375
 14.3740482330322266  0.8290914893150328 47.0346527099609375
 14.3715896606445312  9.8604917526245117 47.0346527099609375
 13.9384660720825195  9.8647117614746094 34.0766410827636719
  9.3189544677734375  0.2255333214998245 34.5660476684570384
  8.8071537017822266  8.9796333312988281 34.5663871765136719
  0.1450123041868210  0.1405651569366455 34.3764762878417969
  0.4647027552127838  9.0472955703735352 34.6429023742675781
  4.5202383995056143  4.3120675086975098 34.5402908325195312
  4.5839371681213379 13.7581901550292969 34.5243186950683594
 13.2771511077880859  3.8283624649047852 34.7309379577636790
 12.6243257522583008 14.3853588104248047 34.6972122192382812
 18.0162513973191381 17.8511865139007568 40.8471145629882812
  0.2478317022323609  8.9832086563110352 40.9505462646484375
  8.9615716934204102  0.0673330500721931 40.9257431030273438
  9.0476140975952148  8.9435777664184570 40.8928260803222727
  4.5654458999633789  4.4559316635131836 40.9075851440429688
  4.5972299575805664 13.6478319168090803 40.8862419128418040
 13.4941244125366211  4.8354525566101074 40.9404106140136719
 13.4766693115234375 13.3836250305175781 40.8995513916015696
  2.3335270881652832  2.2263705730438232 37.9561653137207031
  2.7603070735931392 10.9510097503662109 37.9758110046386719
 11.5509653091430664  2.0550260543823242 38.1972579956054688
 11.4086465835571289 11.1789636611938459 37.9492530822753906
  6.5249843597412100  7.0244956016540527 37.8561973571777344
  6.6736593246459961 15.9983453750610352 37.9277992248535156
 16.0389995574951172  6.6608352661132812 37.9934844970703125
 15.6549510955810547 15.9344167709350586 37.8643875122070384
  2.2056417465209961  6.5799846649169922 38.0369758605957031
  2.2228441238403320 15.8114004135131818 37.9249076843261719
 10.7544603347778320  6.2690863609313965 37.5649452209472656
 11.1358880996704102 15.6614255905151349 38.3863372802734375
  7.0005364418029785  2.4077019691467281 37.9373016357421875
  6.9717478752136230 11.4805488586425763 38.0815582275390696
 15.9731750488281232  2.4779710769653320 38.1998443603515625
 16.2023696899414062 11.5670175552368164 38.3485946655273509
  0.0000000000000000  0.0000000000000000 47.1735610961914062
 -0.0024593239650130  9.0313997268676740 47.1735610961914062
  9.0304002761840803  0.0000000000000000 47.1735610961914062
  9.0279407501220685  9.0313997268676740 47.1735610961914062
  4.5139794349670410  4.5156998634338379 47.1742515563964844
  4.5115203857421875 13.5470991134643537 47.1742515563964844
 13.5443792343139648  4.5156998634338379 47.1742515563964844
 13.5419197082519531 13.5470991134643537 47.1742515563964844
  2.4519233703613277  2.0629522800445557 44.0401268005371165
  2.4494640827178955 11.0943517684936523 44.0401268005371165
 11.4823226928710920  2.0629522800445557 44.0401268005371165
 11.4798641204833984 11.0943517684936523 44.0401268005371165
  6.5760178565979004  6.9684472084045410 44.0401268005371165
  6.5735583305358887 15.9998464584350586 44.0401268005371165
 15.6064186096191406  6.9684472084045410 44.0401268005371165
 15.6039590835571289 15.9998464584350586 44.0401268005371165
  2.0610768795013428  6.5788145065307617 44.0400009155273509
  2.0586175918579102 15.6102142333984375 44.0400009155273509
 11.0914773941040039  6.5788145065307617 44.0400009155273509
 11.0890178680419922 15.6102142333984375 44.0400009155273509
  6.9668641090393066  2.4525938034057613 44.0400657653808665
  6.9644045829772949 11.4839935302734375 44.0400657653808665
 15.9972639083862305  2.4525938034057613 44.0400657653808665
 15.9948053359985352 11.4839935302734375 44.0400657653808665
  2.4316265583038330  2.0832188129425049 50.0684852600097656
  2.4291670322418213 11.1146183013915998 50.0684852600097656
 11.4620265960693359  2.0832188129425049 50.0684852600097656
 11.4595670700073224 11.1146183013915998 50.0684852600097656
  6.5963144302368164  6.9481806755065918 50.0684852600097656
  6.5938549041748047 15.9795799255371076 50.0684852600097656
 15.6267137527465803  6.9481806755065918 50.0684852600097656
 15.6242542266845703 15.9795799255371076 50.0684852600097656
  2.0811281204223633  6.5990090370178223 50.0690460205078125
  2.0786688327789307 15.6304082870483398 50.0690460205078125
 11.1115283966064453  6.5990090370178223 50.0690460205078125
 11.1090688705444336 15.6304082870483398 50.0690460205078125
  6.9468131065368652  2.4323906898498531 50.0690460205078125
  6.9443535804748535 11.4637899398803711 50.0690460205078125
 15.9772129058837891  2.4323906898498531 50.0690460205078125
 15.9747543334960938 11.4637899398803711 50.0690460205078125
 18.0131708830595016  0.0729684680700302 37.7311935424804688
  0.1261892914772034  9.0958061218261719 37.7611236572265625
  9.1113557815551758  0.0233717188239098 37.8291130065917969
  9.0555152893066406  9.0085859298706055 37.7430305480957031
  4.5881996154785147  4.5034918785095215 37.7502288818359375
  4.5322117805480957 13.5938644409179688 37.6768379211425781
 13.4793529510498029  4.5399303436279297 37.8200263977050852
 13.4282379150390625 13.6605396270751953 37.7548675537109375
  0.0000090280000222  0.0000090310004452 44.0429992675781250
 -0.0024502959568053  9.0314083099365234 44.0429992675781250
  9.0304088592529297  0.0000090310004452 44.0429992675781250
  9.0279493331909180  9.0314083099365234 44.0429992675781250
  4.5139703750610352  4.5156903266906738 44.0427513122558594
  4.5115113258361816 13.5470905303955078 44.0427513122558594
 13.5443706512451172  4.5156903266906738 44.0427513122558594
 13.5419111251831037 13.5470905303955078 44.0427513122558594
  0.0000000000000000  0.0000000000000000 50.4472808837890696
 -0.0024593239650130  9.0313997268676740 50.4472808837890696
  9.0304002761840803  0.0000000000000000 50.4472808837890696
  9.0279407501220685  9.0313997268676740 50.4472808837890696
  4.5139703750610352  4.5156998634338379 50.4472808837890696
  4.5115113258361816 13.5470991134643537 50.4472808837890696
 13.5443706512451172  4.5156998634338379 50.4472808837890696
 13.5419111251831055 13.5470991134643537 50.4472808837890696
