 H  C  N  I Pb 
 1.0000000000000000
    18.0608005523681641    0.0000000000000000    0.0000000000000000
    -0.0049186488613486   18.0627994537353516    0.0000000000000000
     0.0000000000000000    0.0000000000000000   62.4874992370605469
 H   C   N   I   Pb 
 143  39  47  72  24
Cartesian
  7.3622870445251465  5.1401233673095703 35.0162773132324219
  7.5158886909484863 12.5597953796386719 35.6748886108398438
 16.7001838684082031  5.2909116744995117 36.1944961547851562
 16.7173652648925781 14.7083663940429688 35.7913856506347727
  5.8231782913207999  1.6407461166381836 35.1705703735351562
  5.8695068359375000 10.3221311569213867 35.4978981018066477
 14.3918228149414062  1.8810750246047974 35.2738609313964915
  1.9684238433837917  4.3602051734924316 35.1119117736816406
  1.4210910797119145 12.3467235565185547 35.5525474548339844
 10.5243825912475586  3.3463182449340820 35.3069305419921875
 10.8143482208251935 13.8274440765380842 34.9393348693847727
  6.8347249031066895  0.3035653829574585 34.6288108825683594
  4.6148586273193359 11.2305555343627930 34.6740379333496165
 15.7818422317504865  0.9167349338531494 34.7362060546875071
  1.1364402770996100  5.2303433418273917 36.3485488891601562
 17.9232597351074219 12.5321140289306641 36.3101272583007884
  8.8176898956298828  3.1355679035186768 35.6097412109375000
  9.9788560867309570 12.5806140899658203 35.8330001831054688
  5.5403323173522949  7.8788046836853027 35.7219314575195312
  3.4444799423217773  1.2123165130615234 35.5320243835449290
 12.3293819427490234  0.5775941014289856 35.8333244323730469
  8.2613697052001953  6.6019124984741211 34.6227264404296946
  6.7551388740539542 13.7222442626953125 34.6180419921875071
 15.9652690887451154  4.4115080833435059 34.8739891052246094
 17.5445022583007812 15.7776489257812500 34.6970939636230469
  4.1753153800964355  7.1834220886230469 34.9054412841796875
  2.8228997448459268 17.7282081544399261 35.0553474426269531
 12.3523735264316201 16.9447296857833862 35.3620223999023509
 10.3142814636230469  5.5242295265197754 34.6689529418945312
  8.8381252288818359 14.6962471008300781 34.0422973632812500
 18.0494766235351562  3.6852333545684814 34.0349845886230469
  1.2618389129638670 14.3208026885986328 34.3464889526367259
  3.3870139122009277  9.2762947082519531 34.1780815124511719
  4.9545368412509561 16.9343867301940918 34.4506378173828125
 14.5258602360263467 17.0091482400894201 34.6573982238769531
  8.2177610397338867  5.3811917304992676 42.0534400939941406
  7.9766025543212882 14.7286262512207031 41.9068794250488281
 17.2735161781311035  5.1374130249023438 42.2699241638183594
 16.4841376543045044 13.3570442199707031 41.4344825744628906
  5.3519487380981445  0.7382862567901611 42.1869277954101562
  5.4306430816650391 10.1358547210693359 42.0599708557128906
 14.3995361328125000  0.9239926338195801 42.2103233337402344
 15.0365238189697266  8.4725961685180664 41.5780258178711009
  1.6406188011169434  3.0780043601989746 40.4436874389648438
  1.9572731256484983 12.6503553390502930 40.9256172180175781
 10.4177589416503906  2.9749727249145508 40.3801269531250000
 10.3440217971801758 12.1719741821289062 40.7369041442871094
  3.3391950130462642  7.4361219406127930 40.6942481994628906
  2.9658519485965371 16.7994142770767212 40.2281494140625000
 11.4551267623901367  8.7804946899414062 40.8957176208496094
 12.1412910679355264 16.5841745138168335 40.5695724487304688
  1.1395461559295652  3.3997294902801509 42.0841102600097656
  0.4402260482311249 11.8295850753784180 41.2454566955566406
  9.9009532928466797  3.4113523960113525 41.9794197082519531
  9.8171119689941406 12.8934717178344727 42.2243347167968821
  3.8229343891143794  8.0805139541625977 42.2302818298339844
  3.3050200203433633 17.1994132995605469 41.8880043029785227
 12.5897922515869141  7.8405413627624503 41.8394699096679688
 12.5827049473300576 17.0834765434265137 42.1697883605957031
  7.8687038421630850  6.0925192832946777 40.5100669860839844
  7.5248622894287109 14.9869441986083984 40.2387237548828125
 16.7243270874023438  5.7536439895629883 40.7428398132324219
 16.7785503864288366 15.0360918045043945 41.0982246398925781
  6.1861004829406738  1.1218740940093994 40.7263603210449219
  5.7881669998168945 10.6107463836669922 40.4215202331543040
 14.8999004364013672  1.4474862813949585 40.6196250915527344
 15.3587350845336914  9.8018836975097656 40.4898452758789134
  0.1195085942745209  4.5355477333068848 39.4808845520019602
  0.9699060320854187 14.7365207672119141 40.6946258544921875
  9.2115173339843750  4.6261582374572754 39.3206138610839844
  8.9538583755493164 13.3968381881713867 39.3962402343750071
  4.7368134716525665 17.9837439283728600 39.3708114624023438
  4.5196728706359863  8.9578018188476562 39.4454154968261790
 13.5476631382480264 18.0457391887903214 39.4886322021484375
 13.1210918426513654 10.0880022048950195 39.9317054748535156
  8.1032123565673828  5.4420318603515616 48.0459518432617259
  8.1007528305053711 14.4734306335449219 48.0459518432617259
 17.1336116790771484  5.4420318603515616 48.0459518432617259
 17.1311531066894531 14.4734306335449219 48.0459518432617259
  5.4410333633422852  0.9265221953392029 48.0449485778808594
  5.4385743141174316  9.9579219818115234 48.0449485778808594
 14.4714326858520490  0.9265221953392029 48.0449485778808594
 14.4689741134643555  9.9579219818115234 48.0449485778808594
  1.4218254089355467  3.0919990539550781 46.4558296203613281
  1.4193661212921143 12.1233978271484375 46.4558296203613281
 10.4522256851196289  3.0919990539550781 46.4558296203613281
 10.4497661590576172 12.1233978271484375 46.4558296203613281
  3.0899283885955806  7.6075901985168457 46.4545211791992188
  3.0874691009521484 16.6389904022216797 46.4545211791992188
 12.1203289031982422  7.6075901985168457 46.4545211791992188
 12.1178693771362305 16.6389904022216797 46.4545211791992188
  0.9247469902038573  3.5893490314483643 48.0459518432617259
  0.9222877025604248 12.6207475662231445 48.0459518432617259
  9.9551477432250977  3.5893490314483643 48.0459518432617259
  9.9526882171630859 12.6207475662231445 48.0459518432617259
  3.5868983268737793  8.1048498153686523 48.0448913574218821
  3.5844390392303462 17.1362495422363281 48.0448913574218821
 12.6172990798950195  8.1048498153686523 48.0448913574218821
 12.6148395538330078 17.1362495422363281 48.0448913574218821
  7.6061611175537109  5.9393639564514160 46.4558296203613281
  7.6037015914916992 14.9707632064819336 46.4558296203613281
 16.6365604400634766  5.9393639564514160 46.4558296203613281
 16.6341018676757812 14.9707632064819336 46.4558296203613281
  5.9380125999450684  1.4238001108169553 46.4545211791992188
  5.9355530738830566 10.4551992416381836 46.4545211791992188
 14.9684123992919904  1.4238001108169553 46.4545211791992188
 14.9659538269042951 10.4551992416381836 46.4545211791992188
 -0.0011664569610730  4.5157265663146973 45.3548011779785156
 -0.0036257810425013 13.5471258163452148 45.3548011779785156
  9.0292339324951172  4.5157265663146973 45.3548011779785156
  9.0267744064331037 13.5471258163452148 45.3548011779785156
  4.5152091979980469  0.0000000000000000 45.3536758422851562
  4.5127501487731934  9.0313997268676740 45.3536758422851562
 13.5456094741821289  0.0000000000000000 45.3536758422851562
 13.5431499481201172  9.0313997268676740 45.3536758422851562
 14.4320135116577148  9.1682758331298810 32.1109313964843750
 15.8573942184448242  9.0297508239746094 33.1669349670410156
 13.6747932434082013 11.1651344299316406 33.2522315979003906
 13.6318044662475586 11.1875085830688477 35.0164527893066406
 12.4078416824340820  7.9650378227233878 34.3060302734375000
 12.0545034408569318  9.6222696304321289 34.8017234802246094
 14.3715162277221680  7.6119732856750488 35.3741607666015696
 15.5911798477172834  8.8692235946655273 35.5038375854492188
 15.4970226287841797  6.7380580902099609 33.6374320983886719
 13.7909231185913086  6.7826051712036133 33.2176055908203196
 14.1979713439941406  6.9235811233520508 30.8776607513427770
 15.8858366012573242  7.4043397903442383 31.0640239715576172
 16.1746177673339844 11.1215543746948242 33.2650222778320384
 16.1821727752685547 10.9321632385253906 35.0376167297363281
 15.5518226623535138 12.4222774505615217 34.3056678771972656
 10.8547887802124023  9.1100234985351562 32.7739486694336009
 12.3057489395141602  8.6564655303955078 31.8763713836669922
 12.0413198471069318 10.3505506515502930 32.3873138427734375
 12.7083501815795898  8.9950819015502930 36.6825942993164062
 13.9789171218872070 10.2502584457397461 36.8944892883300852
 14.1832008361816406  8.6410989761352539 37.5639038085937500
 14.8503475189208984  4.6653618812561035 31.9769878387451207
 15.3257131576538086  4.9660034179687491 30.3143100738525426
 16.7028884887695312  2.8644773960113525 31.1683902740478516
 17.5905456542968750  6.9459114074707031 32.2514381408691477
  1.0187587738037089  2.2662184238433838 31.4892635345458984
  1.8813152313232440  6.3454556465148926 32.5727958679199219
  2.6737575531005868  4.0173096656799316 32.1742172241211009
 18.0004405975341797  4.3139381408691406 34.9306602478027344
  0.4295673370361323 14.0175952911376935 34.9907417297363352
  9.4060106277465820  4.9620923995971680 34.8950767517089844
  8.7840995788574219 13.8131599426269531 34.6867980957031250
  4.3393378257751465  9.2078952789306641 34.7169494628906250
  4.8297323444858193 17.9717664122581482 34.7899627685546875
 14.0648264149203879 17.9403713494539261 35.0155410766601562
  0.1464277505874634  4.4187798500061035 40.5667572021484375
  0.3533217012882233 13.8783140182495099 40.9660339355468750
  9.1413631439208984  4.5382118225097656 40.4039878845214844
  8.9266386032104492 13.5689449310302734 40.4726448059082031
  4.5684905052185059  9.0237350463867188 40.5339698791503906
  4.5622681835666299 18.0025744363665616 40.4464111328125000
 13.3962917327880859  9.3088750839233398 40.6474647521972656
 13.5276121357455850 18.0455155577510595 40.5801200866699219
  9.0289716720581055  4.5156092643737793 46.4455223083496165
  9.0265130996704102 13.5470085144042969 46.4455223083496165
 18.0593719482421875  4.5156092643737793 46.4455223083496165
 18.0569133758544922 13.5470085144042969 46.4455223083496165
  4.5152091979980469  0.0000180629995157 46.4442062377929759
  4.5127501487731934  9.0314178466796857 46.4442062377929759
 13.5456094741821289  0.0000180629995157 46.4442062377929759
 13.5431499481201172  9.0314178466796857 46.4442062377929759
 16.9574661254882812  4.9590573310852051 31.6564388275146520
 17.4186820983886719  3.6342475414276119 31.4596958160400391
 17.8937015533447266  5.9178261756896973 32.0553092956542969
  0.6949100494384759  3.2977349758148193 31.6391239166259801
  1.1830787658691400  5.5795607566833496 32.2334022521972656
  1.6251621246337906  4.2789111137390137 32.0161514282226634
 14.8210163116455078  8.6992177963256836 33.0298919677734446
 14.1945285797119141 10.8155231475830078 34.1540184020996094
 12.5382232666015625  9.0140743255615234 34.0301513671875000
 14.5090179443359375  8.6917610168457031 35.4722366333007812
 14.7774991989135742  7.1787867546081543 32.9306716918945384
 15.1005926132202148  6.7473096847534180 31.4928722381591797
 15.6170129776000977 11.3288745880126953 34.1864089965820312
 11.9315900802612305  9.3017330169677734 32.6768684387207031
 13.7910623550415039  9.1916341781616193 36.7001152038574219
 15.5128555297851562  5.2896084785461426 31.3498229980468750
  1.0717334747314455  4.6400508880615234 35.5157699584961009
  0.5466957092285160 12.8676815032958984 35.6122817993164134
  9.5695009231567383  3.7006225585937500 35.2127685546875071
  9.9227066040039045 13.3466634750366211 35.1509780883789134
  8.2601623535156250  5.5903587341308594 34.7999076843261719
  7.6164336204528809 13.3000698089599592 34.9725074768066406
 16.8190441131591797  4.6974062919616699 35.3598480224609375
 17.4557018280029297 14.8283157348632812 35.0860824584960938
  4.7263331413269034  8.0155515670776367 35.1157379150390625
  3.6209211349487305  0.2978560328483582 35.1254692077636719
 12.8040012577548623 17.8590494841337204 35.3838806152343821
  5.8942894935607910  0.6838518381118774 34.8252029418945384
  5.0072584152221680 10.3168039321899414 34.9446754455566406
 14.7926301956176740  0.9777466058731079 35.0176773071289062
  1.0178692340850830  3.5805199146270752 41.0781669616699290
  0.9449772238731383 12.7048587799072266 41.0604095458984375
  9.8588857650756836  3.5896985530853271 40.9707298278808665
  9.7324914932250959 12.8329868316650391 41.2032585144042969
  3.8769555091857910  8.1281747817993164 41.2107429504394531
  3.5511063793674111 17.3009693026542664 40.9009170532226562
 12.4354286193847638  8.5813093185424805 41.1522445678710938
 12.7170566776767355 17.1830546855926514 41.1614189147949290
  8.3676776885986328  5.3826003074645996 41.0394096374511719
  8.0871219635009766 14.4726200103759766 40.9200248718261719
 17.3524373769760132  5.1458506584167480 41.2539215087890625
 17.1344100236892700 14.0852584838867188 41.1569938659667969
  5.3987045288085938  0.6451700925827026 41.1738891601562571
  5.2999978065490723  9.9757318496704102 41.0492668151855469
 14.3118801116943359  0.8393628597259521 41.1890907287597656
 14.6804199218750000  9.1859502792358398 40.9351882934570312
  0.8273094892501831  3.6869695186614990 47.0359649658203125
  0.8248501420021057 12.7183685302734375 47.0359649658203125
  9.8577098846435547  3.6869695186614990 47.0359649658203125
  9.8552503585815412 12.7183685302734375 47.0359649658203125
  3.6843190193176270  8.2023353576660156 47.0346527099609375
  3.6818594932556152 17.2337341308593750 47.0346527099609375
 12.7147188186645508  8.2023353576660156 47.0346527099609375
 12.7122592926025391 17.2337341308593750 47.0346527099609375
  8.2006769180297852  5.3445744514465332 47.0360260009765696
  8.1982173919677734 14.3759746551513672 47.0360260009765696
 17.2310771942138672  5.3445744514465332 47.0360260009765696
 17.2286186218261719 14.3759746551513672 47.0360260009765696
  5.3436489105224600  0.8290914893150328 47.0346527099609375
  5.3411893844604483  9.8604917526245117 47.0346527099609375
 14.3740482330322266  0.8290914893150328 47.0346527099609375
 14.3715896606445312  9.8604917526245117 47.0346527099609375
 14.0243110656738281  9.3011674880981445 34.1652297973632812
  9.2721494892612100 17.7641214430332184 34.5673446655273509
  8.5748119354248047  9.2356023788452148 34.5593719482421875
  0.1156555786728859  0.2297817468643188 34.4552726745605540
  0.5504071712493896  8.7952976226806641 34.6324844360351562
  4.6802163124084473  4.3245806694030762 34.6058120727539062
  4.1507143974304199 13.8225145339965820 34.4077301025390625
 13.2593479156494141  4.1759629249572754 34.6462745666503906
 13.2485857009887678 14.3580341339111328 34.6229133605957031
 17.9807868832722306 17.7995299398899078 40.8817787170410227
  0.1883274912834167  9.1197252273559570 40.9257659912109375
  8.9785308837890625  0.0430111102759838 40.9084205627441406
  8.9266624450683594  9.1003351211547852 40.8567810058593750
  4.7414164543151855  4.3833284378051758 40.9357070922851562
  4.4375233650207520 13.6558446884155273 40.8437576293945312
 13.4614286422729492  4.8517537117004395 40.9472198486328125
 13.5311536788940430 13.2413349151611328 40.9006958007812500
  2.4371097087860107  2.1131958961486816 38.0199813842773438
  2.6522405147552490 10.9928016662597656 37.8945350646972656
 11.5038280487060547  2.0506820678710938 38.0142593383789134
 11.1810445785522461 11.3957567214965820 37.9199829101562500
  6.6362886428832999  6.9391274452209464 37.9885292053222656
  6.5749096870422363 15.9863901138305646 37.8225936889648438
 16.0257072448730469  6.6277875900268555 38.1901283264160156
 15.5569477081298828 16.0814018249511719 37.9157638549804759
  2.2924392223358150  6.6551299095153800 38.2300987243652344
  2.0830423831939697 15.7720298767089844 37.8639144897461009
 11.0612716674804688  6.5952987670898438 37.6373214721679688
 11.1256904602050781 15.6064300537109357 38.2818412780761719
  7.1404080390930176  2.4901609420776367 37.7323341369628906
  6.8486633300781250 11.4552021026611328 37.9345932006835938
 15.9303941726684570  2.4517421722412109 38.2429618835449290
 16.2851371765136719 11.6810817718505859 38.1013641357421875
  0.0000000000000000  0.0000000000000000 47.1735610961914062
 -0.0024593239650130  9.0313997268676740 47.1735610961914062
  9.0304002761840803  0.0000000000000000 47.1735610961914062
  9.0279407501220685  9.0313997268676740 47.1735610961914062
  4.5139794349670410  4.5156998634338379 47.1742515563964844
  4.5115203857421875 13.5470991134643537 47.1742515563964844
 13.5443792343139648  4.5156998634338379 47.1742515563964844
 13.5419197082519531 13.5470991134643537 47.1742515563964844
  2.4519233703613277  2.0629522800445557 44.0401268005371165
  2.4494640827178955 11.0943517684936523 44.0401268005371165
 11.4823226928710920  2.0629522800445557 44.0401268005371165
 11.4798641204833984 11.0943517684936523 44.0401268005371165
  6.5760178565979004  6.9684472084045410 44.0401268005371165
  6.5735583305358887 15.9998464584350586 44.0401268005371165
 15.6064186096191406  6.9684472084045410 44.0401268005371165
 15.6039590835571289 15.9998464584350586 44.0401268005371165
  2.0610768795013428  6.5788145065307617 44.0400009155273509
  2.0586175918579102 15.6102142333984375 44.0400009155273509
 11.0914773941040039  6.5788145065307617 44.0400009155273509
 11.0890178680419922 15.6102142333984375 44.0400009155273509
  6.9668641090393066  2.4525938034057613 44.0400657653808665
  6.9644045829772949 11.4839935302734375 44.0400657653808665
 15.9972639083862305  2.4525938034057613 44.0400657653808665
 15.9948053359985352 11.4839935302734375 44.0400657653808665
  2.4316265583038330  2.0832188129425049 50.0684852600097656
  2.4291670322418213 11.1146183013915998 50.0684852600097656
 11.4620265960693359  2.0832188129425049 50.0684852600097656
 11.4595670700073224 11.1146183013915998 50.0684852600097656
  6.5963144302368164  6.9481806755065918 50.0684852600097656
  6.5938549041748047 15.9795799255371076 50.0684852600097656
 15.6267137527465803  6.9481806755065918 50.0684852600097656
 15.6242542266845703 15.9795799255371076 50.0684852600097656
  2.0811281204223633  6.5990090370178223 50.0690460205078125
  2.0786688327789307 15.6304082870483398 50.0690460205078125
 11.1115283966064453  6.5990090370178223 50.0690460205078125
 11.1090688705444336 15.6304082870483398 50.0690460205078125
  6.9468131065368652  2.4323906898498531 50.0690460205078125
  6.9443535804748535 11.4637899398803711 50.0690460205078125
 15.9772129058837891  2.4323906898498531 50.0690460205078125
 15.9747543334960938 11.4637899398803711 50.0690460205078125
 18.0015068240463734  0.1193054690957069 37.7401885986328125
  0.1889437288045883  9.0520935058593750 37.7217216491699290
  9.0617326954379678 17.9503885582089424 37.7172508239746094
  9.0327463150024414  9.0316848754882812 37.6637039184570312
  4.6174383163452148  4.4718713760375977 37.8406372070312500
  4.3877110481262207 13.6464681625366211 37.6713485717773438
 13.4961013793945312  4.5435223579406738 37.8532447814941477
 13.5754213333129865 13.6800870895385742 37.7596664428710938
  0.0000090280000222  0.0000090310004452 44.0429992675781250
 -0.0024502959568053  9.0314083099365234 44.0429992675781250
  9.0304088592529297  0.0000090310004452 44.0429992675781250
  9.0279493331909180  9.0314083099365234 44.0429992675781250
  4.5139703750610352  4.5156903266906738 44.0427513122558594
  4.5115113258361816 13.5470905303955078 44.0427513122558594
 13.5443706512451172  4.5156903266906738 44.0427513122558594
 13.5419111251831037 13.5470905303955078 44.0427513122558594
  0.0000000000000000  0.0000000000000000 50.4472808837890696
 -0.0024593239650130  9.0313997268676740 50.4472808837890696
  9.0304002761840803  0.0000000000000000 50.4472808837890696
  9.0279407501220685  9.0313997268676740 50.4472808837890696
  4.5139703750610352  4.5156998634338379 50.4472808837890696
  4.5115113258361816 13.5470991134643537 50.4472808837890696
 13.5443706512451172  4.5156998634338379 50.4472808837890696
 13.5419111251831055 13.5470991134643537 50.4472808837890696
