 H  C  N  I Pb 
 1.0000000000000000
    18.0608005523681641    0.0000000000000000    0.0000000000000000
    -0.0049186488613486   18.0627994537353516    0.0000000000000000
     0.0000000000000000    0.0000000000000000   62.4874992370605469
 H   C   N   I   Pb 
 143  39  47  72  24
Cartesian
  8.2297248840332031  5.5130791664123535 36.3172721862792969
  8.0501852035522461 14.5896520614624023 36.2805480957031250
 17.2683696746826172  5.5516839027404785 36.0551719665527344
 17.4559974670410156 14.6767158508300781 36.3239364624023438
  5.6308360099792480  0.7662266492843628 36.2819175720214844
  5.4520378112792969  9.9814548492431641 36.3160858154296875
 14.2513151168823242  0.9754249453544617 36.3786926269531321
  1.3878002166748082  2.8068325519561763 35.0514793395996094
  1.3165454864501940 12.0044250488281250 34.7939147949218821
 10.5717639923095685  3.3107101917266846 34.8143272399902344
 10.2436389923095703 12.0873003005981445 34.9285888671875071
  6.0069103240966797  1.2724231481552124 34.6898841857910156
  5.8360943794250488 10.5084047317504883 34.7316665649414134
 14.8557786941528303  1.4636387825012205 34.8492469787597727
  0.7229995727539088  3.5502891540527344 36.4381370544433665
  0.9741287231445311 12.7469835281372070 36.2992210388183665
 10.1357803344726545  4.0186576843261719 36.3057937622070312
  9.6183261871337891 12.6642656326293945 36.4176025390625000
  3.6395237445831294  8.0977582931518555 36.3859863281250071
  3.6137735107913613 17.1630100607872009 36.3998489379882812
 12.6201185444369894 17.0002781152725220 36.2771911621093821
  7.3879103660583487  5.8076729774475098 34.7932090759277344
  7.7512054443359375 15.2565670013427734 34.6847305297851562
 17.0120811462402344  5.8939528465270996 34.3562088012695384
 16.7803840637207031 15.1136112213134766 34.8160018920898438
  3.0669603347778316  7.6256294250488272 34.8392906188964915
  2.9207808235660195 16.7933760881423950 34.8736114501953125
 12.3637832859531045 16.3967995643615723 34.6903800964355469
  8.8701677322387695  4.4093647003173828 33.6342010498046875
  9.1361236572265625 13.6618270874023438 33.6370277404785227
  0.2834587097167984  4.2793936729431152 33.5566062927246094
 17.9799957275390625 13.5333709716796875 33.6139183044433594
  4.4035520553588867  9.1110296249389648 33.6395339965820312
  4.3260974884033203  0.0371285974979401 33.6438293457031250
 13.7558168629184365 17.9384126514196396 33.6326408386230469
  8.1455860137939453  5.4932885169982910 42.1998825073242259
  8.1826162338256836 14.2849845886230469 42.1899757385253977
 17.0219545364379883  5.5220212936401367 41.9368095397949219
 17.1008426547050476 14.5011539459228516 42.1763381958007812
  5.3574419021606436  0.9420939683914185 42.1969604492187500
  5.3899474143981934  9.8925733566284180 42.1687431335449219
 14.4845056533813459  0.9693045616149901 42.1400032043457031
 14.5158338546752912 10.1091766357421875 42.1990623474121094
  1.3901302814483643  3.0981912612915039 40.6967926025390625
  1.3953670263290405 12.0946016311645508 40.6415901184082031
 10.3982667922973633  3.0510506629943848 40.6102714538574219
 10.4018917083740234 12.1270961761474609 40.3319740295410156
  2.9982755184173580  7.6371068954467773 40.5410499572753977
  3.1198815563693638 16.6040678024291992 40.5128288269043040
 12.2080488204956055  7.5641975402832022 40.7489852905273438
 12.0600790241733193 16.7110407352447510 40.6042480468750071
  0.7735135555267334  3.7054252624511719 42.2465972900390625
  0.8498302698135375 12.6249103546142578 42.2462081909179759
  9.9584741592407227  3.6424112319946289 42.1787719726562500
 10.0001583099365234 12.5211420059204084 41.9465980529785227
  3.5554530620574951  8.1284160614013672 42.1291961669921946
  3.6097444752231240 17.1297880411148071 42.1210021972656250
 12.6870489120483398  8.2727260589599609 42.2550163269042969
 12.6087335804477334 17.2854542136192322 42.1778602600097656
  7.5642924308776847  6.0045204162597656 40.6168975830078125
  7.5124034881591797 14.9273643493652344 40.6915473937988281
 16.6175975799560547  5.9312934875488281 40.3221817016601562
 16.5955170392990148 15.0615530014038068 40.5924263000488281
  5.9136190414428711  1.5402574539184570 40.6344909667968821
  5.9477167129516602 10.4606628417968750 40.5951690673828125
 15.0618362426757795  1.4408836364746092 40.5436096191406250
 15.0475168228149396 10.4173297882080078 40.5869750976562500
  0.0801881700754166  4.4126253128051758 39.3778800964355540
 18.0264318995177781 13.5573558807373047 39.4623260498046875
  8.9275178909301758  4.4663882255554199 39.5339164733886719
  8.9204549789428711 13.5566492080688477 39.3774528503418040
  4.5199646949768066  0.0440637543797493 39.4623031616211009
  4.4635763168334961  9.0526294708251953 39.4524383544921875
 13.5740346908569336  0.0295948907732964 39.4630165100097727
 13.7753925323486328  8.9249448776245117 39.5696258544921875
  8.1032123565673828  5.4420318603515616 48.0459518432617259
  8.1007528305053711 14.4734306335449219 48.0459518432617259
 17.1336116790771484  5.4420318603515616 48.0459518432617259
 17.1311531066894531 14.4734306335449219 48.0459518432617259
  5.4410333633422852  0.9265221953392029 48.0449485778808594
  5.4385743141174316  9.9579219818115234 48.0449485778808594
 14.4714326858520490  0.9265221953392029 48.0449485778808594
 14.4689741134643555  9.9579219818115234 48.0449485778808594
  1.4218254089355467  3.0919990539550781 46.4558296203613281
  1.4193661212921143 12.1233978271484375 46.4558296203613281
 10.4522256851196289  3.0919990539550781 46.4558296203613281
 10.4497661590576172 12.1233978271484375 46.4558296203613281
  3.0899283885955806  7.6075901985168457 46.4545211791992188
  3.0874691009521484 16.6389904022216797 46.4545211791992188
 12.1203289031982422  7.6075901985168457 46.4545211791992188
 12.1178693771362305 16.6389904022216797 46.4545211791992188
  0.9247469902038573  3.5893490314483643 48.0459518432617259
  0.9222877025604248 12.6207475662231445 48.0459518432617259
  9.9551477432250977  3.5893490314483643 48.0459518432617259
  9.9526882171630859 12.6207475662231445 48.0459518432617259
  3.5868983268737793  8.1048498153686523 48.0448913574218821
  3.5844390392303462 17.1362495422363281 48.0448913574218821
 12.6172990798950195  8.1048498153686523 48.0448913574218821
 12.6148395538330078 17.1362495422363281 48.0448913574218821
  7.6061611175537109  5.9393639564514160 46.4558296203613281
  7.6037015914916992 14.9707632064819336 46.4558296203613281
 16.6365604400634766  5.9393639564514160 46.4558296203613281
 16.6341018676757812 14.9707632064819336 46.4558296203613281
  5.9380125999450684  1.4238001108169553 46.4545211791992188
  5.9355530738830566 10.4551992416381836 46.4545211791992188
 14.9684123992919904  1.4238001108169553 46.4545211791992188
 14.9659538269042951 10.4551992416381836 46.4545211791992188
 -0.0011664569610730  4.5157265663146973 45.3548011779785156
 -0.0036257810425013 13.5471258163452148 45.3548011779785156
  9.0292339324951172  4.5157265663146973 45.3548011779785156
  9.0267744064331037 13.5471258163452148 45.3548011779785156
  4.5152091979980469  0.0000000000000000 45.3536758422851562
  4.5127501487731934  9.0313997268676740 45.3536758422851562
 13.5456094741821289  0.0000000000000000 45.3536758422851562
 13.5431499481201172  9.0313997268676740 45.3536758422851562
 14.2928886413574201 10.2606191635131836 33.2180747985839844
 13.3626127243041992  8.7899427413940430 33.2809219360351562
 15.7916803359985352  9.1319561004638672 34.5701446533203125
 15.3306055068969727  8.6303501129150391 36.1958503723144531
 13.4635839462280273 11.5469884872436506 35.6799049377441406
 14.5420789718627930 10.5927076339721680 36.7684173583984375
 11.8656063079833984  9.7087955474853498 35.9189071655273509
 12.2980632781982422  8.1667060852050781 35.1706123352050781
 11.3214797973632812 10.0398015975952148 33.9987525939941406
 12.3055047988891584 11.4943580627441406 34.1418609619140625
 11.4570941925048828 12.0013713836669922 32.1343612670898438
 12.7565631866455078 11.0590038299560529 31.4872894287109411
 14.7488737106323242  7.1486043930053702 33.5344238281250000
 13.6669960021972656  6.9338698387145996 34.9780883789062500
 15.3387670516967773  6.6121759414672852 35.1819229125976634
 15.7213697433471662 12.3707208633422834 35.3124580383300781
 15.4515457153320312 11.3383216857910156 33.8939857482910227
 16.5240459442138672 10.8040714263916016 35.2782630920410227
 13.9428825378417969  8.9765920639038086 37.5024375915527344
 13.3431396484375000  7.3626055717468262 37.1075668334960938
 12.3187856674194336  8.5538787841796875 37.9424743652343750
  9.9755649566650391  9.9667196273803711 32.0853157043457102
 10.5958843231201154 10.3660669326782227 30.4948902130126953
 12.8468933105468750  9.1257514953613281 29.9939441680908203
 10.1755781173706055  7.7669734954833975 33.0129508972167969
 13.9131402969360352  6.9178833961486816 29.9574089050292969
 11.2101716995239258  5.5883798599243164 33.0240097045898438
 13.1364841461181623  5.1534390449523926 31.4547996520996129
  0.1453971862792957  4.3795814514160156 34.6343650817871094
  0.0296936035156272 13.5858478546142578 34.7467041015625000
  9.0220994949340820  4.5190644264221191 34.7406196594238281
  9.0240736007690430 13.6393947601318359 34.7293243408203196
  4.4256849288940430  9.0435571670532209 34.7294082641601562
  4.4312862614169717 18.0462518706917763 34.7288436889648438
 13.6315731266513467 17.9857539758086205 34.7169303894043040
 18.0449028834700584  4.5039472579956055 40.5154876708984446
 18.0505689177662134 13.5531015396118164 40.6037292480468750
  9.0017766952514648  4.5047020912170410 40.6208953857421946
  8.9625387191772461 13.5229291915893555 40.5121803283691477
  4.4959259033203125  9.0668382644653320 40.5827941894531250
  4.4977436065673828  0.0179149173200130 40.5943450927734375
 13.6370525360107404  8.9975280761718750 40.6506042480468821
 13.5417423248290998  0.0263808704912663 40.5946731567382884
  9.0289716720581055  4.5156092643737793 46.4455223083496165
  9.0265130996704102 13.5470085144042969 46.4455223083496165
 18.0593719482421875  4.5156092643737793 46.4455223083496165
 18.0569133758544922 13.5470085144042969 46.4455223083496165
  4.5152091979980469  0.0000180629995157 46.4442062377929759
  4.5127501487731934  9.0314178466796857 46.4442062377929759
 13.5456094741821289  0.0000180629995157 46.4442062377929759
 13.5431499481201172  9.0314178466796857 46.4442062377929759
 11.3950891494750959  8.6331968307495117 31.4251003265380859
 12.4559335708618164  8.3746290206909180 30.5897827148437500
 10.9570684432983398  7.6171479225158683 32.2541618347168040
 13.1043834686279297  7.0691180229187012 30.5757274627685547
 11.5876617431640625  6.3260827064514160 32.3030738830566406
 12.6610879898071271  6.0629072189331055 31.4670410156250000
 13.4766006469726562  9.7796306610107422 33.6755142211914062
 14.9889841079711914  8.6962747573852539 35.1452140808105469
 14.3041334152221680 10.8386173248290998 35.7319107055664062
 12.6254281997680664  8.9631519317626953 35.8627700805664062
 12.1416635513305664 10.6192445755004883 33.5847167968750000
 11.8947954177856445 10.9657812118530273 32.0928802490234446
 14.6409549713134766  7.2756543159484863 34.6276321411132884
 15.5814561843872070 11.3407306671142578 34.9931869506835938
 13.0839862823486328  8.4575214385986328 37.1808967590332031
 10.8475856781005842 10.0409917831420898 31.4957122802734411
  0.8251132965087904  3.5097036361694331 35.4466247558593750
  0.8233661651611329 12.6945295333862305 35.3372611999511719
 10.0045013427734375  3.9083862304687500 35.3413162231445312
  9.6491012573242170 12.7307357788085938 35.4078979492187500
  8.1273574829101562  5.3495297431945801 35.3597602844238281
  8.1862993240356445 14.5693206787109375 35.3165473937988352
 17.4380035400390625  5.3342995643615723 35.1066474914550852
 17.4055538177490234 14.5248556137084961 35.3540725708007812
  3.6580479145050049  8.1965551376342773 35.3283996582031250
  3.5937124947085972 17.2808734178543091 35.3452033996582031
 12.8043112019076943 17.0524606704711914 35.2348976135253977
  5.4355616569519043  0.7380727529525757 35.2388916015625000
  5.3090472221374512  9.9168567657470703 35.2664947509765625
 14.3018960952758789  0.8490808010101318 35.3257064819335938
  0.7204414606094359  3.7647962570190430 41.2004852294921875
  0.7582342624664307 12.7634124755859357 41.1848144531250000
  9.7900733947753888  3.7193140983581543 41.2052192687988281
  9.8749151229858398 12.6408500671386719 40.9640541076660156
  3.6435294151306152  8.1890592575073242 41.1636314392089915
  3.7278300980105996 17.2583212852478027 41.1590003967285156
 12.8063898086547852  8.2484388351440430 41.2770195007324290
 12.7205137470737100 17.3532096743583679 41.2088775634765625
  8.1654386520385742  5.4134840965270996 41.2305107116699219
  8.1665592193603516 14.2992992401123047 41.2144622802734375
 17.1359367370605469  5.4101147651672363 40.9737434387207031
 17.2077100872993469 14.4363718032836914 41.1422233581542969
  5.3279371261596680  0.9105027914047241 41.2254753112792969
  5.2906680107116699  9.8169441223144531 41.1993560791015696
 14.4396610260009766  0.8868085145950316 41.1720428466796875
 14.4830961227416974  9.9289798736572266 41.1772384643554688
  0.8273094892501831  3.6869695186614990 47.0359649658203125
  0.8248501420021057 12.7183685302734375 47.0359649658203125
  9.8577098846435547  3.6869695186614990 47.0359649658203125
  9.8552503585815412 12.7183685302734375 47.0359649658203125
  3.6843190193176270  8.2023353576660156 47.0346527099609375
  3.6818594932556152 17.2337341308593750 47.0346527099609375
 12.7147188186645508  8.2023353576660156 47.0346527099609375
 12.7122592926025391 17.2337341308593750 47.0346527099609375
  8.2006769180297852  5.3445744514465332 47.0360260009765696
  8.1982173919677734 14.3759746551513672 47.0360260009765696
 17.2310771942138672  5.3445744514465332 47.0360260009765696
 17.2286186218261719 14.3759746551513672 47.0360260009765696
  5.3436489105224600  0.8290914893150328 47.0346527099609375
  5.3411893844604483  9.8604917526245117 47.0346527099609375
 14.3740482330322266  0.8290914893150328 47.0346527099609375
 14.3715896606445312  9.8604917526245117 47.0346527099609375
 13.8484544754028320  9.5263900756835938 35.0948486328125000
  9.0313673019409180  0.0836090371012688 34.5485000610351562
  8.7999753952026367  9.2481336593627930 34.7097930908203196
  0.0532515719532967  0.0455763116478920 34.4856300354003977
  0.2354389727115631  8.7954788208007812 34.3323783874511719
  4.5612044334411621  4.4802403450012207 34.5428771972656321
  4.5473933219909668 13.5682506561279297 34.5504684448242188
 13.6893262863159180  4.2823500633239746 34.6664657592773438
 13.3535366058349592 13.7713861465454102 34.3061561584472656
 17.9988245144486427  0.0663757249712944 40.8620986938476562
  0.0304369814693928  8.9816474914550781 40.8203239440917969
  8.9800075748935342 18.0269604064524174 40.8975639343261719
  8.9955987930297852  9.0735683441162109 40.9403343200683594
  4.5485973358154297  4.4888892173767090 40.8861427307128906
  4.5157775878906241 13.5773496627807617 40.9159011840820384
 13.5619258880615234  4.4655022621154785 40.9082145690917969
 13.4696063995361328 13.5575408935546875 40.9045257568359375
  2.6295652389526367  1.9551893472671509 38.0197296142578125
  2.6407303810119624 10.9661302566528320 37.9716186523437571
 11.6672220230102539  1.9439870119094846 37.9762954711914062
 11.4036340713500977 11.1712312698364258 38.1671104431152344
  6.3820223808288574  7.0618419647216797 38.0002479553222656
  6.4709563255310059 16.1805610656738281 37.9904556274414134
 15.7098579406738281  6.8681693077087393 38.1806564331054688
 15.4908170700073242 16.1758460998535156 37.9798316955566406
  1.9765021800994873  6.4032421112060547 37.9786911010742188
  1.8885535001754761 15.4871129989624006 37.9977760314941406
 10.7340049743652326  6.2225198745727539 38.0137138366699219
 10.9129638671875000 15.5333328247070312 38.0072784423828196
  7.1445555686950684  2.5797944068908691 37.9888267517089844
  7.0913348197937012 11.6653747558593750 38.0151100158691406
 16.0941295623779297  2.6037514209747314 37.9706611633300781
 16.3488178253173828 11.8510808944702148 38.1843185424804688
  0.0000000000000000  0.0000000000000000 47.1735610961914062
 -0.0024593239650130  9.0313997268676740 47.1735610961914062
  9.0304002761840803  0.0000000000000000 47.1735610961914062
  9.0279407501220685  9.0313997268676740 47.1735610961914062
  4.5139794349670410  4.5156998634338379 47.1742515563964844
  4.5115203857421875 13.5470991134643537 47.1742515563964844
 13.5443792343139648  4.5156998634338379 47.1742515563964844
 13.5419197082519531 13.5470991134643537 47.1742515563964844
  2.4519233703613277  2.0629522800445557 44.0401268005371165
  2.4494640827178955 11.0943517684936523 44.0401268005371165
 11.4823226928710920  2.0629522800445557 44.0401268005371165
 11.4798641204833984 11.0943517684936523 44.0401268005371165
  6.5760178565979004  6.9684472084045410 44.0401268005371165
  6.5735583305358887 15.9998464584350586 44.0401268005371165
 15.6064186096191406  6.9684472084045410 44.0401268005371165
 15.6039590835571289 15.9998464584350586 44.0401268005371165
  2.0610768795013428  6.5788145065307617 44.0400009155273509
  2.0586175918579102 15.6102142333984375 44.0400009155273509
 11.0914773941040039  6.5788145065307617 44.0400009155273509
 11.0890178680419922 15.6102142333984375 44.0400009155273509
  6.9668641090393066  2.4525938034057613 44.0400657653808665
  6.9644045829772949 11.4839935302734375 44.0400657653808665
 15.9972639083862305  2.4525938034057613 44.0400657653808665
 15.9948053359985352 11.4839935302734375 44.0400657653808665
  2.4316265583038330  2.0832188129425049 50.0684852600097656
  2.4291670322418213 11.1146183013915998 50.0684852600097656
 11.4620265960693359  2.0832188129425049 50.0684852600097656
 11.4595670700073224 11.1146183013915998 50.0684852600097656
  6.5963144302368164  6.9481806755065918 50.0684852600097656
  6.5938549041748047 15.9795799255371076 50.0684852600097656
 15.6267137527465803  6.9481806755065918 50.0684852600097656
 15.6242542266845703 15.9795799255371076 50.0684852600097656
  2.0811281204223633  6.5990090370178223 50.0690460205078125
  2.0786688327789307 15.6304082870483398 50.0690460205078125
 11.1115283966064453  6.5990090370178223 50.0690460205078125
 11.1090688705444336 15.6304082870483398 50.0690460205078125
  6.9468131065368652  2.4323906898498531 50.0690460205078125
  6.9443535804748535 11.4637899398803711 50.0690460205078125
 15.9772129058837891  2.4323906898498531 50.0690460205078125
 15.9747543334960938 11.4637899398803711 50.0690460205078125
 18.0253207059577107 18.0240432806313038 37.6992721557617188
  0.0199659466743469  9.0877161026000977 37.6963882446289062
  8.9593786457553506 18.0431744772940874 37.7098655700683665
  8.9874649047851562  9.0557470321655256 37.7240447998046875
  4.4843702316284180  4.5477685928344727 37.6958045959472656
  4.4717502593994141 13.4965229034423828 37.6693687438964844
 13.5719766616821271  4.4463191032409668 37.7113418579101562
 13.5028095245361328 13.6812076568603516 37.7620887756347656
  0.0000090280000222  0.0000090310004452 44.0429992675781250
 -0.0024502959568053  9.0314083099365234 44.0429992675781250
  9.0304088592529297  0.0000090310004452 44.0429992675781250
  9.0279493331909180  9.0314083099365234 44.0429992675781250
  4.5139703750610352  4.5156903266906738 44.0427513122558594
  4.5115113258361816 13.5470905303955078 44.0427513122558594
 13.5443706512451172  4.5156903266906738 44.0427513122558594
 13.5419111251831037 13.5470905303955078 44.0427513122558594
  0.0000000000000000  0.0000000000000000 50.4472808837890696
 -0.0024593239650130  9.0313997268676740 50.4472808837890696
  9.0304002761840803  0.0000000000000000 50.4472808837890696
  9.0279407501220685  9.0313997268676740 50.4472808837890696
  4.5139703750610352  4.5156998634338379 50.4472808837890696
  4.5115113258361816 13.5470991134643537 50.4472808837890696
 13.5443706512451172  4.5156998634338379 50.4472808837890696
 13.5419111251831055 13.5470991134643537 50.4472808837890696
