 H  C  N  I Pb 
 1.0000000000000000
    18.0608005523681641    0.0000000000000000    0.0000000000000000
    -0.0049186488613486   18.0627994537353516    0.0000000000000000
     0.0000000000000000    0.0000000000000000   62.4874992370605469
 H   C   N   I   Pb 
 143  39  47  72  24
Cartesian
  8.2262792587280273  5.5030608177185059 36.3186035156250000
  8.0504827499389648 14.5868425369262695 36.3405570983886719
 17.2353591918945312  5.4529962539672852 36.2025527954101562
 17.3674564361572266 14.6102437973022461 36.3776550292968750
  5.5417828559875488  0.8750981688499451 36.2370300292968750
  5.4266290664672843  9.9417886734008789 36.3526954650878906
 14.3240098953247053  0.9224303364753723 36.3225097656250000
  1.4312210083007844  2.9313163757324219 34.9692955017089915
  1.3944454193115272 12.0603837966918928 34.8903083801269531
 10.5637569427490234  3.1985585689544678 34.7677078247070312
 10.2907047271728498 12.1210479736328125 34.9239692687988352
  6.0126848220825186  1.3616305589675903 34.6442451477050781
  5.9131345748901367 10.5002717971801740 34.7883720397949219
 14.9057264328002930  1.4594191312789917 34.7818603515625000
  0.7903823852539071  3.5773377418518066 36.3483695983886719
  0.9713172912597676 12.7528867721557617 36.3914604187011719
 10.0864410400390625  3.8489701747894287 36.3161659240722656
  9.7693071365356445 12.6595077514648438 36.4664001464843750
  3.6586434841156006  8.0823345184326172 36.3661766052246094
  3.6306075314059854 17.2256786823272705 36.3549194335937571
 12.6189731815829873 17.0684658288955688 36.2617797851562500
  7.5345144271850586  5.8838639259338379 34.7717704772949290
  7.6886687278747550 15.1094875335693359 34.7541580200195312
 16.8505325317382812  5.8698129653930664 34.5251770019531250
 16.7179794311523438 15.0734720230102539 34.8089408874511719
  3.1136012077331543  7.5540394783020020 34.8094520568847656
  2.9872171143069863 16.7115772962570190 34.8308753967285156
 12.2042068699374777 16.4821531772613525 34.6855468750000000
  8.9828357696533203  4.5338745117187500 33.6163215637207031
  9.0533981323242188 13.5892124176025391 33.6990814208984375
  0.2001667022705094  4.3529376983642578 33.6095199584961009
  0.0232639312744125 13.5594768524169922 33.6791152954101634
  4.4850254058837891  9.0305852890014648 33.7148551940917969
  4.4520807266235352  0.0037486925721169 33.6564331054687571
 13.6028608540073037 17.9703756198287010 33.6525230407714915
  8.0771474838256836  5.4744410514831543 42.1895942687988352
  8.1407079696655273 14.3037376403808594 42.1805076599121165
 17.0619696974754333  5.5027980804443359 41.9757118225097656
 17.1077322959899902 14.4897270202636719 42.1211357116699219
  5.4574255943298340  0.9282060265541077 42.1773071289062500
  5.4323978424072266  9.9146881103515625 42.1941490173339844
 14.4755487442016602  0.9845750331878662 42.1891822814941477
 14.4940452575683594 10.0322465896606445 42.1599731445312500
  1.3865965604782104  3.1450979709625240 40.6568832397460938
  1.3254699707031250 12.0743036270141584 40.6216278076171875
 10.4731416702270508  3.1720116138458252 40.6057205200195384
 10.5276861190795898 12.1653575897216779 40.3152160644531250
  2.9682979583740234  7.6839423179626465 40.6116447448730469
  3.0711728790774937 16.6457265615463292 40.6347923278808665
 12.1505413055419922  7.5075244903564453 40.6554107666015625
 12.1226724842563272 16.6916681528091431 40.6117553710937500
  0.8118055462837219  3.7134506702423091 42.1802330017089844
  0.8713350296020508 12.6133527755737305 42.1714057922363352
 10.0048894882202148  3.6399748325347900 42.1918716430664134
 10.0355539321899396 12.6043481826782227 41.9909629821777344
  3.4656410217285156  8.1540660858154297 42.1943778991699219
  3.5717326859012246 17.1391269564628601 42.2093162536621165
 12.6406793594360352  8.1488227844238281 42.2173881530761790
 12.6199135044589639 17.1653693914413452 42.1934318542480469
  7.6157522201538086  5.9817147254943848 40.6075782775878906
  7.5389194488525391 14.8462677001953125 40.6585044860839915
 16.5913896560668945  5.9679102897644043 40.3179626464843821
 16.5946308374404907 14.9474525451660156 40.5662498474121094
  5.9315528869628906  1.3943074941635132 40.5862693786621094
  5.9544534683227539 10.3566389083862305 40.6112594604492259
 14.9374551773071271  1.4863042831420898 40.6053581237792969
 15.0359239578247053 10.4404201507568359 40.5483360290527344
  0.0203612633049488  4.4949402809143066 39.3888587951660156
 17.9067934751510620 13.4348812103271484 39.4646644592285156
  9.0738277435302734  4.6114649772644043 39.4815902709960938
  9.0164594650268555 13.5229434967041016 39.3828964233398509
  4.4973673084750772 18.0494316825643182 39.5002059936523438
  4.4748044013977051  8.9574213027954102 39.5017852783203125
 13.5113792419433594  0.1205508932471275 39.4989738464355540
 13.7024221420288086  8.9239654541015625 39.5523262023925781
  8.1032123565673828  5.4420318603515616 48.0459518432617259
  8.1007528305053711 14.4734306335449219 48.0459518432617259
 17.1336116790771484  5.4420318603515616 48.0459518432617259
 17.1311531066894531 14.4734306335449219 48.0459518432617259
  5.4410333633422852  0.9265221953392029 48.0449485778808594
  5.4385743141174316  9.9579219818115234 48.0449485778808594
 14.4714326858520490  0.9265221953392029 48.0449485778808594
 14.4689741134643555  9.9579219818115234 48.0449485778808594
  1.4218254089355467  3.0919990539550781 46.4558296203613281
  1.4193661212921143 12.1233978271484375 46.4558296203613281
 10.4522256851196289  3.0919990539550781 46.4558296203613281
 10.4497661590576172 12.1233978271484375 46.4558296203613281
  3.0899283885955806  7.6075901985168457 46.4545211791992188
  3.0874691009521484 16.6389904022216797 46.4545211791992188
 12.1203289031982422  7.6075901985168457 46.4545211791992188
 12.1178693771362305 16.6389904022216797 46.4545211791992188
  0.9247469902038573  3.5893490314483643 48.0459518432617259
  0.9222877025604248 12.6207475662231445 48.0459518432617259
  9.9551477432250977  3.5893490314483643 48.0459518432617259
  9.9526882171630859 12.6207475662231445 48.0459518432617259
  3.5868983268737793  8.1048498153686523 48.0448913574218821
  3.5844390392303462 17.1362495422363281 48.0448913574218821
 12.6172990798950195  8.1048498153686523 48.0448913574218821
 12.6148395538330078 17.1362495422363281 48.0448913574218821
  7.6061611175537109  5.9393639564514160 46.4558296203613281
  7.6037015914916992 14.9707632064819336 46.4558296203613281
 16.6365604400634766  5.9393639564514160 46.4558296203613281
 16.6341018676757812 14.9707632064819336 46.4558296203613281
  5.9380125999450684  1.4238001108169553 46.4545211791992188
  5.9355530738830566 10.4551992416381836 46.4545211791992188
 14.9684123992919904  1.4238001108169553 46.4545211791992188
 14.9659538269042951 10.4551992416381836 46.4545211791992188
 -0.0011664569610730  4.5157265663146973 45.3548011779785156
 -0.0036257810425013 13.5471258163452148 45.3548011779785156
  9.0292339324951172  4.5157265663146973 45.3548011779785156
  9.0267744064331037 13.5471258163452148 45.3548011779785156
  4.5152091979980469  0.0000000000000000 45.3536758422851562
  4.5127501487731934  9.0313997268676740 45.3536758422851562
 13.5456094741821289  0.0000000000000000 45.3536758422851562
 13.5431499481201172  9.0313997268676740 45.3536758422851562
 14.3601188659667969 10.3389520645141602 33.3693351745605469
 13.3853435516357404  8.8276357650756836 33.2948837280273438
 15.7642841339111328  9.1561546325683594 34.7452850341796875
 15.2724952697753906  8.6965131759643555 36.3110961914062500
 13.5524053573608398 11.5371026992797852 35.7781219482421946
 14.4893493652343732 10.5719785690307617 36.8591308593750071
 11.9975891113281250  9.7718639373779297 35.9720039367675781
 12.2858743667602539  8.2003059387207031 35.2724380493164134
 11.3417253494262695 10.1185903549194336 33.9841842651367188
 12.4260320663452148 11.5438413619995117 34.2506828308105469
 11.5226154327392578 12.0775585174560547 32.1239318847656250
 12.8388853073120117 11.0641841888427734 31.5278987884521484
 14.6221361160278303  7.2217416763305655 33.6869506835937571
 13.7466135025024414  6.9093284606933594 35.1503829956054688
 15.4151000976562500  6.6942610740661621 35.2079238891601562
 15.7114019393920898 12.3503017425537109 35.5878028869628906
 15.5347719192504883 11.5141181945800781 34.0556831359863281
 16.4702682495117188 10.8026990890502930 35.3937568664550852
 13.9381542205810547  9.0203905105590820 37.6502494812011719
 13.3118047714233398  7.4414815902709961 37.1370162963867188
 12.2997627258300781  8.5984487533569336 37.9089012145996094
  9.9948034286499023 10.0755691528320312 32.1669425964355469
 10.6392879486083984 10.4471187591552734 30.5444412231445348
 12.9231901168823242  9.0742931365966797 29.8927421569824219
 10.4258337020874023  7.9481315612792969 33.1416130065917969
 13.9367866516113281  6.7888193130493164 29.9311408996582031
 11.4117021560668945  5.7921104431152344 33.2537155151367188
 13.2086038589477539  5.1487951278686523 31.6401653289794922
  0.0892829895019536  4.4242353439331055 34.6927185058593750
  0.0327396392822307 13.6127014160156250 34.7540855407714844
  9.0287370681762695  4.5510659217834473 34.6915054321289062
  8.9823932647705078 13.6066389083862305 34.7837867736816406
  4.5199508666992179  9.0351333618164045 34.7624015808105540
  4.5083799362182617  0.0120599847286940 34.7007484436035156
 13.5473264912143332 17.9941384270787239 34.6975898742675852
 18.0211256220936811  4.5547823905944824 40.4598884582519531
 17.9811583235859871 13.5155448913574219 40.5342979431152344
  9.0373430252075178  4.5850424766540527 40.5679130554199219
  9.0316314697265625 13.5073137283325195 40.4590568542480469
  4.4535336494445801  9.0126838684082031 40.5754318237304688
  4.5063633183017373 18.0587507798336446 40.5742988586425781
 13.6233568191528320  9.0040559768676758 40.5903854370117188
 13.5397796630859357  0.0656435415148735 40.5724678039550781
  9.0289716720581055  4.5156092643737793 46.4455223083496165
  9.0265130996704102 13.5470085144042969 46.4455223083496165
 18.0593719482421875  4.5156092643737793 46.4455223083496165
 18.0569133758544922 13.5470085144042969 46.4455223083496165
  4.5152091979980469  0.0000180629995157 46.4442062377929759
  4.5127501487731934  9.0314178466796857 46.4442062377929759
 13.5456094741821289  0.0000180629995157 46.4442062377929759
 13.5431499481201172  9.0314178466796857 46.4442062377929759
 11.4954090118408203  8.6612749099731445 31.4629096984863281
 12.5579862594604492  8.3068399429321289 30.6113967895507848
 11.1325788497924805  7.7058706283569336 32.4079475402832031
 13.1158685684204102  7.0501489639282218 30.6381855010986364
 11.6962747573852539  6.4678373336791992 32.4643707275390625
 12.7013874053955060  6.1256914138793945 31.5780677795410156
 13.4927444458007795  9.8137063980102539 33.7908973693847656
 14.9705400466918945  8.6784152984619141 35.2863845825195312
 14.3867063522338867 10.8654003143310547 35.8106193542480469
 12.7067623138427734  8.9542808532714844 35.9297409057617188
 12.2474603652954102 10.6238222122192383 33.6390876770019602
 11.9229307174682617 11.0198516845703125 32.1784477233886719
 14.6477890014648438  7.3250370025634757 34.7712821960449290
 15.5815057754516584 11.3813228607177734 35.1326599121093750
 13.0796718597412109  8.4764280319213867 37.2187538146972656
 10.9255332946777344 10.0603733062744141 31.5380115509033203
  0.8164348602294951  3.6137735843658447 35.3739395141601634
  0.8254642486572242 12.7381992340087873 35.3649177551269602
  9.9457321166992188  3.8610851764678955 35.2882652282714915
  9.6815853118896484 12.7385883331298828 35.4393920898437500
  8.2076730728149414  5.3472461700439453 35.2943077087402344
  8.1910800933837891 14.4676198959350586 35.3168792724609375
 17.3471221923828125  5.3200354576110840 35.1812324523925781
 17.3418540954589844 14.5091238021850586 35.3494491577148438
  3.7307074069976807  8.1864585876464844 35.3668708801269531
  3.6722962120547891 17.3040450811386108 35.3516616821289062
 12.7541460255160928 17.1474087238311803 35.2683868408203196
  5.3927025794982910  0.7820232510566711 35.2462921142578196
  5.3209571838378906  9.8593645095825195 35.3552284240722656
 14.2919569015502930  0.8095950484275818 35.3223571777343821
  0.7687284350395203  3.7557795047760010 41.2124481201171875
  0.7669823169708252 12.6970014572143537 41.1706352233886719
  9.8776493072509748  3.7379796504974365 41.1804084777832102
  9.9203329086303711 12.7090158462524396 40.9712905883789062
  3.6360805034637451  8.2336664199829102 41.1677436828613281
  3.6611687401309609 17.2271729111671448 41.1805496215820312
 12.7696752548217773  8.1878204345703125 41.1892471313476562
 12.7049030521884561 17.2727813720703125 41.1661605834960938
  8.2077817916870117  5.3809366226196289 41.1628036499023438
  8.1977844238281250 14.2544059753417969 41.1438827514648438
 17.1727645993232763  5.3935737609863281 40.9578475952148509
 17.1960301399230957 14.3783998489379883 41.1557388305664062
  5.3354897499084473  0.8073806762695312 41.1521224975585938
  5.3380193710327148  9.8133945465087891 41.1670532226562571
 14.3525819778442383  0.8798530101776122 41.1623458862304688
 14.4103794097900391  9.8607816696166992 41.1980323791503906
  0.8273094892501831  3.6869695186614990 47.0359649658203125
  0.8248501420021057 12.7183685302734375 47.0359649658203125
  9.8577098846435547  3.6869695186614990 47.0359649658203125
  9.8552503585815412 12.7183685302734375 47.0359649658203125
  3.6843190193176270  8.2023353576660156 47.0346527099609375
  3.6818594932556152 17.2337341308593750 47.0346527099609375
 12.7147188186645508  8.2023353576660156 47.0346527099609375
 12.7122592926025391 17.2337341308593750 47.0346527099609375
  8.2006769180297852  5.3445744514465332 47.0360260009765696
  8.1982173919677734 14.3759746551513672 47.0360260009765696
 17.2310771942138672  5.3445744514465332 47.0360260009765696
 17.2286186218261719 14.3759746551513672 47.0360260009765696
  5.3436489105224600  0.8290914893150328 47.0346527099609375
  5.3411893844604483  9.8604917526245117 47.0346527099609375
 14.3740482330322266  0.8290914893150328 47.0346527099609375
 14.3715896606445312  9.8604917526245117 47.0346527099609375
 13.8701257705688459  9.6184186935424805 35.2498626708984375
  8.9549268940463662 18.0438533984124660 34.6030387878417969
  8.9098186492919922  9.1454229354858398 34.6051788330078125
  0.1054063672199845 18.0430230610072648 34.5554924011230540
  0.1175707131624222  8.9131488800048828 34.3798103332519531
  4.4941391944885254  4.5325016975402832 34.6023139953613281
  4.4921364784240723 13.5196094512939435 34.6081771850585938
 13.6495199203491211  4.3973617553710938 34.6016921997070384
 13.4318466186523438 13.6642274856567365 34.3779754638671875
 17.9507852429524100 18.0340420883148909 40.9062271118164062
  0.0237357988953590  8.9177780151367188 40.8903312683105469
  8.9191669682040811 18.0413857381790912 40.8858833312988281
  9.0535831451416016  8.9937496185302734 40.8444328308105469
  4.4980745315551758  4.5314545631408691 40.8834152221679688
  4.4960269927978516 13.5304307937622070 40.9056434631347656
 13.5258960723876935  4.5317006111145020 40.9059257507324219
 13.5619440078735334 13.5666809082031250 40.8384628295898438
  2.5685019493103027  1.9147094488143921 37.9265747070312571
  2.5605728626251221 10.9430742263793945 37.8974304199218750
 11.5986242294311523  1.9138451814651489 37.9251556396484375
 11.4979867935180664 11.0754823684692383 38.0715522766113352
  6.4597606658935547  7.1181468963623047 37.9159545898437571
  6.4246664047241202 16.1150398254394531 37.9058609008789062
 15.5931844711303693  6.9811553955078125 38.0745658874511719
 15.4474534988403320 16.1017570495605469 37.9141578674316406
  1.9133646488189697  6.4633808135986328 37.9221839904785156
  1.9096488952636717 15.4166717529296875 37.9170570373535156
 10.8411188125610352  6.3276624679565430 38.0388107299804688
 10.9789323806762678 15.4583549499511719 37.9239349365234375
  7.0805020332336426  2.5608866214752197 37.9346961975097727
  7.0785293579101562 11.5964107513427734 37.9328498840332031
 16.1478519439697266  2.5655777454376221 37.9295883178710938
 16.2446880340576172 11.7361202239990234 38.0772285461425781
  0.0000000000000000  0.0000000000000000 47.1735610961914062
 -0.0024593239650130  9.0313997268676740 47.1735610961914062
  9.0304002761840803  0.0000000000000000 47.1735610961914062
  9.0279407501220685  9.0313997268676740 47.1735610961914062
  4.5139794349670410  4.5156998634338379 47.1742515563964844
  4.5115203857421875 13.5470991134643537 47.1742515563964844
 13.5443792343139648  4.5156998634338379 47.1742515563964844
 13.5419197082519531 13.5470991134643537 47.1742515563964844
  2.4519233703613277  2.0629522800445557 44.0401268005371165
  2.4494640827178955 11.0943517684936523 44.0401268005371165
 11.4823226928710920  2.0629522800445557 44.0401268005371165
 11.4798641204833984 11.0943517684936523 44.0401268005371165
  6.5760178565979004  6.9684472084045410 44.0401268005371165
  6.5735583305358887 15.9998464584350586 44.0401268005371165
 15.6064186096191406  6.9684472084045410 44.0401268005371165
 15.6039590835571289 15.9998464584350586 44.0401268005371165
  2.0610768795013428  6.5788145065307617 44.0400009155273509
  2.0586175918579102 15.6102142333984375 44.0400009155273509
 11.0914773941040039  6.5788145065307617 44.0400009155273509
 11.0890178680419922 15.6102142333984375 44.0400009155273509
  6.9668641090393066  2.4525938034057613 44.0400657653808665
  6.9644045829772949 11.4839935302734375 44.0400657653808665
 15.9972639083862305  2.4525938034057613 44.0400657653808665
 15.9948053359985352 11.4839935302734375 44.0400657653808665
  2.4316265583038330  2.0832188129425049 50.0684852600097656
  2.4291670322418213 11.1146183013915998 50.0684852600097656
 11.4620265960693359  2.0832188129425049 50.0684852600097656
 11.4595670700073224 11.1146183013915998 50.0684852600097656
  6.5963144302368164  6.9481806755065918 50.0684852600097656
  6.5938549041748047 15.9795799255371076 50.0684852600097656
 15.6267137527465803  6.9481806755065918 50.0684852600097656
 15.6242542266845703 15.9795799255371076 50.0684852600097656
  2.0811281204223633  6.5990090370178223 50.0690460205078125
  2.0786688327789307 15.6304082870483398 50.0690460205078125
 11.1115283966064453  6.5990090370178223 50.0690460205078125
 11.1090688705444336 15.6304082870483398 50.0690460205078125
  6.9468131065368652  2.4323906898498531 50.0690460205078125
  6.9443535804748535 11.4637899398803711 50.0690460205078125
 15.9772129058837891  2.4323906898498531 50.0690460205078125
 15.9747543334960938 11.4637899398803711 50.0690460205078125
  0.0161002147942781  0.0184430051594973 37.6618576049804688
  0.0458891503512859  9.0152416229248047 37.7095870971679688
  9.0491561889648438  0.0180856771767139 37.7024307250976562
  8.9756441116333008  9.0143032073974609 37.6800231933593750
  4.5303392410278320  4.5000209808349609 37.6722869873046875
  4.5281605720520020 13.5627250671386719 37.6998100280761719
 13.5288448333740217  4.4398794174194336 37.6468696594238281
 13.4768381118774414 13.6429500579833984 37.7285346984863281
  0.0000090280000222  0.0000090310004452 44.0429992675781250
 -0.0024502959568053  9.0314083099365234 44.0429992675781250
  9.0304088592529297  0.0000090310004452 44.0429992675781250
  9.0279493331909180  9.0314083099365234 44.0429992675781250
  4.5139703750610352  4.5156903266906738 44.0427513122558594
  4.5115113258361816 13.5470905303955078 44.0427513122558594
 13.5443706512451172  4.5156903266906738 44.0427513122558594
 13.5419111251831037 13.5470905303955078 44.0427513122558594
  0.0000000000000000  0.0000000000000000 50.4472808837890696
 -0.0024593239650130  9.0313997268676740 50.4472808837890696
  9.0304002761840803  0.0000000000000000 50.4472808837890696
  9.0279407501220685  9.0313997268676740 50.4472808837890696
  4.5139703750610352  4.5156998634338379 50.4472808837890696
  4.5115113258361816 13.5470991134643537 50.4472808837890696
 13.5443706512451172  4.5156998634338379 50.4472808837890696
 13.5419111251831055 13.5470991134643537 50.4472808837890696
