 H  C  N  I Pb 
 1.0000000000000000
    18.0608005523681641    0.0000000000000000    0.0000000000000000
    -0.0049186488613486   18.0627994537353516    0.0000000000000000
     0.0000000000000000    0.0000000000000000   62.4874992370605469
 H   C   N   I   Pb 
 143  39  47  72  24
Cartesian
  8.0977964401245117  5.3994774818420410 36.3362007141113281
  7.9222984313964844 14.3374261856079102 36.3439559936523438
 17.0377960205078125  5.3609938621520996 36.4380340576171875
 17.2068271636962891 14.4332628250122070 36.2873039245605540
  5.4002285003662109  0.9199644923210144 36.3131904602050781
  5.4581775665283203 10.1856393814086914 36.2893562316894531
 14.3356313705444336  1.0731930732727051 36.3109321594238281
  1.4099712371826147  3.1316297054290771 34.8858375549316477
  1.6047439575195344 12.2565364837646484 34.7576637268066406
 10.6355323791503906  3.2988364696502686 34.8180236816406250
 10.5293989181518555 12.4126405715942383 34.8241806030273438
  6.0559725761413574  1.2391333580017090 34.7613258361816477
  5.8100790977478027 10.6113271713256836 34.6684303283691406
 14.9335708618164062  1.4893096685409546 34.7594642639160156
  1.0466060638427728  3.6744101047515869 36.4359855651855540
  0.8766994476318358 12.7073698043823242 36.2842979431152415
  9.9951982498168945  3.7276980876922607 36.3347854614257884
  9.8624267578125000 12.7164335250854492 36.4042358398437571
  3.7958254814147949  8.2048511505126953 36.5297775268554759
  3.4025723198428746 17.3168455362319946 36.3107719421386719
 12.6582245090976357 17.1524688005447388 36.3133430480957031
  7.4853878021240234  5.8987689018249512 34.8050956726074219
  7.4952287673950195 14.9798812866210938 34.7951278686523438
 16.4325370788574219  5.6978535652160636 34.8674926757812500
 16.7378444671630859 15.1321649551391602 34.7570800781250000
  3.2498242855072021  7.5493474006652832 35.0422058105468750
  2.9734305599704385 16.7318842411041260 34.7574768066406250
 12.3437418201938272 16.4853558540344238 34.7626953125000000
  9.0486259460449219  4.6374425888061515 33.6504211425781321
  9.1292457580566406 13.7475261688232422 33.6667098999023438
 17.8314590454101562  4.2370233535766602 33.8160858154296946
  0.2290496826171879 13.7801933288574201 33.5923995971679688
  4.4509034156799316  8.9831895828247070 33.7401237487792969
  4.5792249897494912 17.9085894227027893 33.6469841003418040
 13.7508081654086709 17.9447354227304459 33.6501693725585938
  8.0672521591186523  5.4881491661071777 42.0616722106933594
  8.0547037124633789 14.3949022293090820 42.1689529418945384
 17.0273922681808507  5.5022478103637695 41.9510002136230469
 17.0904738903045654 14.4871826171875000 42.1578369140625000
  5.4149398803710938  0.9275043010711670 42.1861381530761719
  5.5039629936218253  9.9488334655761719 42.1544342041015625
 14.5866546630859375  1.0589559078216553 42.0650596618652344
 14.3904132843017578 10.0387134552001953 42.0485763549804688
  1.3790140151977539  3.0533695220947266 40.6863479614257812
  1.3995900154113770 12.1361017227172834 40.5638847351074290
 10.4669723510742188  3.1331546306610107 40.6387863159179688
 10.3254652023315430 12.1664371490478516 40.4920692443847656
  3.1034231185913086  7.6254582405090323 40.6117210388183594
  3.1128331879153843 16.5847778320312500 40.6109504699707031
 12.1494903564453125  7.4160861968994141 40.8779907226562500
 12.1400951603427529 16.6969799995422363 40.7597999572753977
  0.7403860688209534  3.6483139991760254 42.1802177429199219
  0.8931522369384766 12.6352653503417969 42.1367568969726562
  9.8676614761352539  3.6245160102844238 42.1869239807128906
  9.8921728134155273 12.5940380096435547 42.1252593994140625
  3.6583971977233887  8.1486864089965820 42.1844749450683594
  3.6105782249942422 17.1427522897720337 42.1908569335937500
 12.7087869644165039  8.0674467086791992 42.3788528442382812
 12.7352890232577902 17.3343676328659058 42.2745742797851562
  7.6377577781677237  6.0483517646789551 40.4464759826660156
  7.5113000869750977 14.9882860183715820 40.6174392700195312
 16.6281633377075195  5.9090542793273926 40.2719192504882884
 16.5391929149627721 14.9695816040039062 40.5947189331054759
  5.9528217315673828  1.4360232353210449 40.6035003662109375
  6.0141825675964355 10.4643383026123047 40.5638084411621165
 14.9900951385498047  1.4447679519653320 40.4414291381836009
 14.7356519699096680 10.4692983627319336 40.4379158020019602
  0.0505390986800194  4.4487342834472656 39.3866500854492259
 17.9328888952732086 13.5374126434326154 39.4388542175292969
  9.1459054946899414  4.5966958999633789 39.4355773925781250
  8.9372091293334961 13.6255502700805664 39.4315757751464844
  4.5548515319824219  0.0056753344833851 39.4961357116699219
  4.5854272842407227  9.0463638305664062 39.4768142700195312
 13.5575456619262695  0.0018637478351593 39.4842414855957102
 13.2731504440307617  8.7804327011108398 39.5905075073242188
  8.1032123565673828  5.4420318603515616 48.0459518432617259
  8.1007528305053711 14.4734306335449219 48.0459518432617259
 17.1336116790771484  5.4420318603515616 48.0459518432617259
 17.1311531066894531 14.4734306335449219 48.0459518432617259
  5.4410333633422852  0.9265221953392029 48.0449485778808594
  5.4385743141174316  9.9579219818115234 48.0449485778808594
 14.4714326858520490  0.9265221953392029 48.0449485778808594
 14.4689741134643555  9.9579219818115234 48.0449485778808594
  1.4218254089355467  3.0919990539550781 46.4558296203613281
  1.4193661212921143 12.1233978271484375 46.4558296203613281
 10.4522256851196289  3.0919990539550781 46.4558296203613281
 10.4497661590576172 12.1233978271484375 46.4558296203613281
  3.0899283885955806  7.6075901985168457 46.4545211791992188
  3.0874691009521484 16.6389904022216797 46.4545211791992188
 12.1203289031982422  7.6075901985168457 46.4545211791992188
 12.1178693771362305 16.6389904022216797 46.4545211791992188
  0.9247469902038573  3.5893490314483643 48.0459518432617259
  0.9222877025604248 12.6207475662231445 48.0459518432617259
  9.9551477432250977  3.5893490314483643 48.0459518432617259
  9.9526882171630859 12.6207475662231445 48.0459518432617259
  3.5868983268737793  8.1048498153686523 48.0448913574218821
  3.5844390392303462 17.1362495422363281 48.0448913574218821
 12.6172990798950195  8.1048498153686523 48.0448913574218821
 12.6148395538330078 17.1362495422363281 48.0448913574218821
  7.6061611175537109  5.9393639564514160 46.4558296203613281
  7.6037015914916992 14.9707632064819336 46.4558296203613281
 16.6365604400634766  5.9393639564514160 46.4558296203613281
 16.6341018676757812 14.9707632064819336 46.4558296203613281
  5.9380125999450684  1.4238001108169553 46.4545211791992188
  5.9355530738830566 10.4551992416381836 46.4545211791992188
 14.9684123992919904  1.4238001108169553 46.4545211791992188
 14.9659538269042951 10.4551992416381836 46.4545211791992188
 -0.0011664569610730  4.5157265663146973 45.3548011779785156
 -0.0036257810425013 13.5471258163452148 45.3548011779785156
  9.0292339324951172  4.5157265663146973 45.3548011779785156
  9.0267744064331037 13.5471258163452148 45.3548011779785156
  4.5152091979980469  0.0000000000000000 45.3536758422851562
  4.5127501487731934  9.0313997268676740 45.3536758422851562
 13.5456094741821289  0.0000000000000000 45.3536758422851562
 13.5431499481201172  9.0313997268676740 45.3536758422851562
 14.2279062271118164  9.6491661071777326 32.9486694335937500
 15.7688627243041992  9.4810771942138672 33.6105155944824219
 14.2089138031005842 11.4789991378784180 34.0580215454101634
 14.1773271560668945 11.6140317916870117 35.8107070922851562
 12.4691905975341779  8.6784172058105469 35.3512496948242188
 12.4042539596557599 10.3913049697875959 35.7296752929687571
 14.4919910430908203  7.9937925338745117 35.9535789489746094
 15.7573442459106445  9.1392745971679688 36.2706069946289134
 15.3793926239013672  7.2223672866821289 34.3611526489257812
 13.7148437499999982  7.2442712783813477 33.9535179138183594
 14.1293354034423828  7.4245944023132315 31.5721817016601562
 15.7588796615600586  7.9907026290893546 31.7611389160156286
 16.5735397338867188 11.5852041244506836 33.9679489135742259
 16.6672992706298828 10.8675460815429688 35.5879287719726562
 16.1083030700683594 12.4407539367675781 35.4878997802734375
 10.9885139465332031 10.0659885406494123 33.8530349731445312
 12.0792741775512695  9.1083908081054670 32.9136047363281250
 12.4558200836181641 10.8647041320800781 33.2641296386718750
 13.0967502593994141  8.6909208297729492 37.6029129028320312
 13.4771919250488281 10.3972196578979492 37.3619766235351562
 14.5879001617431641  9.4752063751220703 38.2402763366699219
 15.0090198516845703  5.1661262512207022 32.5699424743652344
 15.1800994873046875  5.5046477317810059 30.9135036468505859
 17.1114120483398438  3.6247801780700679 31.1919555664062500
 17.4245166778564453  7.5263233184814453 32.7531242370605469
  1.4937572479248045  3.3317089080810547 31.5282897949218750
  1.7984085083007824  7.2983736991882324 33.1641082763671946
  2.8822631835937482  5.1025266647338867 32.5254020690917969
 17.9315776824951172  4.3358745574951172 34.8648414611816406
  0.1810226440429683 13.7388744354248047 34.6983261108398438
  9.0579004287719727  4.5732984542846671 34.7386093139648438
  9.0358610153198242 13.6574382781982404 34.7548828125000071
  4.5148620605468750  9.0629520416259748 34.8015174865722656
  4.5286254147067666 17.9983109459280968 34.7108459472656250
 13.6549953678622842 18.0051943846046925 34.7133712768554688
 18.0349817685782909  4.4811754226684570 40.4725799560546946
 18.0130097717046773 13.5390605926513672 40.5571403503417969
  9.0658187866210938  4.5757670402526855 40.5503273010253906
  8.9724082946777344 13.5541067123413068 40.5447959899902344
  4.5452995300292969  9.0315456390380859 40.5949287414550781
  4.5163521030917764 18.0285452120006084 40.6132164001464844
 13.4378423690795881  8.9368867874145508 40.6360778808593750
 13.5873146057128888  0.0309357717633247 40.6027984619140625
  9.0289716720581055  4.5156092643737793 46.4455223083496165
  9.0265130996704102 13.5470085144042969 46.4455223083496165
 18.0593719482421875  4.5156092643737793 46.4455223083496165
 18.0569133758544922 13.5470085144042969 46.4455223083496165
  4.5152091979980469  0.0000180629995157 46.4442062377929759
  4.5127501487731934  9.0314178466796857 46.4442062377929759
 13.5456094741821289  0.0000180629995157 46.4442062377929759
 13.5431499481201172  9.0314178466796857 46.4442062377929759
 17.0829925537109375  5.6366138458251953 31.9754981994628906
 17.6903629302978516  4.4053058624267578 31.5979747772216832
 17.8854007720947266  6.6147150993347168 32.5018081665039062
  1.0307464599609368  4.2485718727111816 31.7941684722900426
  1.2227382659912103  6.4670886993408203 32.6864280700683594
  1.7998580932617203  5.2836165428161621 32.2872505187988281
 14.7403240203857422  9.1848392486572266 33.7440795898437500
 14.6545095443725568 11.1117792129516584 34.9905128479003906
 12.7341213226318359  9.6753969192504883 34.9650611877441406
 14.6821537017822266  9.0012998580932617 36.2333564758300781
 14.6784172058105469  7.6318845748901367 33.6616401672363352
 15.0373468399047852  7.3104400634765625 32.1523323059082031
 16.1103172302246094 11.5017099380493146 34.9414329528808594
 12.0341510772705078  9.9562854766845703 33.6451110839843750
 13.9313001632690430  9.4426422119140607 37.4277992248535156
 15.5240316390991211  5.8178615570068359 31.8846244812011754
  0.8049259185791021  3.6691343784332275 35.4267768859863281
  0.9241619110107429 12.8462114334106445 35.3015289306640696
  9.8898591995239258  3.8017652034759517 35.3460197448730540
  9.8478260040283203 12.8824186325073242 35.4051322937011719
  8.1377429962158203  5.3360400199890128 35.3617019653320312
  8.0628213882446289 14.3700447082519531 35.3639869689941406
 17.1039276123046875  5.1586041450500479 35.4314002990722656
 17.3393344879150391 14.4693145751953125 35.3028221130371094
  3.8076710700988765  8.2159805297851562 35.4841995239257812
  3.5660535553470254 17.3029197454452515 35.2773017883300781
 12.8233589390292764 17.1585098505020142 35.2813453674316406
  5.3871741294860831  0.7572947144508362 35.2798614501953196
  5.3179416656494132 10.0208148956298828 35.2645492553710938
 14.3556432723999023  0.9027274250984192 35.2786979675292969
  0.7213183641433716  3.7207944393157959 41.1538200378418040
  0.7739063501358032 12.7614488601684553 41.1280517578125071
  9.8046236038208008  3.7536098957061768 41.1656188964843750
  9.8085823059082031 12.7597808837890625 41.0847511291503977
  3.7417168617248535  8.2416095733642578 41.1981163024902344
  3.7186023453250527 17.2255310416221619 41.2058868408203125
 12.7102861404418945  8.0754165649414062 41.3743705749511719
 12.7934822300449014 17.3529964685440063 41.2825775146484446
  8.1743307113647461  5.4311499595642090 41.0814819335937500
  8.1165027618408203 14.3711576461791992 41.1827125549316406
 17.1476759314537048  5.3816390037536621 40.9222602844238281
 17.1593865156173706 14.3871221542358398 41.1600608825683594
  5.3310680389404297  0.8147578835487366 41.2026634216308665
  5.4184679985046387  9.8765153884887695 41.1721076965332031
 14.4740762710571289  0.9113837480545044 41.0951347351074219
 14.2594165802001935  9.8393783569335938 41.0616722106933665
  0.8273094892501831  3.6869695186614990 47.0359649658203125
  0.8248501420021057 12.7183685302734375 47.0359649658203125
  9.8577098846435547  3.6869695186614990 47.0359649658203125
  9.8552503585815412 12.7183685302734375 47.0359649658203125
  3.6843190193176270  8.2023353576660156 47.0346527099609375
  3.6818594932556152 17.2337341308593750 47.0346527099609375
 12.7147188186645508  8.2023353576660156 47.0346527099609375
 12.7122592926025391 17.2337341308593750 47.0346527099609375
  8.2006769180297852  5.3445744514465332 47.0360260009765696
  8.1982173919677734 14.3759746551513672 47.0360260009765696
 17.2310771942138672  5.3445744514465332 47.0360260009765696
 17.2286186218261719 14.3759746551513672 47.0360260009765696
  5.3436489105224600  0.8290914893150328 47.0346527099609375
  5.3411893844604483  9.8604917526245117 47.0346527099609375
 14.3740482330322266  0.8290914893150328 47.0346527099609375
 14.3715896606445312  9.8604917526245117 47.0346527099609375
 14.2079868316650373  9.7146453857421875 35.0150680541992259
  8.9663953781127930  0.0129563109949231 34.5757560729980469
  8.8478946685791016  8.8543748855590820 34.5633087158203196
 17.9693315112963319 18.0342603847384453 34.5472335815429688
  0.1710807085037231  9.0567255020141584 34.6485290527343750
  4.6730189323425293  4.4676342010498047 34.6155548095703196
  4.5265264511108398 13.5566167831420898 34.5116577148437500
 13.3835029602050763  4.3479580879211426 34.6442718505859375
 13.3691301345825195 13.7202682495117188 34.3215103149414062
 18.0306365611031651 17.9765925332903862 40.8916473388671875
 18.0182201825082338  9.0060873031616211 40.8794212341308665
  8.9476703861728311 17.9774460345506668 40.8878211975097656
  9.0104398727416992  9.0102014541625977 40.8659820556640696
  4.5271315574645996  4.4915461540222168 40.8741950988769531
  4.5237426757812500 13.4772577285766584 40.8550186157226562
 13.5331478118896467  4.4803829193115234 40.8816070556640696
 13.5402574539184570 13.5422334671020508 40.8773345947265625
  2.6008870601654053  1.8422716856002808 37.9389114379882812
  2.5948288440704346 10.9733324050903320 37.9238739013671875
 11.6366825103759766  1.9507116079330442 37.9736289978027415
 11.4371700286865217 11.1345834732055664 38.1308517456054688
  6.4635167121887207  7.1231307983398438 37.9721984863281250
  6.4553723335266113 16.1494579315185547 37.9673690795898438
 15.6508836746215803  6.9239177703857422 38.1312522888183665
 15.4830541610717773 16.1375541687011719 37.9303207397460938
  1.9564920663833618  6.4275374412536621 37.9113578796386719
  1.9006466865539551 15.4950389862060547 37.9492111206054688
 11.0569372177124023  6.5623736381530762 37.8931007385253977
 10.9380950927734375 15.4992504119873047 37.9389228820800781
  7.1182274818420410  2.6052997112274170 37.9775505065917969
  7.1140112876892090 11.5930938720703125 37.9592170715332031
 16.1010112762451172  2.5859706401824951 37.9820594787597656
 16.2878265380859375 11.7824020385742188 38.1326370239257812
  0.0000000000000000  0.0000000000000000 47.1735610961914062
 -0.0024593239650130  9.0313997268676740 47.1735610961914062
  9.0304002761840803  0.0000000000000000 47.1735610961914062
  9.0279407501220685  9.0313997268676740 47.1735610961914062
  4.5139794349670410  4.5156998634338379 47.1742515563964844
  4.5115203857421875 13.5470991134643537 47.1742515563964844
 13.5443792343139648  4.5156998634338379 47.1742515563964844
 13.5419197082519531 13.5470991134643537 47.1742515563964844
  2.4519233703613277  2.0629522800445557 44.0401268005371165
  2.4494640827178955 11.0943517684936523 44.0401268005371165
 11.4823226928710920  2.0629522800445557 44.0401268005371165
 11.4798641204833984 11.0943517684936523 44.0401268005371165
  6.5760178565979004  6.9684472084045410 44.0401268005371165
  6.5735583305358887 15.9998464584350586 44.0401268005371165
 15.6064186096191406  6.9684472084045410 44.0401268005371165
 15.6039590835571289 15.9998464584350586 44.0401268005371165
  2.0610768795013428  6.5788145065307617 44.0400009155273509
  2.0586175918579102 15.6102142333984375 44.0400009155273509
 11.0914773941040039  6.5788145065307617 44.0400009155273509
 11.0890178680419922 15.6102142333984375 44.0400009155273509
  6.9668641090393066  2.4525938034057613 44.0400657653808665
  6.9644045829772949 11.4839935302734375 44.0400657653808665
 15.9972639083862305  2.4525938034057613 44.0400657653808665
 15.9948053359985352 11.4839935302734375 44.0400657653808665
  2.4316265583038330  2.0832188129425049 50.0684852600097656
  2.4291670322418213 11.1146183013915998 50.0684852600097656
 11.4620265960693359  2.0832188129425049 50.0684852600097656
 11.4595670700073224 11.1146183013915998 50.0684852600097656
  6.5963144302368164  6.9481806755065918 50.0684852600097656
  6.5938549041748047 15.9795799255371076 50.0684852600097656
 15.6267137527465803  6.9481806755065918 50.0684852600097656
 15.6242542266845703 15.9795799255371076 50.0684852600097656
  2.0811281204223633  6.5990090370178223 50.0690460205078125
  2.0786688327789307 15.6304082870483398 50.0690460205078125
 11.1115283966064453  6.5990090370178223 50.0690460205078125
 11.1090688705444336 15.6304082870483398 50.0690460205078125
  6.9468131065368652  2.4323906898498531 50.0690460205078125
  6.9443535804748535 11.4637899398803711 50.0690460205078125
 15.9772129058837891  2.4323906898498531 50.0690460205078125
 15.9747543334960938 11.4637899398803711 50.0690460205078125
  0.0108906505629420 18.0476068835705519 37.6680526733398509
  0.1541026234626770  8.9988994598388672 37.7813720703125000
  9.0048946598544717 18.0459123421460390 37.6719894409179688
  9.0177946090698242  9.0464897155761719 37.6597213745117188
  4.4945912361145020  4.5116624832153320 37.7217788696289062
  4.4877758026123047 13.5355138778686523 37.6338691711425781
 13.5729627609252930  4.5376529693603516 37.7135124206542969
 13.5277757644653303 13.6644020080566388 37.7470283508300852
  0.0000090280000222  0.0000090310004452 44.0429992675781250
 -0.0024502959568053  9.0314083099365234 44.0429992675781250
  9.0304088592529297  0.0000090310004452 44.0429992675781250
  9.0279493331909180  9.0314083099365234 44.0429992675781250
  4.5139703750610352  4.5156903266906738 44.0427513122558594
  4.5115113258361816 13.5470905303955078 44.0427513122558594
 13.5443706512451172  4.5156903266906738 44.0427513122558594
 13.5419111251831037 13.5470905303955078 44.0427513122558594
  0.0000000000000000  0.0000000000000000 50.4472808837890696
 -0.0024593239650130  9.0313997268676740 50.4472808837890696
  9.0304002761840803  0.0000000000000000 50.4472808837890696
  9.0279407501220685  9.0313997268676740 50.4472808837890696
  4.5139703750610352  4.5156998634338379 50.4472808837890696
  4.5115113258361816 13.5470991134643537 50.4472808837890696
 13.5443706512451172  4.5156998634338379 50.4472808837890696
 13.5419111251831055 13.5470991134643537 50.4472808837890696
