 H  C  N  I Pb 
 1.0000000000000000
    18.0608005523681641    0.0000000000000000    0.0000000000000000
    -0.0049186488613486   18.0627994537353516    0.0000000000000000
     0.0000000000000000    0.0000000000000000   62.4874992370605469
 H   C   N   I   Pb 
 143  39  47  72  24
Cartesian
  8.1522016525268555  6.0398445129394531 35.2942695617675781
  7.7389268875122070 15.0037841796875000 35.5533142089843750
 17.3484973907470703  5.9281249046325684 36.0193862915039062
 17.0756340026855469 14.7179355621337891 35.8241691589355469
  5.9491738537326446 17.2369150519371068 35.8084106445312500
  6.3795623779296875  9.8946657180786133 34.9456787109375000
 14.5596303939819318  1.5852370262145996 35.3911895751953196
  0.1916694641113283  2.5793757438659668 34.9914665222167969
  1.2721633911132797 11.9125089645385742 35.5772209167480469
 10.0089006423950195  2.9422121047973633 34.8043403625488281
  8.9554176330566406 11.6518459320068342 34.9993209838867259
  6.5591354370117179  0.4687289595603943 34.8148536682128977
  5.3903827667236328 11.3358535766601562 34.6129722595214844
 15.8457336425781250  0.4483568966388702 34.9218368530273438
 17.2553195953369141  3.4626679420471191 36.1249580383300781
 17.9128875732421875 12.4605026245117188 36.4305114746093821
 10.2143192291259766  4.5656557083129874 35.4354095458984375
  7.8025236129760742 12.5484714508056623 35.9383049011230469
  5.0558590888977042  7.8868136405944824 35.7495574951171875
  3.5427695969119668 16.7589347362518311 35.7309379577636719
 12.2754974365234375  0.6002213358879089 35.6010589599609375
  6.7143287658691406  5.2512516975402832 34.6425132751464844
  8.9705629348754883 15.7038736343383789 34.5277519226074219
  0.3275394439697287  6.6606431007385254 34.8214263916015625
 17.9633293151855469 15.6234817504882795 34.6374435424804759
  3.3367049694061275  7.9787993431091309 35.4805831909179759
  2.5076035717502232 17.8944934606552160 34.8999786376953125
 12.1180195072665811 16.9695630073547363 35.1412353515625000
  7.8191981315612793  3.2712974548339844 34.2037506103515625
  9.8871660232543945 13.5865917205810547 34.0209197998046875
  1.1142139434814482  4.5503716468811035 34.0793647766113281
  1.5060863494873062 13.8938817977905273 34.3713836669921875
  3.3871502876281738 10.1483478546142578 34.7453231811523509
  4.3595743179321289  1.1396682262420654 34.1903457641601562
 14.3475536564365029 16.7320554256439209 34.6867218017578125
  8.7686042785644531  6.1286230087280273 41.3879051208496165
  8.1183223724365234 14.6584205627441406 42.0841636657714844
 17.4396058917045629  5.1132769584655762 42.2876930236816477
 16.7732909917831456 13.0952711105346680 42.0585517883300781
  5.5810251235961914  1.0061941146850586 41.8769836425781250
  5.3799567222595206  9.9059095382690430 42.1894531250000071
 14.4665994644165039  1.0146514177322388 42.1481323242187500
 13.6923131942749023 10.8012886047363281 41.1013603210449219
  1.5431723594665527  2.9326248168945312 40.2899551391601562
  2.0699100494384766 12.9825258255004883 40.6461982727050781
 10.3503875732421875  2.9280488491058350 40.6811676025390696
 10.1727247238159180 11.9673814773559553 40.6614379882812500
  3.2139730453491211  7.4664206504821768 40.4975967407226562
  3.1429361561313272 16.6274491548538208 40.6158752441406250
 12.6564426422119141  7.3159980773925781 41.3028984069824290
 12.1653227070346457 16.6576614379882812 40.6275405883789062
  1.1338088512420654  3.2580113410949707 41.9637832641601634
  1.0519868135452271 12.1917295455932617 41.8140373229980469
 10.7473583221435547  4.5415406227111816 41.1938629150390696
  9.5998439788818359 12.5467748641967773 42.2152328491211009
  3.5977220535278320  8.0156850814819336 42.1098251342773509
  3.7463225582614537 17.2433540821075439 42.1260948181152415
 12.0268716812133789  8.9322557449340820 41.4901008605957031
 12.5949043491855264 17.3211596012115479 42.1898994445800781
  7.1953148841857910  5.4159913063049308 41.0870513916015625
  7.8728523254394531 15.2578086853027344 40.4734916687011719
 16.9208226203918457  5.8860087394714347 40.8076019287109375
 16.3237890005111694 14.3714742660522443 40.9722099304199219
  5.9898343086242676  1.3898615837097168 40.2249069213867188
  5.9568948745727539 10.4153985977172852 40.6262779235839915
 15.0856084823608398  1.3804795742034912 40.5564498901367259
 15.2740697860717773 10.3027048110961914 40.6381301879882812
  0.1702495366334915  4.5695314407348633 39.4487800598144531
  0.3903747498989105 14.4502620697021484 39.9631576538086009
  8.0722494125366211  3.3283152580261230 40.5545425415039062
  9.1434354782104492 13.6147050857543945 39.4597930908203125
  4.4872378567233682 17.9542871862649918 39.3242034912109375
  4.6710786819458008  8.9107093811035156 39.4627113342285156
 13.7030386188998801 17.9232716411352158 39.4868736267089844
 14.7794704437255859  8.0315055847167969 40.6920928955078125
  8.1032123565673828  5.4420318603515616 48.0459518432617259
  8.1007528305053711 14.4734306335449219 48.0459518432617259
 17.1336116790771484  5.4420318603515616 48.0459518432617259
 17.1311531066894531 14.4734306335449219 48.0459518432617259
  5.4410333633422852  0.9265221953392029 48.0449485778808594
  5.4385743141174316  9.9579219818115234 48.0449485778808594
 14.4714326858520490  0.9265221953392029 48.0449485778808594
 14.4689741134643555  9.9579219818115234 48.0449485778808594
  1.4218254089355467  3.0919990539550781 46.4558296203613281
  1.4193661212921143 12.1233978271484375 46.4558296203613281
 10.4522256851196289  3.0919990539550781 46.4558296203613281
 10.4497661590576172 12.1233978271484375 46.4558296203613281
  3.0899283885955806  7.6075901985168457 46.4545211791992188
  3.0874691009521484 16.6389904022216797 46.4545211791992188
 12.1203289031982422  7.6075901985168457 46.4545211791992188
 12.1178693771362305 16.6389904022216797 46.4545211791992188
  0.9247469902038573  3.5893490314483643 48.0459518432617259
  0.9222877025604248 12.6207475662231445 48.0459518432617259
  9.9551477432250977  3.5893490314483643 48.0459518432617259
  9.9526882171630859 12.6207475662231445 48.0459518432617259
  3.5868983268737793  8.1048498153686523 48.0448913574218821
  3.5844390392303462 17.1362495422363281 48.0448913574218821
 12.6172990798950195  8.1048498153686523 48.0448913574218821
 12.6148395538330078 17.1362495422363281 48.0448913574218821
  7.6061611175537109  5.9393639564514160 46.4558296203613281
  7.6037015914916992 14.9707632064819336 46.4558296203613281
 16.6365604400634766  5.9393639564514160 46.4558296203613281
 16.6341018676757812 14.9707632064819336 46.4558296203613281
  5.9380125999450684  1.4238001108169553 46.4545211791992188
  5.9355530738830566 10.4551992416381836 46.4545211791992188
 14.9684123992919904  1.4238001108169553 46.4545211791992188
 14.9659538269042951 10.4551992416381836 46.4545211791992188
 -0.0011664569610730  4.5157265663146973 45.3548011779785156
 -0.0036257810425013 13.5471258163452148 45.3548011779785156
  9.0292339324951172  4.5157265663146973 45.3548011779785156
  9.0267744064331037 13.5471258163452148 45.3548011779785156
  4.5152091979980469  0.0000000000000000 45.3536758422851562
  4.5127501487731934  9.0313997268676740 45.3536758422851562
 13.5456094741821289  0.0000000000000000 45.3536758422851562
 13.5431499481201172  9.0313997268676740 45.3536758422851562
 14.0167608261108398 10.0629167556762695 32.4722251892089844
 12.9997062683105469  8.6412849426269531 32.8000984191894531
 15.6850404739379883  9.0504961013793945 33.6815986633300852
 15.5025081634521484  8.6919841766357422 35.4030342102050781
 13.4459800720214844 11.5924139022827131 35.0054626464843821
 14.6448945999145508 10.7651386260986328 36.0109176635742188
 12.0307731628417969  9.8969984054565412 35.5651435852050781
 12.2743997573852539  8.2060794830322266 35.0228576660156321
 11.1473588943481445 10.0744714736938477 33.5563621520996094
 12.1530961990356428 11.5261983871459961 33.4394950866699219
 10.9498205184936523 11.6640691757202148 31.4792766571044922
 12.4028987884521484 10.8804149627685547 30.8959159851074254
 14.1841468811035156  7.0492801666259766 33.1360855102539062
 14.0707969665527326  6.7111730575561523 34.8619842529296875
 15.6332101821899414  6.6441087722778320 34.0495910644531250
 15.5857801437377930 12.5673513412475586 34.5885391235351634
 15.2094640731811506 11.6885833740234375 33.1095581054687500
 16.3830146789550781 11.0124092102050781 34.2834434509277344
 13.8790903091430664  9.5492668151855469 37.3222694396972727
 13.9520511627197266  7.8373098373413086 36.8183326721191406
 12.4677562713623047  8.4947929382324219 37.5011444091796875
  9.6861028671264648  9.5635662078857422 31.5050716400146484
 10.3872327804565430  9.8795356750488281 29.9064083099365270
 12.6335821151733398  8.6652593612670898 29.3447818756103551
 10.0641927719116211  7.4908161163330078 32.5754127502441406
 13.7988967895507812  6.4822349548339844 29.4657840728759766
 11.2271203994750977  5.3015937805175772 32.7242927551269531
 13.1255989074707031  4.7966737747192383 31.1855945587158203
  0.3361816406250012  4.6076030731201172 34.8452949523925781
  0.6484584808349615 13.7614192962646467 35.0452957153320312
  8.3810424804687500  4.1056213378906250 34.6411628723144602
  9.0142307281494141 13.6651601791381836 34.6751403808593750
  4.3325529098510742  9.6495447158813477 34.9716758728027344
  4.5186409950256348  0.2387837767601013 34.7889404296875000
 13.9892153004184365 17.7142244279384613 35.0014724731445384
  0.2000443190336227  4.4082379341125488 40.5324592590332031
  0.1757610142230988 13.7221879959106445 40.7554244995117188
  8.7455196380615234  4.1447539329528809 40.8478355407714844
  9.0268869400024414 13.6113176345825195 40.5511322021484446
  4.5930919647216797  8.9392490386962891 40.5523986816406250
  4.5596083858981729 18.0354526154696941 40.4126777648925781
 13.9992713928222656  8.7644433975219727 40.9443664550781250
 13.6275009373202920 18.0364035181701183 40.5733413696289062
  9.0289716720581055  4.5156092643737793 46.4455223083496165
  9.0265130996704102 13.5470085144042969 46.4455223083496165
 18.0593719482421875  4.5156092643737793 46.4455223083496165
 18.0569133758544922 13.5470085144042969 46.4455223083496165
  4.5152091979980469  0.0000180629995157 46.4442062377929759
  4.5127501487731934  9.0314178466796857 46.4442062377929759
 13.5456094741821289  0.0000180629995157 46.4442062377929759
 13.5431499481201172  9.0314178466796857 46.4442062377929759
 11.2786979675292969  8.2397775650024414 30.9577522277832031
 12.3361635208129883  7.9307613372802734 30.0891456604003906
 10.8910799026489258  7.2627649307250968 31.8955783843994176
 12.9861736297607404  6.6970076560974121 30.1572933197021520
 11.5473899841308594  6.0287709236145020 31.9748744964599609
 12.6032142639160156  5.7495794296264648 31.1054382324218750
 13.2127189636230469  9.6703577041625977 33.1082878112792969
 15.0052156448364240  8.6261653900146484 34.4286956787109375
 14.3155317306518555 10.9302625656127912 34.9775733947753977
 12.7592658996582031  9.0794391632080078 35.4829902648925852
 11.9741268157958984 10.5355548858642578 32.9975471496582031
 11.5212364196777344 10.7300863265991211 31.5371475219726598
 14.6818637847900391  7.1887831687927246 34.0996437072753906
 15.4406232833862305 11.5596990585327148 34.1782341003417969
 13.3158626556396467  8.7268457412719727 36.8477020263671946
 10.6377344131469727  9.6058721542358398 30.9468479156494141
 17.9564323425292969  3.4897694587707520 35.3656616210937571
  0.5884933471679709 12.6487588882446271 35.7364540100097656
  9.6496849060058594  3.8910689353942867 34.9136238098144531
  8.5316181182861328 12.5603694915771467 35.2081947326660227
  7.7294497489929190  5.2372794151306152 34.8301239013671875
  8.5042610168457031 14.8629789352416992 34.8838043212890625
 17.9729537963867188  5.7985854148864746 35.1991119384765696
 17.8037090301513672 14.7160034179687500 35.0967102050781250
  4.2620353698730469  8.3826665878295898 35.3283920288085938
  3.4640611866489053 17.5950798392295837 35.1407432556152344
 12.6976532200351357 17.8186088800430298 35.2156219482421875
  5.7421712139621377 17.9933735951781273 35.1381988525390625
  5.4459919929504395 10.3316812515258789 34.8440666198730469
 14.8629150390625000  0.6183972358703612 35.1741256713867188
  0.9958303570747374  3.4715514183044434 40.9652633666992188
  1.1320793628692627 12.8824682235717773 41.0643692016601562
 10.0282173156738281  3.8615100383758545 40.9263000488281321
  9.6282348632812500 12.6446456909179688 41.2016105651855469
  3.7494230270385738  8.0992956161499023 41.1121101379394531
  3.7712966660037632 17.2669067382812536 41.1149406433105469
 12.8018207550048828  8.3249845504760742 41.2266464233398438
 12.7491230228915811 17.2953547239303589 41.1888351440429688
  8.2163553237915039  5.3213753700256339 41.1166114807128977
  8.3079204559326172 14.5688362121582031 41.0849418640136719
 17.4945484399795532  5.1756343841552734 41.2673873901367188
 17.0505936145782471 13.7487468719482422 41.3160171508789134
  5.4395098686218253  0.8376049995422363 40.8887062072753906
  5.3529896736145020  9.7932977676391602 41.1825103759765625
 14.4405431747436523  0.8486080169677733 41.1471862792968821
 14.3471155166625977 10.0387620925903303 40.9342079162597656
  0.8273094892501831  3.6869695186614990 47.0359649658203125
  0.8248501420021057 12.7183685302734375 47.0359649658203125
  9.8577098846435547  3.6869695186614990 47.0359649658203125
  9.8552503585815412 12.7183685302734375 47.0359649658203125
  3.6843190193176270  8.2023353576660156 47.0346527099609375
  3.6818594932556152 17.2337341308593750 47.0346527099609375
 12.7147188186645508  8.2023353576660156 47.0346527099609375
 12.7122592926025391 17.2337341308593750 47.0346527099609375
  8.2006769180297852  5.3445744514465332 47.0360260009765696
  8.1982173919677734 14.3759746551513672 47.0360260009765696
 17.2310771942138672  5.3445744514465332 47.0360260009765696
 17.2286186218261719 14.3759746551513672 47.0360260009765696
  5.3436489105224600  0.8290914893150328 47.0346527099609375
  5.3411893844604483  9.8604917526245117 47.0346527099609375
 14.3740482330322266  0.8290914893150328 47.0346527099609375
 14.3715896606445312  9.8604917526245117 47.0346527099609375
 13.8182802200317383  9.5811882019042969 34.4955101013183594
  9.2455425262451154  0.3175925016403198 34.4680747985839915
  8.6613330841064453  8.9685630798339844 34.6773338317871094
  0.1451752930879593  0.0921841338276863 34.2772026062011719
  0.6958673000335693  9.1331605911254883 34.5752258300781321
  4.2596192359924316  4.3767943382263184 34.5031242370605469
  4.6301727294921875 13.8305540084838867 34.5871276855468750
 13.3104219436645508  3.6575088500976562 34.6693763732910156
 12.6739664077758789 14.3098688125610352 34.6276321411132884
  0.0033385585993528 17.7606136202812195 40.8549652099609375
 17.9817926734685933  9.1193933486938477 40.9272384643554688
  9.0261020660400391  0.2163259536027908 40.8734016418457031
  9.2297096252441406  8.8564376831054688 40.9480438232421875
  4.7089772224426270  4.4507889747619629 40.8785133361816406
  4.7038540840148926 13.6128749847412092 40.9036026000976562
 13.5394964218139648  4.7547845840454102 40.8980941772460938
 13.4368247985839844 13.5726432800292969 40.9093170166015696
  2.4520385265350342  2.0239913463592529 37.9421043395996094
  2.7415986061096191 10.9004049301147461 38.0167541503906250
 11.7103767395019531  1.8922398090362549 38.1246185302734375
 11.1258192062377930 11.3586874008178711 38.1055564880371094
  6.5065107345581055  6.9746155738830566 37.8114738464355469
  6.7501797676086426 15.9003677368164062 37.8969917297363352
 16.0855064392089844  6.5903697013854980 38.1098403930664134
 15.7301177978515625 15.8288526535034162 37.8019676208496165
  2.2410526275634766  6.6537451744079590 38.0779762268066406
  2.2139148712158203 15.6255388259887695 37.9508819580078125
 10.6867666244506836  6.0913429260253906 37.5817337036132812
 11.1476583480834961 15.7420234680175781 38.2689781188964844
  6.9612078666687012  2.4196593761444092 37.7417602539062571
  6.9680957794189453 11.3601150512695295 38.1809883117675781
 16.0149822235107422  2.3986515998840332 38.1716346740722656
 16.2013549804687500 11.6217145919799805 38.1750144958496094
  0.0000000000000000  0.0000000000000000 47.1735610961914062
 -0.0024593239650130  9.0313997268676740 47.1735610961914062
  9.0304002761840803  0.0000000000000000 47.1735610961914062
  9.0279407501220685  9.0313997268676740 47.1735610961914062
  4.5139794349670410  4.5156998634338379 47.1742515563964844
  4.5115203857421875 13.5470991134643537 47.1742515563964844
 13.5443792343139648  4.5156998634338379 47.1742515563964844
 13.5419197082519531 13.5470991134643537 47.1742515563964844
  2.4519233703613277  2.0629522800445557 44.0401268005371165
  2.4494640827178955 11.0943517684936523 44.0401268005371165
 11.4823226928710920  2.0629522800445557 44.0401268005371165
 11.4798641204833984 11.0943517684936523 44.0401268005371165
  6.5760178565979004  6.9684472084045410 44.0401268005371165
  6.5735583305358887 15.9998464584350586 44.0401268005371165
 15.6064186096191406  6.9684472084045410 44.0401268005371165
 15.6039590835571289 15.9998464584350586 44.0401268005371165
  2.0610768795013428  6.5788145065307617 44.0400009155273509
  2.0586175918579102 15.6102142333984375 44.0400009155273509
 11.0914773941040039  6.5788145065307617 44.0400009155273509
 11.0890178680419922 15.6102142333984375 44.0400009155273509
  6.9668641090393066  2.4525938034057613 44.0400657653808665
  6.9644045829772949 11.4839935302734375 44.0400657653808665
 15.9972639083862305  2.4525938034057613 44.0400657653808665
 15.9948053359985352 11.4839935302734375 44.0400657653808665
  2.4316265583038330  2.0832188129425049 50.0684852600097656
  2.4291670322418213 11.1146183013915998 50.0684852600097656
 11.4620265960693359  2.0832188129425049 50.0684852600097656
 11.4595670700073224 11.1146183013915998 50.0684852600097656
  6.5963144302368164  6.9481806755065918 50.0684852600097656
  6.5938549041748047 15.9795799255371076 50.0684852600097656
 15.6267137527465803  6.9481806755065918 50.0684852600097656
 15.6242542266845703 15.9795799255371076 50.0684852600097656
  2.0811281204223633  6.5990090370178223 50.0690460205078125
  2.0786688327789307 15.6304082870483398 50.0690460205078125
 11.1115283966064453  6.5990090370178223 50.0690460205078125
 11.1090688705444336 15.6304082870483398 50.0690460205078125
  6.9468131065368652  2.4323906898498531 50.0690460205078125
  6.9443535804748535 11.4637899398803711 50.0690460205078125
 15.9772129058837891  2.4323906898498531 50.0690460205078125
 15.9747543334960938 11.4637899398803711 50.0690460205078125
 -0.0014876939821988 18.0214348174631596 37.7969970703125071
  0.1202817708253860  9.0808086395263672 37.8082466125488281
  9.0953025817871094  0.1311078667640686 37.7002487182617188
  8.9877414703369141  8.8923549652099609 37.7930908203125000
  4.4708399772644043  4.4505338668823242 37.6397285461425781
  4.5517635345458975 13.4527540206909162 37.7280769348144531
 13.4158830642700178  4.4570651054382324 37.6726570129394602
 13.3331480026245099 13.6363916397094727 37.6997833251953196
  0.0000090280000222  0.0000090310004452 44.0429992675781250
 -0.0024502959568053  9.0314083099365234 44.0429992675781250
  9.0304088592529297  0.0000090310004452 44.0429992675781250
  9.0279493331909180  9.0314083099365234 44.0429992675781250
  4.5139703750610352  4.5156903266906738 44.0427513122558594
  4.5115113258361816 13.5470905303955078 44.0427513122558594
 13.5443706512451172  4.5156903266906738 44.0427513122558594
 13.5419111251831037 13.5470905303955078 44.0427513122558594
  0.0000000000000000  0.0000000000000000 50.4472808837890696
 -0.0024593239650130  9.0313997268676740 50.4472808837890696
  9.0304002761840803  0.0000000000000000 50.4472808837890696
  9.0279407501220685  9.0313997268676740 50.4472808837890696
  4.5139703750610352  4.5156998634338379 50.4472808837890696
  4.5115113258361816 13.5470991134643537 50.4472808837890696
 13.5443706512451172  4.5156998634338379 50.4472808837890696
 13.5419111251831055 13.5470991134643537 50.4472808837890696
