 H  C  N  I Pb 
 1.0000000000000000
    18.0608005523681641    0.0000000000000000    0.0000000000000000
    -0.0049186488613486   18.0627994537353516    0.0000000000000000
     0.0000000000000000    0.0000000000000000   62.4874992370605469
 H   C   N   I   Pb 
 143  39  47  72  24
Cartesian
  8.1907300949096680  5.4847569465637207 36.3577537536621094
  8.0553026199340820 14.5709171295166016 36.3627395629882812
 17.2067604064941406  5.4186587333679199 36.3049774169921875
 17.2759246826171875 14.5679092407226562 36.4179687500000000
  5.5007467269897452  0.9319128394126892 36.2452545166015625
  5.4463987350463867  9.8895912170410156 36.3585128784179759
 14.3477611541748047  0.9255604147911072 36.2984886169433594
  1.4619579315185569  2.9793345928192139 34.8894195556640625
  1.4402389526367188 12.0713119506835938 34.8635559082031321
 10.5615463256835938  3.1260781288146973 34.8033409118652344
 10.3730459213256818 12.1297388076782227 34.8872375488281250
  6.0275998115539551  1.4288349151611326 34.6561737060546875
  5.9407110214233398 10.5106019973754883 34.8029785156250000
 14.9381923675537109  1.4560109376907349 34.7429504394531321
  0.8423423767089857  3.5668120384216309 36.3513946533203125
  0.9729366302490207 12.7160186767578125 36.4174423217773438
 10.0564270019531250  3.7416040897369385 36.3572235107421875
  9.8679809570312482 12.6573801040649396 36.4744987487792969
  3.7103350162506104  8.0460243225097656 36.3583602905273438
  3.6555625656619664 17.2584609389305115 36.3525276184082102
 12.6067861774936318 17.1447866559028661 36.2983894348144531
  7.5985651016235352  5.8843359947204590 34.8042259216308594
  7.6441187858581543 15.0606060028076172 34.7772369384765625
 16.7373752593994141  5.9082942008972159 34.6577301025390625
 16.6487312316894531 15.0622797012329102 34.8045005798339844
  3.1199219226837154  7.5156083106994620 34.8028831481933594
  3.0326105812564492 16.6710166931152344 34.8305931091308594
 12.1124891499057412 16.5238147974014282 34.7429161071777344
  9.0447244644165039  4.5295352935791016 33.6497840881347656
  9.0712509155273438 13.5595788955688477 33.7109107971191477
  0.1019630432128929  4.4091215133666992 33.6513481140136719
  0.0103015899658219 13.5631961822509766 33.7099990844726562
  4.4674692153930664  9.0140275955200195 33.7106742858886790
  4.5296640396118164  0.0158054810017347 33.6493263244628977
 13.5275272587314230 17.9586443603038788 33.6506767272949219
  8.0405473709106445  5.4342532157897949 42.1865959167480469
  8.1117696762084961 14.4078645706176758 42.1847953796386719
 17.0719453096389771  5.4488186836242676 42.0733451843261719
 17.1364157199859619 14.4752349853515625 42.1881713867187571
  5.5043082237243643  0.9313933253288268 42.1286239624023438
  5.4313893318176270  9.9651317596435529 42.1854591369628906
 14.4791116714477539  0.9786002635955811 42.1857070922851562
 14.4620819091796875 10.0198259353637695 42.1856918334960938
  1.4136979579925537  3.1825993061065674 40.6293106079101562
  1.3071523904800415 12.0699510574340820 40.6050109863281250
 10.5061712265014631  3.2049231529235840 40.6051940917968750
 10.5381345748901367 12.1191568374633789 40.3989257812500000
  3.0580193996429443  7.6379609107971191 40.6039772033691477
  3.0353714684024453 16.6697430610656738 40.6880531311035227
 12.1743278503417969  7.4927792549133292 40.6042060852050781
 12.1469148853793740 16.6681723594665527 40.6041679382324290
  0.9134899377822875  3.6547060012817383 42.1844100952148438
  0.8684375882148743 12.5684328079223633 42.1282997131347656
 10.0061674118041992  3.6420350074768066 42.1884536743164134
 10.0141181945800781 12.6137466430664062 42.0738601684570312
  3.4643096923828125  8.1126871109008789 42.1854248046875000
  3.5357441166415811 17.1416459679603612 42.2431564331054688
 12.6096220016479492  8.0527610778808594 42.1856536865234446
 12.6217302540317178 17.0743389725685120 42.1856231689453196
  7.6344656944274902  5.9091553688049308 40.6052284240722727
  7.6116099357604980 14.8799428939819336 40.6297569274902344
 16.5479722023010289  5.9433865547180167 40.3984756469726634
 16.6635704040527379 14.9415159225463867 40.6049766540527415
  5.9069781303405762  1.3112639188766477 40.5208282470703125
  5.9297223091125488 10.3421325683593750 40.6040077209472727
 14.8562221527099609  1.4768717288970947 40.6042633056640696
 14.9969644546508771 10.4860315322875977 40.5442962646484375
 18.0445627458393574  4.5316066741943359 39.4345855712890625
 17.9506267160177266 13.4444007873535156 39.4975128173828125
  9.1333646774291992  4.6240820884704590 39.4377861022949290
  9.0415067672729474 13.5309982299804688 39.4350357055664062
  4.4652919033542275 18.0187166966497898 39.4934577941894531
  4.5551891326904288  8.9249181747436523 39.4966087341308594
 13.4389123916625977  0.1025103926658630 39.4968338012695312
 13.6498346328735352  8.9289436340332031 39.4968414306640625
  8.1032123565673828  5.4420318603515616 48.0459518432617259
  8.1007528305053711 14.4734306335449219 48.0459518432617259
 17.1336116790771484  5.4420318603515616 48.0459518432617259
 17.1311531066894531 14.4734306335449219 48.0459518432617259
  5.4410333633422852  0.9265221953392029 48.0449485778808594
  5.4385743141174316  9.9579219818115234 48.0449485778808594
 14.4714326858520490  0.9265221953392029 48.0449485778808594
 14.4689741134643555  9.9579219818115234 48.0449485778808594
  1.4218254089355467  3.0919990539550781 46.4558296203613281
  1.4193661212921143 12.1233978271484375 46.4558296203613281
 10.4522256851196289  3.0919990539550781 46.4558296203613281
 10.4497661590576172 12.1233978271484375 46.4558296203613281
  3.0899283885955806  7.6075901985168457 46.4545211791992188
  3.0874691009521484 16.6389904022216797 46.4545211791992188
 12.1203289031982422  7.6075901985168457 46.4545211791992188
 12.1178693771362305 16.6389904022216797 46.4545211791992188
  0.9247469902038573  3.5893490314483643 48.0459518432617259
  0.9222877025604248 12.6207475662231445 48.0459518432617259
  9.9551477432250977  3.5893490314483643 48.0459518432617259
  9.9526882171630859 12.6207475662231445 48.0459518432617259
  3.5868983268737793  8.1048498153686523 48.0448913574218821
  3.5844390392303462 17.1362495422363281 48.0448913574218821
 12.6172990798950195  8.1048498153686523 48.0448913574218821
 12.6148395538330078 17.1362495422363281 48.0448913574218821
  7.6061611175537109  5.9393639564514160 46.4558296203613281
  7.6037015914916992 14.9707632064819336 46.4558296203613281
 16.6365604400634766  5.9393639564514160 46.4558296203613281
 16.6341018676757812 14.9707632064819336 46.4558296203613281
  5.9380125999450684  1.4238001108169553 46.4545211791992188
  5.9355530738830566 10.4551992416381836 46.4545211791992188
 14.9684123992919904  1.4238001108169553 46.4545211791992188
 14.9659538269042951 10.4551992416381836 46.4545211791992188
 -0.0011664569610730  4.5157265663146973 45.3548011779785156
 -0.0036257810425013 13.5471258163452148 45.3548011779785156
  9.0292339324951172  4.5157265663146973 45.3548011779785156
  9.0267744064331037 13.5471258163452148 45.3548011779785156
  4.5152091979980469  0.0000000000000000 45.3536758422851562
  4.5127501487731934  9.0313997268676740 45.3536758422851562
 13.5456094741821289  0.0000000000000000 45.3536758422851562
 13.5431499481201172  9.0313997268676740 45.3536758422851562
 14.3571233749389631 10.4034709930419922 33.3957862854003906
 13.4123229980468750  8.8356037139892578 33.2719345092773438
 15.7941274642944336  9.1894464492797852 34.8542098999023438
 15.2486705780029297  8.7682123184204102 36.4307136535644531
 13.4312047958374023 11.5764884948730469 35.8246612548828125
 14.3772506713867170 10.6514749526977539 36.9046096801757812
 12.0072231292724609  9.8597917556762695 35.9512023925781250
 12.2601318359375000  8.2399253845214844 35.3252906799316406
 11.3533458709716797 10.0837287902832031 33.9767684936523438
 12.3662977218627912 11.5935382843017560 34.2282981872558594
 11.5396385192871094 12.0540275573730469 32.0699081420898438
 12.8774709701538068 11.0230417251586914 31.5636787414550817
 14.6301355361938477  7.3271408081054688 33.8213424682617188
 13.7940645217895508  6.9288735389709473 35.3083877563476562
 15.4821500778198242  6.7721624374389648 35.2573165893554688
 15.6969938278198224 12.4569969177246094 35.7392921447753906
 15.5034265518188459 11.6793870925903303 34.1787452697753906
 16.3877239227294922 10.8974771499633789 35.4516372680664134
 13.8417549133300781  9.1221256256103516 37.7824287414550781
 13.3200235366821289  7.5074186325073242 37.2452239990234446
 12.1832876205444318  8.5531063079833984 37.9494934082031321
 10.0033502578735352 10.0426807403564453 32.1552314758300781
 10.6600866317749023 10.3877010345458984 30.5020580291748047
 12.9634494781494141  9.0091056823730469 29.8235073089599609
 10.5670089721679688  7.9640140533447266 33.2406463623046875
 14.0365886688232422  6.7160758972167969 29.9219112396240270
 11.6501398086547834  5.8245658874511719 33.3988075256347656
 13.4051389694213867  5.1269822120666504 31.7690029144287145
  0.0705108642578118  4.4423103332519531 34.7411766052246165
  0.0423774719238302 13.5926790237426758 34.7398643493652415
  9.0150289535522461  4.5590891838073730 34.6814498901367188
  8.9798536300659180 13.5945672988891602 34.7989387512207031
  4.5593404769897461  9.0440502166748047 34.8004760742187500
  4.5633344650268555  0.0475284606218338 34.7391319274902344
 13.4938568333163857 17.9903673306107521 34.7404785156250000
 18.0129426755011082  4.5613799095153809 40.4634552001953125
 17.9843166321516037 13.5341119766235352 40.5245742797851562
  9.0419082641601562  4.5884532928466797 40.5247917175293040
  9.0734624862670898 13.5008745193481445 40.4638862609863281
  4.4653024673461914  8.9584789276123047 40.5235404968261719
  4.4970664242282510 18.0486267264932394 40.5221939086914062
 13.6144456863403320  9.0205450057983398 40.5837173461914134
 13.5306339263916016  0.0743281170725822 40.5237655639648509
  9.0289716720581055  4.5156092643737793 46.4455223083496165
  9.0265130996704102 13.5470085144042969 46.4455223083496165
 18.0593719482421875  4.5156092643737793 46.4455223083496165
 18.0569133758544922 13.5470085144042969 46.4455223083496165
  4.5152091979980469  0.0000180629995157 46.4442062377929759
  4.5127501487731934  9.0314178466796857 46.4442062377929759
 13.5456094741821289  0.0000180629995157 46.4442062377929759
 13.5431499481201172  9.0314178466796857 46.4442062377929759
 11.6014232635498029  8.5810108184814453 31.4943695068359411
 12.6392440795898438  8.2196521759033203 30.6207599639892614
 11.2812433242797852  7.6614670753479004 32.4800949096679688
 13.1903953552246094  7.0252032279968253 30.6846599578857422
 11.8481893539428711  6.4828858375549316 32.5601654052734375
 12.8312988281250000  6.1336770057678223 31.6358451843261754
 13.4544286727905273  9.8023939132690430 33.8207588195800781
 14.9862852096557599  8.6877899169921875 35.3690299987792969
 14.2743663787841797 10.8891839981079102 35.8544311523437500
 12.7201042175292969  9.0382108688354492 35.9133110046386719
 12.2921113967895508 10.6076974868774414 33.6012573242187500
 11.9002304077148438 11.0500926971435547 32.2166976928711009
 14.7225656509399414  7.4035344123840332 34.9121398925781250
 15.5517244338989258 11.4890117645263672 35.2512702941894531
 13.0529108047485352  8.4807090759277344 37.2974624633789062
 10.9773492813110334  9.9753370285034180 31.4979572296142614
  0.7974052429199220  3.6773540973663330 35.3297119140625000
  0.8033046722412136 12.7685022354125977 35.3441429138183594
  9.9439010620117188  3.7856202125549316 35.2821273803710938
  9.7612447738647461 12.7097768783569336 35.4528160095214844
  8.2423315048217773  5.3145885467529297 35.2846870422363352
  8.2207851409912109 14.3942346572875959 35.2961921691894531
 17.3141517639160156  5.3037195205688477 35.2348327636718821
 17.3189735412597656 14.4549007415771484 35.3431053161621094
  3.7747735977172847  8.1740427017211914 35.4031867980957102
  3.7256662109866738 17.3250620365142822 35.3915138244628906
 12.7302479008212686 17.2171964645385742 35.3431892395019531
  5.3716449737548819  0.8097532391548157 35.2960777282714844
  5.3229594230651847  9.8172225952148420 35.4034996032714844
 14.2833328247070312  0.7975930571556091 35.3435020446777415
  0.8446021080017090  3.7193379402160645 41.1677551269531250
  0.8045324087142943 12.6388502120971680 41.1756286621093821
  9.9371376037597638  3.7073850631713867 41.1758193969726634
  9.8827695846557617 12.7372264862060547 41.0688667297363281
  3.6551961898803711  8.1721963882446289 41.1165618896484446
  3.6022805431857705 17.2048861980438232 41.1666870117187571
 12.7366504669189453  8.1218099594116211 41.1149940490722727
 12.6826013782992959 17.2057184576988220 41.1149902343750000
  8.2335538864135742  5.3153934478759757 41.1160316467285156
  8.2402687072753906 14.2870683670043945 41.1048011779785227
 17.2049063444137573  5.3238453865051270 41.0085830688476562
 17.2593928575515747 14.3443813323974609 41.1757278442382812
  5.3099403381347656  0.7477169036865234 41.0673408508300852
  5.3627705574035645  9.8376827239990217 41.1147651672363281
 14.2938966751098633  0.8478524684906005 41.1149902343750000
 14.3411750793457031  9.8284902572631836 41.1749420166015625
  0.8273094892501831  3.6869695186614990 47.0359649658203125
  0.8248501420021057 12.7183685302734375 47.0359649658203125
  9.8577098846435547  3.6869695186614990 47.0359649658203125
  9.8552503585815412 12.7183685302734375 47.0359649658203125
  3.6843190193176270  8.2023353576660156 47.0346527099609375
  3.6818594932556152 17.2337341308593750 47.0346527099609375
 12.7147188186645508  8.2023353576660156 47.0346527099609375
 12.7122592926025391 17.2337341308593750 47.0346527099609375
  8.2006769180297852  5.3445744514465332 47.0360260009765696
  8.1982173919677734 14.3759746551513672 47.0360260009765696
 17.2310771942138672  5.3445744514465332 47.0360260009765696
 17.2286186218261719 14.3759746551513672 47.0360260009765696
  5.3436489105224600  0.8290914893150328 47.0346527099609375
  5.3411893844604483  9.8604917526245117 47.0346527099609375
 14.3740482330322266  0.8290914893150328 47.0346527099609375
 14.3715896606445312  9.8604917526245117 47.0346527099609375
 13.8037977218627930  9.7052583694458008 35.3321723937988352
  8.9654821613803506 18.0027994625270367 34.5471000671386719
  8.9679412841796875  9.0913991928100586 34.5471000671386719
  0.0550813423469663 18.0027994513511658 34.5471000671386719
  0.0575406774878502  8.9714002609252930 34.4271049499511719
  4.4539885520935059  4.5757002830505371 34.5482254028320384
  4.4515290260314941 13.4870996475219727 34.5482254028320384
 13.6043882369995117  4.4556994438171387 34.5482254028320384
 13.4819307327270508 13.6070985794067383 34.4282302856445312
 17.9958819570019841 18.0027994699776208 40.9203224182128906
  0.0575406774878502  8.9714002609252930 40.9203224182128906
  8.9654821613803506 18.0027994550764561 40.9203224182128906
  9.0879402160644531  8.9714002609252930 40.8003273010253906
  4.4539699554443359  4.5756993293762207 40.9211387634277344
  4.4515118598937988 13.4870996475219727 40.9211387634277344
 13.4843711853027344  4.5757002830505371 40.9211387634277344
 13.6019105911254883 13.6070985794067383 40.8011436462402344
  2.5250406265258789  1.8701816797256470 37.8960342407226562
  2.5225813388824463 10.9015817642211914 37.8960342407226562
 11.5554418563842773  1.8701816797256470 37.8960342407226562
 11.5529823303222656 11.0215806961059570 38.0160293579101634
  6.5028915405273429  7.1612362861633292 37.8960342407226562
  6.3804316520690918 16.0726337432861328 37.8960342407226562
 15.5332908630371094  7.0412354469299316 38.0160293579101634
 15.4108324050903303 16.0726337432861328 37.8960342407226562
  1.8688538074493406  6.5066132545471191 37.8982200622558594
  1.8663945198059080 15.4180126190185547 37.8982200622558594
 10.8992538452148438  6.3866124153137207 38.0182151794433665
 11.0167932510375977 15.4180126190185547 37.8982200622558594
  7.0390868186950675  2.5248048305511475 37.8982200622558594
  7.0366272926330566 11.5562038421630859 37.8982200622558594
 16.1894893646240234  2.5248048305511475 37.8982200622558594
 16.1870307922363281 11.6762027740478516 38.0182151794433665
  0.0000000000000000  0.0000000000000000 47.1735610961914062
 -0.0024593239650130  9.0313997268676740 47.1735610961914062
  9.0304002761840803  0.0000000000000000 47.1735610961914062
  9.0279407501220685  9.0313997268676740 47.1735610961914062
  4.5139794349670410  4.5156998634338379 47.1742515563964844
  4.5115203857421875 13.5470991134643537 47.1742515563964844
 13.5443792343139648  4.5156998634338379 47.1742515563964844
 13.5419197082519531 13.5470991134643537 47.1742515563964844
  2.4519233703613277  2.0629522800445557 44.0401268005371165
  2.4494640827178955 11.0943517684936523 44.0401268005371165
 11.4823226928710920  2.0629522800445557 44.0401268005371165
 11.4798641204833984 11.0943517684936523 44.0401268005371165
  6.5760178565979004  6.9684472084045410 44.0401268005371165
  6.5735583305358887 15.9998464584350586 44.0401268005371165
 15.6064186096191406  6.9684472084045410 44.0401268005371165
 15.6039590835571289 15.9998464584350586 44.0401268005371165
  2.0610768795013428  6.5788145065307617 44.0400009155273509
  2.0586175918579102 15.6102142333984375 44.0400009155273509
 11.0914773941040039  6.5788145065307617 44.0400009155273509
 11.0890178680419922 15.6102142333984375 44.0400009155273509
  6.9668641090393066  2.4525938034057613 44.0400657653808665
  6.9644045829772949 11.4839935302734375 44.0400657653808665
 15.9972639083862305  2.4525938034057613 44.0400657653808665
 15.9948053359985352 11.4839935302734375 44.0400657653808665
  2.4316265583038330  2.0832188129425049 50.0684852600097656
  2.4291670322418213 11.1146183013915998 50.0684852600097656
 11.4620265960693359  2.0832188129425049 50.0684852600097656
 11.4595670700073224 11.1146183013915998 50.0684852600097656
  6.5963144302368164  6.9481806755065918 50.0684852600097656
  6.5938549041748047 15.9795799255371076 50.0684852600097656
 15.6267137527465803  6.9481806755065918 50.0684852600097656
 15.6242542266845703 15.9795799255371076 50.0684852600097656
  2.0811281204223633  6.5990090370178223 50.0690460205078125
  2.0786688327789307 15.6304082870483398 50.0690460205078125
 11.1115283966064453  6.5990090370178223 50.0690460205078125
 11.1090688705444336 15.6304082870483398 50.0690460205078125
  6.9468131065368652  2.4323906898498531 50.0690460205078125
  6.9443535804748535 11.4637899398803711 50.0690460205078125
 15.9772129058837891  2.4323906898498531 50.0690460205078125
 15.9747543334960938 11.4637899398803711 50.0690460205078125
  0.0600090175867081  0.0600180625915527 37.6904067993164062
  0.0575497001409531  8.9714183807373047 37.6904067993164062
  9.0904083251953125  0.0600180663168430 37.6904067993164062
  8.9679498672485352  8.9714183807373047 37.6904067993164062
  4.5739707946777344  4.4556899070739746 37.6909065246582102
  4.5715117454528809 13.6070899963378906 37.6909065246582102
 13.4843711853027326  4.4556899070739746 37.6909065246582102
 13.4819116592407209 13.6070899963378906 37.6909065246582102
  0.0000090280000222  0.0000090310004452 44.0429992675781250
 -0.0024502959568053  9.0314083099365234 44.0429992675781250
  9.0304088592529297  0.0000090310004452 44.0429992675781250
  9.0279493331909180  9.0314083099365234 44.0429992675781250
  4.5139703750610352  4.5156903266906738 44.0427513122558594
  4.5115113258361816 13.5470905303955078 44.0427513122558594
 13.5443706512451172  4.5156903266906738 44.0427513122558594
 13.5419111251831037 13.5470905303955078 44.0427513122558594
  0.0000000000000000  0.0000000000000000 50.4472808837890696
 -0.0024593239650130  9.0313997268676740 50.4472808837890696
  9.0304002761840803  0.0000000000000000 50.4472808837890696
  9.0279407501220685  9.0313997268676740 50.4472808837890696
  4.5139703750610352  4.5156998634338379 50.4472808837890696
  4.5115113258361816 13.5470991134643537 50.4472808837890696
 13.5443706512451172  4.5156998634338379 50.4472808837890696
 13.5419111251831055 13.5470991134643537 50.4472808837890696
