 H  C  N  I Pb 
 1.0000000000000000
    18.0608005523681641    0.0000000000000000    0.0000000000000000
    -0.0049186488613486   18.0627994537353516    0.0000000000000000
     0.0000000000000000    0.0000000000000000   62.4874992370605469
 H   C   N   I   Pb 
 143  39  47  72  24
Cartesian
  8.1233959197998047  5.6573200225830078 36.1861190795898509
  8.0990047454833984 15.2469978332519531 35.9516792297363281
 16.7869129180908203  4.6319456100463867 36.3969764709472656
 17.2505874633789062 14.5700712203979474 36.5320854187011719
  5.3717575073242188  0.9926306605339050 36.2651062011718750
  5.5798373222351074 10.1162271499633789 36.2972030639648438
 14.1948156356811523  1.2988793849945066 36.3333625793457102
  1.9579257965087886  3.9930670261383057 34.8098869323730469
  1.6520328521728513 12.3020639419555664 35.1046867370605469
 10.3650407791137695  3.1849262714385986 34.7955360412597656
  9.1822443008422852 11.8197126388549787 35.4320411682128977
  6.4872298240661621  0.4270610809326172 35.0695724487304688
  5.1715903282165527 11.1091718673706055 34.9339408874511719
 15.5192670822143537  0.8621118068695068 35.3122444152832102
  1.1858673095703121  3.9548761844635010 36.3434486389160156
  0.6312446594238278 12.4882612228393555 36.4742889404296946
 10.2206468582153320  4.4756269454956055 36.0049133300781321
  8.7204256057739258 12.9473924636840820 36.6910133361816477
  4.5431027412414551  7.8161659240722656 36.3540916442871094
  3.0147767066955566  0.1074665933847427 36.0624427795410156
 12.1589054325595498 17.9246240854263306 36.2412567138671875
  6.8209910392761222  5.1469306945800781 35.1375274658203196
  8.4381408691406250 15.6514253616333008 34.2979278564453125
 16.0145606994628906  4.8137097358703613 34.8665199279785156
 17.4944725036621094 15.6725921630859375 35.1841850280761790
  3.5066030025482178  7.4126434326171875 35.0365066528320312
  2.6551727512851357 17.1941254734992981 34.6817092895507812
 12.2694849232211709 16.5411607027053833 35.1676330566406250
  8.1218881607055664  3.5750839710235596 34.0615921020507812
  9.1577730178833008 13.4778251647949219 33.8048744201660156
 18.0533733367919922  4.4978871345520020 33.6754112243652415
  0.9783191680908190 14.2933902740478516 34.1142539978027344
  3.7968218326568604  9.4770736694335920 34.0013618469238281
  4.8670357922092080 17.2684049010276794 33.9270095825195312
 14.3995794514194131 17.0885368585586548 34.4429702758789062
  8.2903213500976562  5.5718193054199219 42.2792129516601562
  7.7723369598388672 14.7038183212280273 41.9613571166992188
 17.3882573843002319  5.0682020187377930 42.5085792541503977
 16.8902554512023926 14.2616949081420898 42.1331748962402344
  5.5173673629760742  1.0206117630004883 42.0864791870117259
  5.3611564636230469  9.8733777999877930 42.2836875915527415
 14.3604755401611310  0.9061198830604553 42.3218650817871165
 15.1829481124877930  9.3858871459960938 41.8278656005859375
  1.5675079822540281  3.1915442943572998 40.3005943298339844
  1.7351908683776855 12.4545021057128906 40.8922080993652415
 10.3012447357177717  2.9446437358856201 40.6713256835937500
 10.3832521438598633 12.2643241882324201 41.1149559020996094
  3.2150926589965820  7.4927258491516113 40.5339126586914062
  3.1397048691287637 16.6268916130065918 40.7443466186523438
 11.7839384078979492  8.4156999588012695 41.0785026550292969
 12.1008428791537881 16.7043151855468750 40.5008163452148509
  1.2034721374511719  3.3648722171783447 41.9901084899902344
  0.7507019042968750 12.5451602935791016 42.3027610778808665
 10.0680294036865234  3.7094898223876953 42.2320442199707102
  9.5647287368774414 12.9558115005493146 42.4965858459472656
  3.6891465187072754  7.9195103645324707 42.1292762756347727
  3.6581184128299356 17.2435334324836731 42.2619705200195384
 13.0313396453857422  8.1401138305664062 42.2075271606445384
 12.4521097401157004 17.1943651437759435 42.1186370849609375
  7.5228767395019531  5.8641381263732910 40.7570495605468750
  7.5905156135559073 15.0425453186035138 40.2605781555175781
 16.6824824810028076  5.8335943222045898 41.0792388916015625
 16.7894597053527832 15.1135082244873047 40.6190490722656250
  5.9835844039916992  1.4158139228820801 40.4673118591308594
  5.8125114440917969 10.5390491485595703 40.7700767517089844
 15.0758905410766602  1.3523817062377930 40.8129272460937500
 15.2776594161987287 10.2958354949951154 40.3211708068847656
  0.0058451741933823  4.7008180618286133 39.6143264770507884
  0.5875747203826904 14.0681467056274414 39.7337532043457031
  8.7272357940673828  4.2455596923828125 39.6278419494628977
  9.2138538360595703 13.5599946975708008 39.6079101562500000
  4.5273312786594033 17.9760886356234550 39.4975280761718750
  4.5264196395874023  9.1286334991455078 39.5335464477539062
 13.7224573353305459 18.0620003994554281 39.5576362609863281
 13.1237859725952131  9.8075180053710938 39.7526473999023438
  8.1032123565673828  5.4420318603515616 48.0459518432617259
  8.1007528305053711 14.4734306335449219 48.0459518432617259
 17.1336116790771484  5.4420318603515616 48.0459518432617259
 17.1311531066894531 14.4734306335449219 48.0459518432617259
  5.4410333633422852  0.9265221953392029 48.0449485778808594
  5.4385743141174316  9.9579219818115234 48.0449485778808594
 14.4714326858520490  0.9265221953392029 48.0449485778808594
 14.4689741134643555  9.9579219818115234 48.0449485778808594
  1.4218254089355467  3.0919990539550781 46.4558296203613281
  1.4193661212921143 12.1233978271484375 46.4558296203613281
 10.4522256851196289  3.0919990539550781 46.4558296203613281
 10.4497661590576172 12.1233978271484375 46.4558296203613281
  3.0899283885955806  7.6075901985168457 46.4545211791992188
  3.0874691009521484 16.6389904022216797 46.4545211791992188
 12.1203289031982422  7.6075901985168457 46.4545211791992188
 12.1178693771362305 16.6389904022216797 46.4545211791992188
  0.9247469902038573  3.5893490314483643 48.0459518432617259
  0.9222877025604248 12.6207475662231445 48.0459518432617259
  9.9551477432250977  3.5893490314483643 48.0459518432617259
  9.9526882171630859 12.6207475662231445 48.0459518432617259
  3.5868983268737793  8.1048498153686523 48.0448913574218821
  3.5844390392303462 17.1362495422363281 48.0448913574218821
 12.6172990798950195  8.1048498153686523 48.0448913574218821
 12.6148395538330078 17.1362495422363281 48.0448913574218821
  7.6061611175537109  5.9393639564514160 46.4558296203613281
  7.6037015914916992 14.9707632064819336 46.4558296203613281
 16.6365604400634766  5.9393639564514160 46.4558296203613281
 16.6341018676757812 14.9707632064819336 46.4558296203613281
  5.9380125999450684  1.4238001108169553 46.4545211791992188
  5.9355530738830566 10.4551992416381836 46.4545211791992188
 14.9684123992919904  1.4238001108169553 46.4545211791992188
 14.9659538269042951 10.4551992416381836 46.4545211791992188
 -0.0011664569610730  4.5157265663146973 45.3548011779785156
 -0.0036257810425013 13.5471258163452148 45.3548011779785156
  9.0292339324951172  4.5157265663146973 45.3548011779785156
  9.0267744064331037 13.5471258163452148 45.3548011779785156
  4.5152091979980469  0.0000000000000000 45.3536758422851562
  4.5127501487731934  9.0313997268676740 45.3536758422851562
 13.5456094741821289  0.0000000000000000 45.3536758422851562
 13.5431499481201172  9.0313997268676740 45.3536758422851562
 12.9452934265136719  7.9604582786560059 33.8975410461425781
 13.2848215103149396  9.0342664718627930 32.5703392028808594
 11.7757720947265625  9.8362607955932617 35.0775680541992188
 12.5613775253295881 11.4222898483276367 35.0470314025878906
 15.1713085174560547  9.1001520156860352 35.8929710388183594
 13.9480705261230469 10.2590646743774414 36.4849166870117188
 15.6228055953979492 10.0685491561889648 33.4893035888671875
 14.3553256988525391 11.1894502639770508 33.0311050415039062
 15.6075038909912109  8.5555639266967773 32.5589828491210938
 15.6470222473144531  7.8686709403991699 34.1840095520019531
 15.8903293609619141  6.1243638992309570 32.5303802490234446
 14.3247900009155273  5.9094462394714355 33.3357086181640696
 11.3820199966430664  9.8745756149291992 32.6815948486328196
 12.4730882644653320 11.2688150405883789 32.4658546447753906
 10.9560518264770508 11.4520540237426758 33.3174362182617188
 13.5906286239624023  8.0996780395507812 37.4170761108398509
 13.3666868209838867  7.3107857704162598 35.8597068786621094
 12.1539678573608381  8.4974546432495117 36.4333953857421875
 14.9991502761840820 12.3277988433837891 35.4502983093261719
 15.9412899017333984 12.5047616958618146 33.9912185668945312
 16.4648094177246094 11.3380537033081055 35.1908454895019531
 14.8888711929321289  7.1263232231140128 30.5471305847168004
 14.2367248535156250  5.5044546127319336 30.8249931335449219
 11.9867820739746094  5.7300286293029785 32.5982360839843750
 13.3241662979125977  8.4811649322509766 29.6020870208740270
  9.7451000213623047  6.7351698875427246 32.5140419006347656
 11.0810241699218732  9.5074882507324219 29.5210170745849609
  9.2506408691406250  8.6174211502075195 30.9877166748046911
 18.0300292968750000  4.4210395812988281 34.7757301330566477
  0.5328788757324202 13.9759712219238281 35.0670623779296946
  8.5551357269287109  4.1571793556213379 34.8783531188964915
  8.8772077560424805 13.7315378189086914 34.8103866577148438
  4.3208751678466797  9.2671642303466797 34.9218330383300781
  4.5752805927768350 17.8220823109149933 34.8094329833984375
 13.8901380756869912 17.7216706275939941 35.1667556762695312
  0.0900435447692871  4.5172185897827148 40.6905403137207031
  0.2304360270500183 13.7963609695434570 40.7413024902343750
  8.9085550308227539  4.4086990356445312 40.6897239685058594
  8.9986200332641602 13.6563863754272461 40.6807823181152344
  4.5088443756103516  9.0209770202636719 40.6244277954101634
  4.5530475834384561 18.0459701120853424 40.5854873657226562
 13.5278091430664045  9.3461084365844727 40.6695823669433665
 13.5944747924804688  0.0000067101791501 40.6379013061523438
  9.0289716720581055  4.5156092643737793 46.4455223083496165
  9.0265130996704102 13.5470085144042969 46.4455223083496165
 18.0593719482421875  4.5156092643737793 46.4455223083496165
 18.0569133758544922 13.5470085144042969 46.4455223083496165
  4.5152091979980469  0.0000180629995157 46.4442062377929759
  4.5127501487731934  9.0314178466796857 46.4442062377929759
 13.5456094741821289  0.0000180629995157 46.4442062377929759
 13.5431499481201172  9.0314178466796857 46.4442062377929759
 12.8282346725463867  7.0531959533691406 31.1030292510986328
 11.8174448013305664  6.5501790046691895 31.9061527252197266
 12.5401411056518555  8.1178617477416992 30.2404613494873047
 10.5344581604003906  7.1043930053710938 31.8527202606201172
 11.2721700668334943  8.6716356277465820 30.1862754821777379
 10.2448368072509766  8.1822414398193359 31.0065879821777344
 13.6993942260742170  8.6575222015380859 33.5173110961914134
 12.4166240692138654 10.5035629272460938 34.4900779724121165
 14.1001176834106445  9.3666782379150391 35.8695793151855469
 14.8624687194824219 10.7430877685546875 33.8841018676757812
 15.0329494476318359  7.9447789192199707 33.2715835571289062
 14.8788146972656232  6.5584034919738770 32.6440162658691406
 11.7916221618652344 10.7694778442382812 33.1484985351562500
 13.2314777374267578  8.2526674270629883 36.3958091735839844
 15.5889911651611328 11.7725944519042951 34.7193679809570384
 14.2474145889282227  6.5339512825012198 31.2172031402587891
  1.1013298034667962  4.0903582572937012 35.3441619873046875
  0.9647693634033200 12.8583831787109375 35.5782432556152344
  9.7835798263549805  3.8797433376312256 35.2774620056152344
  9.0020532608032227 12.8002290725708008 35.7220268249511719
  7.8145375251770020  5.0932049751281738 35.3953628540039062
  8.4441862106323242 14.9511098861694336 35.0519371032714844
 16.8898677825927734  4.6542267799377441 35.3799629211425781
 17.6618919372558594 14.7412881851196271 35.5818405151367188
  4.1355586051940918  8.1070680618286133 35.4772224426269531
  3.3359259823337193 17.7174605727195740 35.2146797180175781
 12.6682781437411904 17.4260081052780151 35.5240783691406321
  5.5010132789611808  0.4518192410469055 35.4176712036132884
  5.0781602859497070 10.2103414535522461 35.4172096252441477
 14.5813312530517578  0.6603287458419800 35.6535911560058665
  1.0111745595932007  3.6444134712219238 41.0317840576171875
  0.9279054403305054 12.8768262863159180 41.3645896911621094
  9.8178167343139648  3.6452562808990479 41.2381439208984375
  9.6869106292724609 12.9149551391601562 41.5134124755859375
  3.7684292793273926  8.0843734741210938 41.1445655822753906
  3.7571386555209756 17.2781488895416260 41.2631607055664062
 12.7471141815185547  8.5561132431030273 41.3481025695800852
 12.6796459415927529 17.2879982590675354 41.1424522399902344
  8.2068004608154297  5.3378586769104004 41.2969932556152415
  8.0645418167114258 14.5228652954101545 41.0105171203613352
 17.3630392551422119  5.1688246726989746 41.4845771789550781
 17.2455344796180725 14.4273147583007795 41.2043457031250000
  5.4023346900939941  0.8557175397872925 41.0956382751464915
  5.2870073318481445  9.8748693466186523 41.2844009399414062
 14.3837118148803711  0.8002018332481384 41.3217430114746094
 14.7528467178344727  9.6836366653442383 40.9666366577148438
  0.8273094892501831  3.6869695186614990 47.0359649658203125
  0.8248501420021057 12.7183685302734375 47.0359649658203125
  9.8577098846435547  3.6869695186614990 47.0359649658203125
  9.8552503585815412 12.7183685302734375 47.0359649658203125
  3.6843190193176270  8.2023353576660156 47.0346527099609375
  3.6818594932556152 17.2337341308593750 47.0346527099609375
 12.7147188186645508  8.2023353576660156 47.0346527099609375
 12.7122592926025391 17.2337341308593750 47.0346527099609375
  8.2006769180297852  5.3445744514465332 47.0360260009765696
  8.1982173919677734 14.3759746551513672 47.0360260009765696
 17.2310771942138672  5.3445744514465332 47.0360260009765696
 17.2286186218261719 14.3759746551513672 47.0360260009765696
  5.3436489105224600  0.8290914893150328 47.0346527099609375
  5.3411893844604483  9.8604917526245117 47.0346527099609375
 14.3740482330322266  0.8290914893150328 47.0346527099609375
 14.3715896606445312  9.8604917526245117 47.0346527099609375
 13.7591094970703125  9.8352518081665021 34.4632568359375000
  8.9665193557739258  0.3443240821361542 34.4380340576171875
  8.7048854827880859  9.3393621444702148 34.7284851074218821
 17.9139321297407150  0.0454172827303410 34.5249633789062500
  0.6080771088600159  9.0919923782348633 34.6133155822753906
  4.4867420196533203  4.4129767417907715 34.4345817565917969
  4.6432976722717276 13.6776418685913086 34.5240554809570312
 13.4397001266479492  3.8749337196350098 34.8864822387695312
 12.8478107452392578 14.2371406555175781 34.1845207214355469
  0.0974163636565208  0.0035097689833492 40.9094734191894531
  0.2102806270122528  8.8602581024169922 40.9485054016113352
  8.9869909286499023  0.0827858820557594 40.8836555480957031
  9.1496267318725568  8.8652458190917969 40.9635658264160156
  4.5586080551147461  4.4662079811096191 40.9234619140625000
  4.4777245521545410 13.6462488174438459 40.9165382385253977
 13.3895959854125977  4.5856032371520996 40.9914741516113281
 13.5662326812744141 13.6515207290649414 40.7992591857910156
  2.5840249061584473  1.9476345777511597 37.9552040100097656
  2.6130373477935787 11.0597238540649414 38.2097434997558665
 11.6674432754516602  1.9094114303588867 38.1694602966308665
 11.1873445510864258 11.4046325683593750 38.4580345153808594
  6.4074964523315430  7.1109933853149414 38.1463737487792969
  6.6478891372680664 16.0259094238281250 38.0546150207519531
 15.9494524002075178  6.6995754241943359 38.3569526672363352
 15.5509281158447266 16.0239734649658203 38.1624755859375000
  2.0110678672790527  6.4062042236328125 38.0763549804687500
  2.1927986145019531 15.8249320983886719 38.0434265136718821
 10.6049375534057617  6.1923294067382812 37.8953056335449219
 11.0182342529296875 15.6087141036987305 38.1547927856445312
  7.0034060478210449  2.4308176040649410 38.0452117919921875
  6.9050726890563965 11.4116296768188477 38.3077011108398438
 15.9905805587768537  2.5510072708129878 38.3224449157714844
 16.5224723815917969 11.7752437591552717 38.5669631958007812
  0.0000000000000000  0.0000000000000000 47.1735610961914062
 -0.0024593239650130  9.0313997268676740 47.1735610961914062
  9.0304002761840803  0.0000000000000000 47.1735610961914062
  9.0279407501220685  9.0313997268676740 47.1735610961914062
  4.5139794349670410  4.5156998634338379 47.1742515563964844
  4.5115203857421875 13.5470991134643537 47.1742515563964844
 13.5443792343139648  4.5156998634338379 47.1742515563964844
 13.5419197082519531 13.5470991134643537 47.1742515563964844
  2.4519233703613277  2.0629522800445557 44.0401268005371165
  2.4494640827178955 11.0943517684936523 44.0401268005371165
 11.4823226928710920  2.0629522800445557 44.0401268005371165
 11.4798641204833984 11.0943517684936523 44.0401268005371165
  6.5760178565979004  6.9684472084045410 44.0401268005371165
  6.5735583305358887 15.9998464584350586 44.0401268005371165
 15.6064186096191406  6.9684472084045410 44.0401268005371165
 15.6039590835571289 15.9998464584350586 44.0401268005371165
  2.0610768795013428  6.5788145065307617 44.0400009155273509
  2.0586175918579102 15.6102142333984375 44.0400009155273509
 11.0914773941040039  6.5788145065307617 44.0400009155273509
 11.0890178680419922 15.6102142333984375 44.0400009155273509
  6.9668641090393066  2.4525938034057613 44.0400657653808665
  6.9644045829772949 11.4839935302734375 44.0400657653808665
 15.9972639083862305  2.4525938034057613 44.0400657653808665
 15.9948053359985352 11.4839935302734375 44.0400657653808665
  2.4316265583038330  2.0832188129425049 50.0684852600097656
  2.4291670322418213 11.1146183013915998 50.0684852600097656
 11.4620265960693359  2.0832188129425049 50.0684852600097656
 11.4595670700073224 11.1146183013915998 50.0684852600097656
  6.5963144302368164  6.9481806755065918 50.0684852600097656
  6.5938549041748047 15.9795799255371076 50.0684852600097656
 15.6267137527465803  6.9481806755065918 50.0684852600097656
 15.6242542266845703 15.9795799255371076 50.0684852600097656
  2.0811281204223633  6.5990090370178223 50.0690460205078125
  2.0786688327789307 15.6304082870483398 50.0690460205078125
 11.1115283966064453  6.5990090370178223 50.0690460205078125
 11.1090688705444336 15.6304082870483398 50.0690460205078125
  6.9468131065368652  2.4323906898498531 50.0690460205078125
  6.9443535804748535 11.4637899398803711 50.0690460205078125
 15.9772129058837891  2.4323906898498531 50.0690460205078125
 15.9747543334960938 11.4637899398803711 50.0690460205078125
 17.9340010881423950  0.0934100002050400 37.8039970397949219
  0.1276034116744995  9.1205949783325195 37.7604751586914062
  9.0823526382446289  0.1590958833694458 37.6936225891113281
  9.0065431594848633  9.0734148025512695 37.8290443420410156
  4.5295782089233398  4.5722064971923828 37.7458648681640625
  4.4775552749633789 13.6264944076538086 37.7025718688964915
 13.4392337799072266  4.6464657783508301 37.9218826293945312
 13.3913021087646484 13.6810531616210938 37.6607818603515625
  0.0000090280000222  0.0000090310004452 44.0429992675781250
 -0.0024502959568053  9.0314083099365234 44.0429992675781250
  9.0304088592529297  0.0000090310004452 44.0429992675781250
  9.0279493331909180  9.0314083099365234 44.0429992675781250
  4.5139703750610352  4.5156903266906738 44.0427513122558594
  4.5115113258361816 13.5470905303955078 44.0427513122558594
 13.5443706512451172  4.5156903266906738 44.0427513122558594
 13.5419111251831037 13.5470905303955078 44.0427513122558594
  0.0000000000000000  0.0000000000000000 50.4472808837890696
 -0.0024593239650130  9.0313997268676740 50.4472808837890696
  9.0304002761840803  0.0000000000000000 50.4472808837890696
  9.0279407501220685  9.0313997268676740 50.4472808837890696
  4.5139703750610352  4.5156998634338379 50.4472808837890696
  4.5115113258361816 13.5470991134643537 50.4472808837890696
 13.5443706512451172  4.5156998634338379 50.4472808837890696
 13.5419111251831055 13.5470991134643537 50.4472808837890696
