 H  C  N  I Pb 
 1.0000000000000000
    18.0608005523681641    0.0000000000000000    0.0000000000000000
    -0.0049186488613486   18.0627994537353516    0.0000000000000000
     0.0000000000000000    0.0000000000000000   62.4874992370605469
 H   C   N   I   Pb 
 143  39  47  72  24
Cartesian
  8.3948974609375000  6.1330075263977051 35.1536750793457031
  7.8941121101379395 14.8565969467163086 35.9230766296386719
 16.6766891479492188  5.1733083724975586 35.9908676147460938
 16.8633880615234375 14.7704706192016602 35.7779922485351562
  5.8521780967712402  1.3894867897033691 35.6619224548339844
  6.2900180816650391  9.8240795135498047 34.7645378112793040
 14.5790357589721680  1.6791033744812012 35.2994346618652344
  1.9627952575683614  4.5274920463562012 34.7556037902832031
  1.3467197418212900 12.2116651535034162 36.0741653442382812
  9.9707069396972638  2.8162794113159180 35.0500984191894531
  9.0899229049682617 11.6220693588256836 34.7507019042968750
  6.8281159400939941  0.2270447909832001 34.8236503601074219
  5.3010225296020508 11.2369937896728516 34.4303283691406321
 15.8413686752319336  0.5894629359245300 34.7367057800292969
  1.0877838134765614  5.2828636169433594 36.0488014221191477
 17.8020954132080078 12.5993127822875977 36.5848197937011719
 10.3413152694702131  4.4865136146545410 35.4514617919921946
  8.0491113662719727 12.3630228042602539 35.9246902465820312
  4.9478483200073242  7.8529381752014160 35.7363739013671875
  3.4161322116851807  1.0313607454299927 35.7565498352050852
 12.4124383926391602  0.5868286490440369 35.9818496704101562
  6.8872284889221183  5.3607592582702637 34.6846618652343750
  8.9471836090087891 15.6958770751953125 34.8238143920898438
 15.9364118576049787  4.2545919418334961 34.6978378295898438
 17.8480606079101562 15.6862850189208984 34.6803779602050781
  3.2216525077819824  8.0099792480468750 35.5794181823730469
  2.7863356331363320 17.6862608194351196 34.9837532043457031
 12.3117927769199014 16.9287267923355103 35.6240844726562500
  7.7692379951477051  3.2800395488739014 34.5216064453125000
  9.8036451339721680 13.7246360778808594 33.9077186584472656
 18.0354900360107422  3.7786316871643066 33.7040252685546946
  1.5175552368164047 14.0982131958007812 34.6932106018066406
  3.3030245304107666 10.1339712142944336 34.7533645629882884
  4.9190215328708291 16.9490721225738525 34.3021545410156250
 14.4282240131869912 16.7833132743835449 34.8354911804199290
  7.9681606292724600  5.4430394172668448 41.9479064941406250
  8.1723299026489258 14.5431823730468750 42.1132850646972656
 17.1133594512939489  5.1597194671630859 42.1567192077636790
 16.5929127931594849 13.3153152465820312 41.7512626647949219
  5.4377350807189941  0.9431976079940796 42.0261154174804688
  5.3460402488708496 10.1391544342041016 42.0849380493164062
 14.5459432601928711  1.0422950983047485 42.0814857482910156
 15.2066125869750977  8.4725027084350586 41.3669090270996094
  1.5233103036880493  3.0261738300323486 40.4775886535644531
  2.0164489746093750 12.7959632873535156 40.8463516235351562
 10.4575128555297852  3.1012175083160400 40.6088981628418040
 10.3447675704956037 12.1001386642456055 40.4192199707031250
  3.3290224075317378  7.4508867263793945 40.5924987792968750
  3.0515314796939492 16.6890972852706945 40.4561195373535227
 11.5812587738037109  8.5560331344604492 40.9521980285644531
 12.1885036686435342 16.6038461923599243 40.7642097473144531
  0.9425220489501953  3.3632276058197021 42.0815429687500000
  0.6709146499633789 12.0154504776000977 41.6403274536132812
  9.8134422302246094  3.6447026729583740 42.1354293823242188
  9.9468822479248047 12.6141710281372070 42.0354080200195312
  3.6953012943267822  8.1137475967407227 42.1519165039062500
  3.5782181480899453 17.1701664924621582 42.0506286621093821
 12.8844327926635724  7.4696707725524902 41.3926544189453196
 12.7353567341342568 17.2410187721252477 42.2943763732910156
  7.5756378173828125  5.9004926681518555 40.3189468383789062
  7.6372160911560059 15.0622797012329102 40.5443458557128906
 16.6891690492630040  5.8094701766967765 40.5889129638671875
 16.5943915843963659 14.8667106628417969 40.9448852539062500
  5.9257550239562979  1.4361876249313354 40.4314613342285227
  5.8262495994567871 10.6019735336303711 40.4766464233398509
 14.9707546234130859  1.4291185140609741 40.4327201843261719
 15.3326263427734375 10.0640811920166016 40.6913032531738281
  0.1464004218578339  4.5325736999511719 39.4341201782226562
  0.7493421435356140 14.6894569396972656 40.2811889648437500
  9.1127967834472638  4.4957184791564941 39.3501510620117259
  8.9241876602172852 13.5686664581298828 39.3806915283203125
  4.4749283790588379  0.0345759913325310 39.3392524719238281
  4.6418728828430176  8.9312047958374023 39.4293518066406321
 13.5460647800937295 17.9575570598244667 39.4976310729980540
 13.0387306213378888 10.3081722259521484 40.4283905029296946
  8.1032123565673828  5.4420318603515616 48.0459518432617259
  8.1007528305053711 14.4734306335449219 48.0459518432617259
 17.1336116790771484  5.4420318603515616 48.0459518432617259
 17.1311531066894531 14.4734306335449219 48.0459518432617259
  5.4410333633422852  0.9265221953392029 48.0449485778808594
  5.4385743141174316  9.9579219818115234 48.0449485778808594
 14.4714326858520490  0.9265221953392029 48.0449485778808594
 14.4689741134643555  9.9579219818115234 48.0449485778808594
  1.4218254089355467  3.0919990539550781 46.4558296203613281
  1.4193661212921143 12.1233978271484375 46.4558296203613281
 10.4522256851196289  3.0919990539550781 46.4558296203613281
 10.4497661590576172 12.1233978271484375 46.4558296203613281
  3.0899283885955806  7.6075901985168457 46.4545211791992188
  3.0874691009521484 16.6389904022216797 46.4545211791992188
 12.1203289031982422  7.6075901985168457 46.4545211791992188
 12.1178693771362305 16.6389904022216797 46.4545211791992188
  0.9247469902038573  3.5893490314483643 48.0459518432617259
  0.9222877025604248 12.6207475662231445 48.0459518432617259
  9.9551477432250977  3.5893490314483643 48.0459518432617259
  9.9526882171630859 12.6207475662231445 48.0459518432617259
  3.5868983268737793  8.1048498153686523 48.0448913574218821
  3.5844390392303462 17.1362495422363281 48.0448913574218821
 12.6172990798950195  8.1048498153686523 48.0448913574218821
 12.6148395538330078 17.1362495422363281 48.0448913574218821
  7.6061611175537109  5.9393639564514160 46.4558296203613281
  7.6037015914916992 14.9707632064819336 46.4558296203613281
 16.6365604400634766  5.9393639564514160 46.4558296203613281
 16.6341018676757812 14.9707632064819336 46.4558296203613281
  5.9380125999450684  1.4238001108169553 46.4545211791992188
  5.9355530738830566 10.4551992416381836 46.4545211791992188
 14.9684123992919904  1.4238001108169553 46.4545211791992188
 14.9659538269042951 10.4551992416381836 46.4545211791992188
 -0.0011664569610730  4.5157265663146973 45.3548011779785156
 -0.0036257810425013 13.5471258163452148 45.3548011779785156
  9.0292339324951172  4.5157265663146973 45.3548011779785156
  9.0267744064331037 13.5471258163452148 45.3548011779785156
  4.5152091979980469  0.0000000000000000 45.3536758422851562
  4.5127501487731934  9.0313997268676740 45.3536758422851562
 13.5456094741821289  0.0000000000000000 45.3536758422851562
 13.5431499481201172  9.0313997268676740 45.3536758422851562
 13.0035305023193359  8.0403451919555664 33.6556663513183594
 13.4039354324340820  8.9779930114746094 32.2229843139648438
 11.9722890853881836  9.9898452758789062 34.7352294921875000
 12.8247184753417969 11.5436773300170898 34.6489601135253906
 15.4201307296752912  9.2055435180664062 35.4352684020996165
 14.3277673721313477 10.4643373489379883 36.0230255126953125
 15.8706588745117188 10.1058406829833984 33.1668357849121094
 14.6047048568725586 11.1634340286254883 32.5089950561523438
 15.7621145248413086  8.3438825607299805 32.3316078186035156
 15.5884304046630859  7.6901903152465811 33.9532127380371165
 15.7676324844360334  5.8881187438964844 32.4045677185058665
 14.1629915237426758  5.8507685661315918 33.1084671020507812
 11.5311231613159180  9.9840221405029297 32.3156242370605469
 12.5729064941406250 11.4272184371948224 32.0631217956542969
 11.0851879119873029 11.5400476455688459 33.0022583007812571
 13.8029537200927734  8.4276447296142578 37.1765174865722727
 13.6374177932739258  7.4786605834960938 35.7004928588867188
 12.4231357574462891  8.7187595367431641 36.1108589172363352
 14.7787675857543945 12.5060234069824219 34.7498664855957102
 16.1923599243164062 12.5276384353637678 33.6902503967285156
 16.2149658203125000 11.4816312789916992 35.1160240173339844
 14.8174009323120117  6.8740701675415039 30.2980995178222656
 14.2109956741332990  5.2731537818908691 30.7000293731689489
 11.9698829650878906  5.4568877220153809 32.3766937255859375
 13.2243680953979492  8.3172578811645508 29.4032230377197301
  9.6669788360595703  6.3831777572631836 32.2839164733886790
 10.9159870147705078  9.2157230377197248 29.2840003967285156
  9.1305236816406250  8.2795753479003906 30.7654895782470703
 17.9803409576416016  4.3407568931579590 34.6349449157714915
  0.5935897827148470 13.9124250411987305 35.2491378784179688
  8.4346227645874023  4.0979743003845215 34.8091011047363281
  9.0479202270507795 13.6701316833496076 34.6910324096679688
  4.2404780387878418  9.6057844161987305 34.9337272644042969
  4.8100008228793740 17.8944926112890244 34.8387222290039134
 14.0718530872836691 17.7593604922294617 35.1653900146484375
  0.0795030668377876  4.4220924377441406 40.5237579345703125
  0.2973520159721375 13.8708572387695312 40.8471069335937500
  9.0241003036499023  4.5014491081237793 40.4396209716796875
  8.9815940856933594 13.5734806060791016 40.4700775146484446
  4.5943403244018555  9.0092868804931641 40.5145072937011790
  4.4896883964538574  0.0272480510175228 40.4335212707519531
 13.4352178573608398  9.3711786270141602 40.8184471130371094
 13.5773004749789834 18.0460609272122383 40.5878829956054759
  9.0289716720581055  4.5156092643737793 46.4455223083496165
  9.0265130996704102 13.5470085144042969 46.4455223083496165
 18.0593719482421875  4.5156092643737793 46.4455223083496165
 18.0569133758544922 13.5470085144042969 46.4455223083496165
  4.5152091979980469  0.0000180629995157 46.4442062377929759
  4.5127501487731934  9.0314178466796857 46.4442062377929759
 13.5456094741821289  0.0000180629995157 46.4442062377929759
 13.5431499481201172  9.0314178466796857 46.4442062377929759
 12.7650413513183594  6.8385720252990723 30.9017848968505859
 11.7397346496582031  6.2890691757202148 31.6986446380615234
 12.4407882690429688  7.8871831893920898 30.0339450836181676
 10.4407367706298828  6.8034482002258292 31.6422634124755859
 11.1400976181030273  8.3966302871704102 29.9696617126464879
 10.1381072998046857  7.8642587661743164 30.7833099365234375
 13.7969102859497070  8.6328220367431641 33.1834487915039134
 12.6236591339111328 10.6095933914184570 34.1090621948242188
 14.3675813674926758  9.5218954086303711 35.4662742614746165
 15.0405569076538086 10.7686252593994141 33.4345626831054688
 15.0645389556884766  7.8106565475463867 32.9916305541992188
 14.7991838455200178  6.4169788360595703 32.4154472351074219
 11.9383363723754883 10.8876266479492170 32.7829437255859375
 13.4947366714477539  8.4799642562866211 36.1249351501464844
 15.5709934234619141 11.8776865005493164 34.3215675354003906
 14.1864089965820312  6.3294410705566406 31.0067787170410192
  1.0479583740234373  4.7243051528930664 35.1837348937988281
  0.5325679779052742 12.8183679580688477 35.9612960815429688
  9.6789159774780256  3.7960343360900879 35.0872306823730469
  8.6875953674316406 12.4856672286987305 35.1255149841308594
  7.9007220268249512  5.2959775924682617 34.8367118835449290
  8.5625801086425781 14.8006010055541992 35.1468505859375000
 16.7952156066894531  4.5777206420898438 35.1534957885742259
 17.6711196899414062 14.7831888198852539 35.1368751525878906
  4.1459417343139648  8.3676815032958984 35.3610801696777344
  3.6108558177947998  0.1809269785881042 35.2158889770507884
 12.8317598560824990 17.8077453374862671 35.5922546386718750
  5.8924851417541504  0.5390597581863403 35.0902290344238281
  5.3595194816589355 10.2414007186889648 34.6703605651855469
 14.8861846923828125  0.7214924693107604 35.0777168273925781
  0.8808259367942810  3.5488662719726562 41.0771026611328196
  1.0178840160369873 12.8085660934448224 41.0975646972656250
  9.8104915618896484  3.7075262069702148 41.1192893981933594
  9.7921028137207013 12.7036485671997070 41.0228004455566477
  3.8400406837463379  8.1381034851074219 41.1384010314941406
  3.6549431541934605 17.2706173658371007 41.0364189147949219
 12.5899906158447266  8.4037017822265625 41.0823860168457031
 12.7964042881503701 17.2468286752700806 41.2737236022949219
  8.1395874023437500  5.3316373825073242 40.9504661560058594
  8.2259683609008789 14.4410085678100568 41.0981750488281250
 17.2732357978820836  5.1804518699645996 41.1491889953613281
 17.1022005081176793 14.0221033096313477 41.2077636718750000
  5.3357000350952148  0.8449814319610596 41.0185890197753977
  5.2973279953002930  9.9670047760009766 41.0764427185058594
 14.3999624252319318  0.8841263651847838 41.0858383178710938
 14.7387466430664062  9.2837162017822266 40.9659996032714844
  0.8273094892501831  3.6869695186614990 47.0359649658203125
  0.8248501420021057 12.7183685302734375 47.0359649658203125
  9.8577098846435547  3.6869695186614990 47.0359649658203125
  9.8552503585815412 12.7183685302734375 47.0359649658203125
  3.6843190193176270  8.2023353576660156 47.0346527099609375
  3.6818594932556152 17.2337341308593750 47.0346527099609375
 12.7147188186645508  8.2023353576660156 47.0346527099609375
 12.7122592926025391 17.2337341308593750 47.0346527099609375
  8.2006769180297852  5.3445744514465332 47.0360260009765696
  8.1982173919677734 14.3759746551513672 47.0360260009765696
 17.2310771942138672  5.3445744514465332 47.0360260009765696
 17.2286186218261719 14.3759746551513672 47.0360260009765696
  5.3436489105224600  0.8290914893150328 47.0346527099609375
  5.3411893844604483  9.8604917526245117 47.0346527099609375
 14.3740482330322266  0.8290914893150328 47.0346527099609375
 14.3715896606445312  9.8604917526245117 47.0346527099609375
 13.9626893997192383  9.8790016174316406 34.0404586791992188
  9.3725624084472656  0.1973832994699478 34.5753593444824219
  8.8446750640869141  8.9315414428710938 34.5211296081543040
  0.2167028486728668  0.1434035748243332 34.3933029174804688
  0.4331642985343933  9.0222740173339844 34.6421356201171875
  4.5432848930358887  4.1861233711242676 34.5541458129882884
  4.5771121978759766 13.7743787765502930 34.4993705749511719
 13.2708873748779297  3.8403730392456055 34.7315063476562571
 12.6332073211669922 14.3864116668701172 34.7019500732421875
 18.0418014954775572 17.8259142637252808 40.8556327819824290
  0.2276047468185425  9.0290327072143555 40.9510726928711009
  8.9319725036621094  0.0751940608024597 40.9322052001953196
  9.0268869400024414  8.9420204162597656 40.8671913146972656
  4.5529394149780273  4.4539775848388672 40.9079055786132812
  4.5482530593872061 13.6220827102661133 40.8765983581542969
 13.4978408813476562  4.8699002265930176 40.9310684204101562
 13.5153083801269531 13.3626165390014648 40.9016647338867188
  2.3472702503204346  2.1992936134338379 37.9413642883300781
  2.7125475406646729 10.9876890182495117 37.9628715515136719
 11.5374708175659162  2.0707235336303711 38.2300071716308594
 11.4072589874267560 11.1613559722900391 37.9031600952148438
  6.5154514312744141  7.0416674613952637 37.8227005004882884
  6.6691474914550781 16.0127372741699219 37.9650192260742259
 16.0467453002929688  6.6345891952514640 37.9673843383789062
 15.6629695892333984 15.9402856826782227 37.8880310058593750
  2.1918115615844727  6.6164627075195312 38.0592155456542969
  2.2240409851074219 15.8086967468261719 37.8912391662597656
 10.7899446487426740  6.3024930953979492 37.5711288452148438
 11.1398773193359357 15.6653842926025391 38.4097404479980469
  7.0012516975402823  2.4347589015960693 37.9460334777832031
  6.9633502960205078 11.4850845336914062 38.0641784667968821
 15.9468278884887695  2.4577271938323970 38.1746559143066406
 16.1496238708496094 11.5519390106201172 38.3057594299316406
  0.0000000000000000  0.0000000000000000 47.1735610961914062
 -0.0024593239650130  9.0313997268676740 47.1735610961914062
  9.0304002761840803  0.0000000000000000 47.1735610961914062
  9.0279407501220685  9.0313997268676740 47.1735610961914062
  4.5139794349670410  4.5156998634338379 47.1742515563964844
  4.5115203857421875 13.5470991134643537 47.1742515563964844
 13.5443792343139648  4.5156998634338379 47.1742515563964844
 13.5419197082519531 13.5470991134643537 47.1742515563964844
  2.4519233703613277  2.0629522800445557 44.0401268005371165
  2.4494640827178955 11.0943517684936523 44.0401268005371165
 11.4823226928710920  2.0629522800445557 44.0401268005371165
 11.4798641204833984 11.0943517684936523 44.0401268005371165
  6.5760178565979004  6.9684472084045410 44.0401268005371165
  6.5735583305358887 15.9998464584350586 44.0401268005371165
 15.6064186096191406  6.9684472084045410 44.0401268005371165
 15.6039590835571289 15.9998464584350586 44.0401268005371165
  2.0610768795013428  6.5788145065307617 44.0400009155273509
  2.0586175918579102 15.6102142333984375 44.0400009155273509
 11.0914773941040039  6.5788145065307617 44.0400009155273509
 11.0890178680419922 15.6102142333984375 44.0400009155273509
  6.9668641090393066  2.4525938034057613 44.0400657653808665
  6.9644045829772949 11.4839935302734375 44.0400657653808665
 15.9972639083862305  2.4525938034057613 44.0400657653808665
 15.9948053359985352 11.4839935302734375 44.0400657653808665
  2.4316265583038330  2.0832188129425049 50.0684852600097656
  2.4291670322418213 11.1146183013915998 50.0684852600097656
 11.4620265960693359  2.0832188129425049 50.0684852600097656
 11.4595670700073224 11.1146183013915998 50.0684852600097656
  6.5963144302368164  6.9481806755065918 50.0684852600097656
  6.5938549041748047 15.9795799255371076 50.0684852600097656
 15.6267137527465803  6.9481806755065918 50.0684852600097656
 15.6242542266845703 15.9795799255371076 50.0684852600097656
  2.0811281204223633  6.5990090370178223 50.0690460205078125
  2.0786688327789307 15.6304082870483398 50.0690460205078125
 11.1115283966064453  6.5990090370178223 50.0690460205078125
 11.1090688705444336 15.6304082870483398 50.0690460205078125
  6.9468131065368652  2.4323906898498531 50.0690460205078125
  6.9443535804748535 11.4637899398803711 50.0690460205078125
 15.9772129058837891  2.4323906898498531 50.0690460205078125
 15.9747543334960938 11.4637899398803711 50.0690460205078125
 18.0274567715823686  0.0677738785743713 37.7290039062500071
  0.0898668318986893  9.1126184463500977 37.7518424987793040
  9.1173677444457990  0.0147012295201421 37.8317375183105540
  9.0701923370361328  9.0029001235961914 37.6990127563476562
  4.5672187805175781  4.4917211532592773 37.7621955871582031
  4.5359926223754874 13.6094493865966797 37.6831016540527415
 13.4870557785034180  4.5345640182495117 37.8083305358886790
 13.4238119125366211 13.6544723510742188 37.7282180786132812
  0.0000090280000222  0.0000090310004452 44.0429992675781250
 -0.0024502959568053  9.0314083099365234 44.0429992675781250
  9.0304088592529297  0.0000090310004452 44.0429992675781250
  9.0279493331909180  9.0314083099365234 44.0429992675781250
  4.5139703750610352  4.5156903266906738 44.0427513122558594
  4.5115113258361816 13.5470905303955078 44.0427513122558594
 13.5443706512451172  4.5156903266906738 44.0427513122558594
 13.5419111251831037 13.5470905303955078 44.0427513122558594
  0.0000000000000000  0.0000000000000000 50.4472808837890696
 -0.0024593239650130  9.0313997268676740 50.4472808837890696
  9.0304002761840803  0.0000000000000000 50.4472808837890696
  9.0279407501220685  9.0313997268676740 50.4472808837890696
  4.5139703750610352  4.5156998634338379 50.4472808837890696
  4.5115113258361816 13.5470991134643537 50.4472808837890696
 13.5443706512451172  4.5156998634338379 50.4472808837890696
 13.5419111251831055 13.5470991134643537 50.4472808837890696
