 H  C  N  I Pb 
 1.0000000000000000
    18.0608005523681641    0.0000000000000000    0.0000000000000000
    -0.0049186488613486   18.0627994537353516    0.0000000000000000
     0.0000000000000000    0.0000000000000000   62.4874992370605469
 H   C   N   I   Pb 
 143  39  47  72  24
Cartesian
  7.4830641746520996  4.8774652481079102 35.6062431335449219
  7.3984365463256836 12.8299112319946289 35.8505477905273509
 16.7423248291015625  5.1230254173278809 36.3298110961914062
 16.8532085418701172 14.6706523895263672 35.8912544250488352
  5.8532090187072754  1.5656487941741943 35.5169181823730469
  5.6927957534790039 10.4471149444580078 35.6360702514648509
 14.4518108367919922  1.6399271488189697 35.7645606994628906
  1.9765892028808600  4.3108987808227539 35.1950492858886719
  1.4983596801757804 12.2717370986938477 35.5493240356445312
 10.7930393218994141  3.4750113487243652 35.3583831787109375
 10.8733482360839826 13.3272686004638654 34.9710502624511719
  6.8541836738586417  0.3284603357315063 34.7896652221679688
  4.5685472488403320 11.2456750869750977 34.5903663635253906
 15.7703695297241211  0.7211521863937378 35.0559921264648438
  1.1113338470458993  5.1501321792602539 36.4351959228515696
 18.0218601226806641 12.4859571456909180 36.3359794616699219
  9.1756715774536133  3.1030888557434082 35.8962860107421875
  9.8441047668457031 12.3617801666259766 36.0047454833984375
  5.4645586013793945  7.9789557456970215 35.9107780456542969
  3.4199790954589844  1.1155012845993042 35.6311874389648438
 12.2207479476928711  0.5309821367263794 35.7711448669433594
  8.0764160156250000  6.3975567817687979 34.9684982299804688
  6.8621320724487305 14.0769443511962891 34.7831192016601634
 15.9661550521850568  4.1997222900390625 35.0650100708007812
 17.6847381591796875 15.7731418609619141 34.8419799804687571
  4.1626238822937012  7.2137036323547363 35.0510864257812500
  2.8115829685702916 17.7907710075378418 34.7935180664062571
 12.1633600452914834 16.9821960926055908 35.0904579162597656
 10.1845283508300781  5.5926890373229980 34.6240234375000071
  9.0922231674194336 14.5507688522338867 34.0989570617675781
 18.0567455291748047  3.5510144233703613 34.1553344726562500
  1.4002189636230495 14.3154268264770508 34.4652175903320312
  3.4115219116210938  9.2314023971557599 34.1464653015136790
  4.9946731785312295 17.0756009817123449 34.2298088073730469
 14.3925451496616006 16.9831190109252930 34.5456161499023509
  8.2255096435546875  5.2119526863098145 42.2366485595703196
  7.8752532005310059 14.7057952880859375 41.9614334106445312
 17.4092532396316528  5.0693783760070801 42.4435195922851562
 16.6376456022262573 13.5618600845336914 41.9141349792480540
  5.4190402030944824  0.7824171781539916 42.1604652404785156
  5.5995235443115234  9.9601325988769531 42.1011199951171946
 14.2944641113281232  0.9740875363349913 42.2202339172363352
 14.8332262039184570  9.3700695037841797 42.0153808593750071
  1.5884851217269897  3.0651931762695312 40.3930053710937500
  1.8254956007003784 12.4981718063354492 40.7088203430175781
 10.3902969360351545  3.0508368015289307 40.2259712219238352
 10.3172416687011719 12.2267313003540021 40.8132057189941406
  3.2884590625762939  7.4678611755371094 40.7101020812988352
  2.9508723476901650 16.7744988203048706 40.3634681701660156
 11.7081060409545898  8.1167392730712891 40.6282997131347656
 12.2006820896640402 16.5534269809722900 40.5091400146484446
  1.2105367183685303  3.3459234237670898 42.0669631958007884
  0.5136682987213135 11.9634437561035156 41.7271080017089844
  9.8661575317382812  3.2630019187927246 41.8646583557128977
  9.6807298660278320 12.8847980499267578 42.2887191772461009
  3.9141900539398193  7.9760503768920898 42.2479248046875000
  3.3499433258548379 17.1941830515861511 42.0035820007324219
 12.7291555404663086  7.9337534904479980 42.0190429687500000
 12.5422558048740029 17.1051171422004700 42.1255111694335938
  7.9079656600952148  6.1643710136413565 40.8329353332519602
  7.4827933311462402 15.0396785736083984 40.3012886047363281
 16.7310715913772583  5.7791824340820312 41.0015258789062500
 16.8029836416244507 15.0539045333862305 41.0354690551757812
  6.1551337242126456  1.1394958496093750 40.6356048583984375
  5.8328886032104492 10.5717096328735352 40.4959335327148438
 14.9179601669311523  1.4534437656402588 40.6679573059082031
 15.0430593490600586 10.4084835052490234 40.6038475036621094
  0.0176528245210648  4.5723204612731934 39.5794830322265625
  0.7875649333000182 14.4829969406127930 40.1398124694824219
  9.2459373474121094  4.8827972412109375 39.4293251037597656
  9.0063447952270508 13.5264444351196289 39.4488105773925781
  4.6597847202792755 17.9398828893899918 39.3877716064453196
  4.4305243492126465  9.0645494461059570 39.4926033020019531
 13.6805519321933389 17.9923854246735573 39.4798507690429688
 13.0423746109008789  9.7065086364746094 39.6213073730468750
  8.1032123565673828  5.4420318603515616 48.0459518432617259
  8.1007528305053711 14.4734306335449219 48.0459518432617259
 17.1336116790771484  5.4420318603515616 48.0459518432617259
 17.1311531066894531 14.4734306335449219 48.0459518432617259
  5.4410333633422852  0.9265221953392029 48.0449485778808594
  5.4385743141174316  9.9579219818115234 48.0449485778808594
 14.4714326858520490  0.9265221953392029 48.0449485778808594
 14.4689741134643555  9.9579219818115234 48.0449485778808594
  1.4218254089355467  3.0919990539550781 46.4558296203613281
  1.4193661212921143 12.1233978271484375 46.4558296203613281
 10.4522256851196289  3.0919990539550781 46.4558296203613281
 10.4497661590576172 12.1233978271484375 46.4558296203613281
  3.0899283885955806  7.6075901985168457 46.4545211791992188
  3.0874691009521484 16.6389904022216797 46.4545211791992188
 12.1203289031982422  7.6075901985168457 46.4545211791992188
 12.1178693771362305 16.6389904022216797 46.4545211791992188
  0.9247469902038573  3.5893490314483643 48.0459518432617259
  0.9222877025604248 12.6207475662231445 48.0459518432617259
  9.9551477432250977  3.5893490314483643 48.0459518432617259
  9.9526882171630859 12.6207475662231445 48.0459518432617259
  3.5868983268737793  8.1048498153686523 48.0448913574218821
  3.5844390392303462 17.1362495422363281 48.0448913574218821
 12.6172990798950195  8.1048498153686523 48.0448913574218821
 12.6148395538330078 17.1362495422363281 48.0448913574218821
  7.6061611175537109  5.9393639564514160 46.4558296203613281
  7.6037015914916992 14.9707632064819336 46.4558296203613281
 16.6365604400634766  5.9393639564514160 46.4558296203613281
 16.6341018676757812 14.9707632064819336 46.4558296203613281
  5.9380125999450684  1.4238001108169553 46.4545211791992188
  5.9355530738830566 10.4551992416381836 46.4545211791992188
 14.9684123992919904  1.4238001108169553 46.4545211791992188
 14.9659538269042951 10.4551992416381836 46.4545211791992188
 -0.0011664569610730  4.5157265663146973 45.3548011779785156
 -0.0036257810425013 13.5471258163452148 45.3548011779785156
  9.0292339324951172  4.5157265663146973 45.3548011779785156
  9.0267744064331037 13.5471258163452148 45.3548011779785156
  4.5152091979980469  0.0000000000000000 45.3536758422851562
  4.5127501487731934  9.0313997268676740 45.3536758422851562
 13.5456094741821289  0.0000000000000000 45.3536758422851562
 13.5431499481201172  9.0313997268676740 45.3536758422851562
 14.4196376800537109  9.2237253189086914 32.1969871520996094
 15.8714599609374982  9.0490655899047852 33.2363433837890696
 13.7880964279174805 11.2895536422729492 33.3540611267089844
 13.8273363113403303 11.3694992065429688 35.1022377014160156
 12.3685798645019531  8.1497507095336914 34.4661827087402344
 12.1256361007690412  9.8198175430297852 34.9798126220703125
 14.4473066329956055  7.7386436462402344 35.5064048767089844
 15.6690120697021484  9.0060091018676758 35.5514068603515625
 15.5251293182373047  6.8044767379760742 33.7132530212402415
 13.7907123565673810  6.8460144996643066 33.4064865112304759
 14.0926017761230451  6.8807892799377441 31.0249881744384801
 15.7648267745971680  7.4274082183837882 31.1161708831787145
 16.2217769622802734 11.1624908447265625 33.1688346862792969
 16.4348163604736328 10.9537725448608398 34.9044837951660227
 15.7558240890502930 12.4698934555053711 34.2618751525878906
 10.8496427536010742  9.3360691070556623 33.0013198852539062
 12.2383480072021484  8.8273744583129883 32.0608978271484375
 12.0760269165039062 10.5362672805786133 32.5410728454589844
 12.8542776107788086  9.0900630950927734 36.8719291687011719
 14.0496482849121094 10.4277296066284162 36.9594306945800781
 14.4195327758789062  8.8598384857177734 37.6755561828613281
 14.8778553009033203  4.6418228149414062 32.1000976562500071
 15.2537784576416016  4.9629106521606445 30.4153232574462891
 16.7085990905761719  2.9253573417663574 31.1265048980712926
 17.5548191070556641  6.9957056045532227 32.3122673034667969
  1.0501918792724620  2.3740353584289551 31.4240036010742188
  1.8520259857177757  6.4535083770751953 32.6074676513671875
  2.6829433441162105  4.1399512290954590 32.1141967773437500
 18.0073394775390625  4.2045149803161621 35.0310516357421875
  0.5578365325927749 13.9954490661621076 35.0687904357910156
  9.4266862869262695  4.9289631843566895 35.0449752807617188
  8.8784885406494141 13.7383146286010742 34.7990837097167969
  4.3002600669860840  9.2229223251342773 34.7751922607421875
  4.8470973232761025 18.0298980772495270 34.7401695251464844
 13.9676746586337686 17.8676472902297974 35.0248680114746165
  0.1228334084153175  4.4235453605651855 40.6562652587890625
  0.2784824669361115 13.7932252883911133 40.8149986267089844
  9.1475677490234375  4.6202178001403809 40.4806098937988281
  8.9091768264770508 13.6432504653930664 40.5290222167968750
  4.5680770874023438  9.0180606842041016 40.5738945007324219
  4.5409692982211709 17.9825842753052711 40.4804039001464844
 13.3600788116455078  9.2632942199707031 40.5831718444824219
 13.5692829350009543 18.0310518629848957 40.5703887939453125
  9.0289716720581055  4.5156092643737793 46.4455223083496165
  9.0265130996704102 13.5470085144042969 46.4455223083496165
 18.0593719482421875  4.5156092643737793 46.4455223083496165
 18.0569133758544922 13.5470085144042969 46.4455223083496165
  4.5152091979980469  0.0000180629995157 46.4442062377929759
  4.5127501487731934  9.0314178466796857 46.4442062377929759
 13.5456094741821289  0.0000180629995157 46.4442062377929759
 13.5431499481201172  9.0314178466796857 46.4442062377929759
 16.9466629028320312  5.0119810104370117 31.6828308105468750
 17.4220848083496094  3.7019257545471191 31.4587287902832031
 17.8699302673339844  5.9776744842529297 32.1018638610839844
  0.7076683044433599  3.3849024772644039 31.6240310668945312
  1.1688613891601547  5.6701192855834952 32.2536888122558594
  1.6236457824707022  4.3702878952026367 32.0103645324707031
 14.8170566558837891  8.7525863647460938 33.1186485290527344
 14.3231706619262695 10.9289369583129883 34.2318763732910156
 12.5655879974365234  9.1926174163818359 34.1935195922851634
 14.5869951248168945  8.8298463821411133 35.5688591003417969
 14.7562160491943342  7.2282576560974121 33.0525932312011719
 15.0182857513427717  6.7542843818664551 31.6081504821777379
 15.7735471725463867 11.3793134689331055 34.1454391479492188
 11.9205608367919922  9.5003566741943359 32.8607635498046875
 13.9244461059570312  9.3499164581298810 36.8237457275390625
 15.4721422195434570  5.2915916442871094 31.4468631744384766
  1.0715026855468772  4.5470438003540039 35.6063308715820384
  0.6456050872802739 12.8141899108886719 35.6328392028808594
  9.8093929290771467  3.7234947681426998 35.3867568969726562
  9.9107027053833008 13.0412235260009748 35.2244987487793040
  8.2247619628906250  5.3984799385070792 35.1477775573730469
  7.6388406753540039 13.5271244049072266 35.1529312133789062
 16.8292388916015625  4.5855140686035147 35.4593391418457031
 17.5838947296142578 14.8047695159912109 35.1735458374023438
  4.6777715682983398  8.0695600509643555 35.2766647338867259
  3.6212265491485596  0.3090247511863708 35.0495567321777415
 12.6750358799472433 17.8524011373519897 35.2602157592773438
  5.9092445373535156  0.6958482265472412 34.9959526062011719
  4.9181251525878906 10.3526306152343750 34.9877586364746094
 14.7693128585815430  0.8081642389297485 35.2874031066894531
  1.0266690254211426  3.5543258190155029 41.0793037414550852
  0.9048441648483276 12.6659736633300781 41.0994567871093750
  9.8294324874877930  3.5680868625640865 40.8906097412109446
  9.6852817535400391 12.8810882568359375 41.2738800048828125
  3.8924312591552734  8.1031551361083984 41.2373352050781250
  3.5601464966312051 17.2961643338203430 41.0071487426757884
 12.5698699951171875  8.3772888183593750 41.1207847595214844
 12.7267317036166787 17.1853107810020447 41.1247406005859375
  8.3902187347412109  5.3677101135253906 41.2357101440429759
  8.0442104339599609 14.5150804519653320 40.9722709655761719
 17.3960436582565308  5.1301951408386230 41.4302787780761719
 17.1770966649055481 14.1443738937377930 41.2887191772460938
  5.4075975418090820  0.6501366496086121 41.1514854431152344
  5.3784646987915039  9.8940296173095703 41.0997505187988281
 14.2996368408203107  0.8478025794029236 41.2043609619140625
 14.4992904663085938  9.6894760131835938 41.0994834899902415
  0.8273094892501831  3.6869695186614990 47.0359649658203125
  0.8248501420021057 12.7183685302734375 47.0359649658203125
  9.8577098846435547  3.6869695186614990 47.0359649658203125
  9.8552503585815412 12.7183685302734375 47.0359649658203125
  3.6843190193176270  8.2023353576660156 47.0346527099609375
  3.6818594932556152 17.2337341308593750 47.0346527099609375
 12.7147188186645508  8.2023353576660156 47.0346527099609375
 12.7122592926025391 17.2337341308593750 47.0346527099609375
  8.2006769180297852  5.3445744514465332 47.0360260009765696
  8.1982173919677734 14.3759746551513672 47.0360260009765696
 17.2310771942138672  5.3445744514465332 47.0360260009765696
 17.2286186218261719 14.3759746551513672 47.0360260009765696
  5.3436489105224600  0.8290914893150328 47.0346527099609375
  5.3411893844604483  9.8604917526245117 47.0346527099609375
 14.3740482330322266  0.8290914893150328 47.0346527099609375
 14.3715896606445312  9.8604917526245117 47.0346527099609375
 14.0663557052612305  9.4216279983520508 34.2750701904296875
  9.1831363895907998 17.6594150066375732 34.5735435485839844
  8.3351678848266602  8.9401435852050781 34.6578292846679759
  0.0759465396404266  0.2100330740213394 34.4842414855957031
  0.6403808593750000  8.9462337493896484 34.6661491394042969
  4.5770092010498047  4.4102392196655273 34.6680412292480469
  4.2234821319580078 13.9682970046997070 34.4334411621093750
 13.3401575088500977  3.9958972930908203 34.7082862854003977
 13.0163898468017578 14.3915519714355469 34.5717048645019531
 17.9493836397305131 17.8150333762168884 40.9000778198242259
  0.0615009889006615  9.0617609024047852 40.9479980468750000
  8.9798250198364258  0.0563320554792881 40.8987770080566477
  8.9749612808227539  9.0699996948242188 40.9190216064453196
  4.7321105003356934  4.3130440711975098 40.9584350585937500
  4.4528279304504395 13.6350259780883789 40.8607330322265625
 13.4077386856079084  4.6814036369323722 40.9780044555664062
 13.5761470794677734 13.4265108108520508 40.8433189392089915
  2.5426621437072754  2.0370359420776367 38.0489044189453196
  2.6094267368316650 11.0187997817993164 38.0449752807617188
 11.6003093719482404  1.9464793205261230 38.0582580566406321
 11.0979738235473633 11.4256315231323242 38.1501960754394531
  6.6289501190185547  6.9503068923950186 38.1815986633300781
  6.5692243576049805 15.9922752380371094 37.9087524414062571
 16.0548553466796875  6.5350489616394043 38.3663940429687500
 15.6080713272094727 16.0524196624755859 37.8870735168457031
  2.2563490867614746  6.6728181838989258 38.2904663085937500
  2.1330320835113525 15.8006391525268555 37.9254798889160156
 11.2079629898071289  6.7393527030944824 37.6809463500976562
 11.1919889450073224 15.6679382324218750 38.2870483398437500
  7.2285852432250977  2.6054599285125732 37.7608718872070312
  6.7963061332702637 11.4222021102905273 37.9492988586425781
 15.9569053649902344  2.4195065498352051 38.2755966186523438
 16.3509941101074219 11.7955131530761719 38.2396926879882812
  0.0000000000000000  0.0000000000000000 47.1735610961914062
 -0.0024593239650130  9.0313997268676740 47.1735610961914062
  9.0304002761840803  0.0000000000000000 47.1735610961914062
  9.0279407501220685  9.0313997268676740 47.1735610961914062
  4.5139794349670410  4.5156998634338379 47.1742515563964844
  4.5115203857421875 13.5470991134643537 47.1742515563964844
 13.5443792343139648  4.5156998634338379 47.1742515563964844
 13.5419197082519531 13.5470991134643537 47.1742515563964844
  2.4519233703613277  2.0629522800445557 44.0401268005371165
  2.4494640827178955 11.0943517684936523 44.0401268005371165
 11.4823226928710920  2.0629522800445557 44.0401268005371165
 11.4798641204833984 11.0943517684936523 44.0401268005371165
  6.5760178565979004  6.9684472084045410 44.0401268005371165
  6.5735583305358887 15.9998464584350586 44.0401268005371165
 15.6064186096191406  6.9684472084045410 44.0401268005371165
 15.6039590835571289 15.9998464584350586 44.0401268005371165
  2.0610768795013428  6.5788145065307617 44.0400009155273509
  2.0586175918579102 15.6102142333984375 44.0400009155273509
 11.0914773941040039  6.5788145065307617 44.0400009155273509
 11.0890178680419922 15.6102142333984375 44.0400009155273509
  6.9668641090393066  2.4525938034057613 44.0400657653808665
  6.9644045829772949 11.4839935302734375 44.0400657653808665
 15.9972639083862305  2.4525938034057613 44.0400657653808665
 15.9948053359985352 11.4839935302734375 44.0400657653808665
  2.4316265583038330  2.0832188129425049 50.0684852600097656
  2.4291670322418213 11.1146183013915998 50.0684852600097656
 11.4620265960693359  2.0832188129425049 50.0684852600097656
 11.4595670700073224 11.1146183013915998 50.0684852600097656
  6.5963144302368164  6.9481806755065918 50.0684852600097656
  6.5938549041748047 15.9795799255371076 50.0684852600097656
 15.6267137527465803  6.9481806755065918 50.0684852600097656
 15.6242542266845703 15.9795799255371076 50.0684852600097656
  2.0811281204223633  6.5990090370178223 50.0690460205078125
  2.0786688327789307 15.6304082870483398 50.0690460205078125
 11.1115283966064453  6.5990090370178223 50.0690460205078125
 11.1090688705444336 15.6304082870483398 50.0690460205078125
  6.9468131065368652  2.4323906898498531 50.0690460205078125
  6.9443535804748535 11.4637899398803711 50.0690460205078125
 15.9772129058837891  2.4323906898498531 50.0690460205078125
 15.9747543334960938 11.4637899398803711 50.0690460205078125
 18.0604166475532111  0.1258462965488434 37.7816352844238281
  0.1322396993637085  9.1037673950195312 37.7962303161621094
  9.0699514606967568 17.9705836251378059 37.7309799194336009
  8.9979333877563477  9.0353069305419922 37.7249565124511719
  4.6034889221191406  4.5353078842163077 37.8567695617675781
  4.4151620864868164 13.6678981781005842 37.7143936157226634
 13.5296745300292969  4.5406360626220703 37.8868331909179759
 13.5304889678955060 13.7209606170654297 37.6814041137695312
  0.0000090280000222  0.0000090310004452 44.0429992675781250
 -0.0024502959568053  9.0314083099365234 44.0429992675781250
  9.0304088592529297  0.0000090310004452 44.0429992675781250
  9.0279493331909180  9.0314083099365234 44.0429992675781250
  4.5139703750610352  4.5156903266906738 44.0427513122558594
  4.5115113258361816 13.5470905303955078 44.0427513122558594
 13.5443706512451172  4.5156903266906738 44.0427513122558594
 13.5419111251831037 13.5470905303955078 44.0427513122558594
  0.0000000000000000  0.0000000000000000 50.4472808837890696
 -0.0024593239650130  9.0313997268676740 50.4472808837890696
  9.0304002761840803  0.0000000000000000 50.4472808837890696
  9.0279407501220685  9.0313997268676740 50.4472808837890696
  4.5139703750610352  4.5156998634338379 50.4472808837890696
  4.5115113258361816 13.5470991134643537 50.4472808837890696
 13.5443706512451172  4.5156998634338379 50.4472808837890696
 13.5419111251831055 13.5470991134643537 50.4472808837890696
