 H  C  N  I Pb 
 1.0000000000000000
    18.0608005523681641    0.0000000000000000    0.0000000000000000
    -0.0049186488613486   18.0627994537353516    0.0000000000000000
     0.0000000000000000    0.0000000000000000   62.4874992370605469
 H   C   N   I   Pb 
 143  39  47  72  24
Cartesian
  8.1872577667236328  6.0747227668762207 35.2055549621582031
  8.0191287994384766 14.9647789001464844 35.7924919128418040
 17.3914623260498047  5.9216399192810059 35.9409751892089844
 16.9609642028808594 14.7664566040039045 35.7763442993164062
  6.0867704609408966 17.1713185310363770 35.7391014099121094
  6.3594799041748047  9.9024362564086896 34.8578834533691406
 14.5803670883178693  1.5998468399047852 35.0375823974609375
  0.2453327178955066  2.5721271038055420 34.9278755187988352
  1.3689613342285198 12.1116018295288086 35.6539459228515625
  9.9576425552368164  2.8823349475860596 34.9810523986816406
  8.9551496505737305 11.5754604339599609 34.8786392211914134
  6.7027702331542969  0.4631883502006530 34.8466796875000000
  5.3665666580200195 11.3293781280517578 34.5329742431640625
 15.8830003738403320  0.4957852065563202 34.6021728515625000
 17.2863407135009766  3.4345843791961670 36.0397033691406250
 17.8919639587402344 12.5243034362792969 36.3597183227539062
 10.2223539352416992  4.5537528991699219 35.4613037109375000
  7.9912924766540527 12.4697914123535156 36.0048141479492188
  5.0285844802856445  7.8908700942993164 35.7271385192871094
  3.6541856983676548 16.7910643815994263 35.7730178833007812
 12.4108028411865234  0.5155662298202515 35.7020530700683594
  6.7191472053527832  5.2329020500183105 34.7196388244628906
  9.1227369308471680 15.6490507125854492 34.6445465087890625
  0.4112815856933594  6.6411852836608887 34.7651710510253977
 17.8747787475585938 15.7026586532592773 34.6228599548339844
  3.3021059036254878  8.0536441802978516 35.5676383972167969
  2.6634675720706582 17.9665188267827034 34.9693145751953196
 12.3354868153110147 16.8434625864028931 35.4235076904296875
  7.7544260025024414  3.2215316295623779 34.4505004882812500
  9.8334264755249023 13.5389089584350568 33.8838462829589844
  1.1619987487792993  4.5187420845031729 34.0215988159179688
  1.4832267761230480 14.0843629837036115 34.4064712524414062
  3.3800702095031734 10.2028455734252930 34.8060226440429759
  4.5038928985595703  1.1939897537231445 34.2932014465332102
 14.4963516453281045 16.6669024229049683 34.7708473205566406
  8.7825632095336914  6.1250352859497070 41.1004638671875071
  8.0880432128906250 14.5887460708618164 42.1188316345214915
 17.3909620046615601  5.2049512863159180 42.2130584716796875
 16.7486243247985840 13.0959072113037109 42.0188484191894602
  5.4939064979553214  1.0247998237609863 41.8833427429199219
  5.3694691658020020  9.9140281677246076 42.1660041809082031
 14.4751319885253906  1.0547767877578735 42.1213798522949290
 13.9528322219848615 10.7656764984130859 40.9598770141601562
  1.5388193130493164  2.9455456733703613 40.3201751708984446
  2.1121065616607666 13.0555286407470703 40.7804946899414062
 10.1573457717895508  2.7299652099609371 40.9667472839355469
 10.2633476257324219 12.0695915222167969 40.5726242065429759
  3.1691350936889644  7.5079579353332520 40.4609985351562500
  3.0781213501468296 16.6174895763397217 40.6238059997558594
 12.4928131103515607  7.4068021774291983 40.9879379272460938
 12.1883758762851357 16.6409291028976440 40.6700668334960938
  1.1341149806976318  3.3231112957000732 41.9776420593261719
  1.0429354906082153 12.2233047485351562 41.8656501770019531
 10.6991386413574219  4.3821282386779785 41.1326560974121094
  9.7609729766845703 12.5890502929687500 42.1535797119140625
  3.5844242572784424  8.0204095840454102 42.0806655883789062
  3.6675700405612588 17.2383083105087280 42.1368217468261719
 12.0044832229614258  9.0793304443359375 40.9876174926757884
 12.6212639072909951 17.3157345056533813 42.2213516235351562
  7.1815633773803711  5.4229860305786133 40.9829063415527344
  7.7274246215820312 15.1829757690429688 40.5219116210937571
 16.8739635944366455  5.8784780502319336 40.6867141723632812
 16.3477137088775635 14.4020547866821289 40.9390449523925781
  5.8885097503662109  1.4050493240356445 40.2226066589355469
  5.9152812957763672 10.4414834976196289 40.5962638854980469
 15.0668935775756836  1.3908454179763794 40.5150489807128906
 15.5435132980346680 10.0295314788818359 40.9042282104492188
  0.1258008331060410  4.5274457931518555 39.4047241210937571
  0.4321202039718628 14.5151052474975586 40.0310440063476634
  7.9352998733520508  3.2602467536926270 40.8701972961425781
  9.0544748306274414 13.6387634277343750 39.4396743774414062
  4.4104780415073037 17.9514831975102460 39.3249740600585938
  4.6003928184509277  8.9598464965820312 39.4276237487793040
 13.6966699818149209 17.9159466773271561 39.4908485412597656
 14.7429170608520508  7.8683586120605469 40.9283218383789062
  8.1032123565673828  5.4420318603515616 48.0459518432617259
  8.1007528305053711 14.4734306335449219 48.0459518432617259
 17.1336116790771484  5.4420318603515616 48.0459518432617259
 17.1311531066894531 14.4734306335449219 48.0459518432617259
  5.4410333633422852  0.9265221953392029 48.0449485778808594
  5.4385743141174316  9.9579219818115234 48.0449485778808594
 14.4714326858520490  0.9265221953392029 48.0449485778808594
 14.4689741134643555  9.9579219818115234 48.0449485778808594
  1.4218254089355467  3.0919990539550781 46.4558296203613281
  1.4193661212921143 12.1233978271484375 46.4558296203613281
 10.4522256851196289  3.0919990539550781 46.4558296203613281
 10.4497661590576172 12.1233978271484375 46.4558296203613281
  3.0899283885955806  7.6075901985168457 46.4545211791992188
  3.0874691009521484 16.6389904022216797 46.4545211791992188
 12.1203289031982422  7.6075901985168457 46.4545211791992188
 12.1178693771362305 16.6389904022216797 46.4545211791992188
  0.9247469902038573  3.5893490314483643 48.0459518432617259
  0.9222877025604248 12.6207475662231445 48.0459518432617259
  9.9551477432250977  3.5893490314483643 48.0459518432617259
  9.9526882171630859 12.6207475662231445 48.0459518432617259
  3.5868983268737793  8.1048498153686523 48.0448913574218821
  3.5844390392303462 17.1362495422363281 48.0448913574218821
 12.6172990798950195  8.1048498153686523 48.0448913574218821
 12.6148395538330078 17.1362495422363281 48.0448913574218821
  7.6061611175537109  5.9393639564514160 46.4558296203613281
  7.6037015914916992 14.9707632064819336 46.4558296203613281
 16.6365604400634766  5.9393639564514160 46.4558296203613281
 16.6341018676757812 14.9707632064819336 46.4558296203613281
  5.9380125999450684  1.4238001108169553 46.4545211791992188
  5.9355530738830566 10.4551992416381836 46.4545211791992188
 14.9684123992919904  1.4238001108169553 46.4545211791992188
 14.9659538269042951 10.4551992416381836 46.4545211791992188
 -0.0011664569610730  4.5157265663146973 45.3548011779785156
 -0.0036257810425013 13.5471258163452148 45.3548011779785156
  9.0292339324951172  4.5157265663146973 45.3548011779785156
  9.0267744064331037 13.5471258163452148 45.3548011779785156
  4.5152091979980469  0.0000000000000000 45.3536758422851562
  4.5127501487731934  9.0313997268676740 45.3536758422851562
 13.5456094741821289  0.0000000000000000 45.3536758422851562
 13.5431499481201172  9.0313997268676740 45.3536758422851562
 13.9883966445922834 10.0436277389526367 32.3608283996582031
 12.9742059707641584  8.6487827301025391 32.7424583435058594
 15.6848316192626935  9.0640296936035156 33.5786933898925781
 15.5423727035522461  8.7740268707275391 35.3097686767578125
 13.4183559417724592 11.5944242477416992 34.9148712158203125
 14.6787757873535138 10.8201885223388672 35.8862419128417969
 12.0325107574462873  9.8824348449707031 35.4764518737793040
 12.3111362457275373  8.2214975357055664 34.9522247314453125
 11.1312484741210938 10.1441936492919922 33.5002326965332102
 12.1733207702636719 11.5648126602172852 33.3273353576660227
 10.9282264709472638 11.6448621749877930 31.3630542755126953
 12.4062700271606445 10.8599672317504883 30.8232574462890625
 14.2650499343872070  7.0462627410888672 33.0732765197753977
 14.0344371795654297  6.7606563568115234 34.8072128295898438
 15.6363458633422834  6.6417016983032227 34.1050529479980469
 15.5452289581298828 12.6027755737304688 34.4384841918945312
 15.0743656158447266 11.7663326263427734 32.9725570678710938
 16.3330421447753906 11.0666913986206055 34.0486869812011719
 13.9081249237060547  9.6135740280151349 37.2321357727050852
 14.0150766372680664  7.9051561355590811 36.7574234008789134
 12.5273694992065412  8.5411977767944336 37.4461860656738281
  9.7371549606323242  9.5005187988281250 31.5304927825927734
 10.3402910232543945  9.8092365264892560 29.8979244232177770
 12.7271718978881836  8.6605997085571289 29.3638095855712891
 10.0484943389892578  7.3914904594421387 32.4944381713867259
 13.8791484832763654  6.4691419601440430 29.4567432403564489
 11.2299509048461914  5.2001838684082031 32.6049385070800781
 13.1567897796630859  4.7401642799377441 31.1097602844238317
  0.3816184997558613  4.5944166183471680 34.7826042175292969
  0.6063728332519542 13.8847475051879883 35.0342178344726562
  8.3585195541381836  4.0704722404479980 34.7759933471679688
  9.0696029663085938 13.6073617935180664 34.6604881286621165
  4.3180747032165527  9.6759042739868146 34.9760398864746165
  4.6635298728942862  0.2634449005126953 34.8448867797851562
 14.1100925663486123 17.6599585115909576 35.0093879699707102
  0.1722387522459030  4.4107751846313477 40.4926528930664062
  0.2051155865192413 13.7662887573242170 40.7931861877441406
  8.6622924804687500  4.0673155784606934 40.9780120849609375
  8.9949254989624023 13.6192655563354492 40.5360603332519602
  4.5494666099548331  8.9660148620605469 40.5193061828613281
  4.4806241253390908 18.0362055972218513 40.4147720336914062
 14.0308828353881836  8.6993474960327148 40.9443473815917969
 13.6301473835483193 18.0375838205218315 40.5763092041015696
  9.0289716720581055  4.5156092643737793 46.4455223083496165
  9.0265130996704102 13.5470085144042969 46.4455223083496165
 18.0593719482421875  4.5156092643737793 46.4455223083496165
 18.0569133758544922 13.5470085144042969 46.4455223083496165
  4.5152091979980469  0.0000180629995157 46.4442062377929759
  4.5127501487731934  9.0314178466796857 46.4442062377929759
 13.5456094741821289  0.0000180629995157 46.4442062377929759
 13.5431499481201172  9.0314178466796857 46.4442062377929759
 11.3156623840332031  8.1916503906250000 30.9305381774902344
 12.3925304412841797  7.9083318710327140 30.0737152099609375
 10.8947458267211914  7.1901106834411621 31.8273239135742188
 13.0448598861694336  6.6689910888671875 30.1291179656982422
 11.5515375137329084  5.9568500518798819 31.8860969543457067
 12.6362209320068359  5.6980533599853516 31.0439014434814453
 13.2003412246704102  9.6782608032226562 33.0341415405273438
 15.0227184295654279  8.6574363708496094 34.3500328063964844
 14.3069095611572266 10.9574193954467773 34.8663368225097656
 12.7923355102539062  9.0956277847290039 35.4125175476074219
 11.9658250808715820 10.5672483444213867 32.9235534667968750
 11.5176143646240234 10.7180233001708984 31.4603309631347656
 14.6992301940917969  7.2089829444885254 34.0663452148437571
 15.3760137557983398 11.6050710678100568 34.0126342773437500
 13.3608684539794922  8.7750844955444336 36.7734413146972727
 10.6526145935058594  9.5547294616699219 30.9226093292236364
 17.9653949737548828  3.4760396480560303 35.2726707458496094
  0.5898265838623046 12.7626180648803711 35.7049903869628906
  9.6248226165771484  3.8485982418060303 35.0261650085449290
  8.6170473098754883 12.4927272796630859 35.1869850158691477
  7.7411327362060547  5.2314352989196777 34.8571548461914062
  8.6783008575439453 14.8074512481689435 35.0202178955078125
 18.0438289642333984  5.7896528244018555 35.1465797424316477
 17.7087955474853516 14.7905454635620099 35.0690002441406250
  4.2302465438842773  8.4267749786376953 35.3702964782714844
  3.6048394897952676 17.6344664692878723 35.1973648071289062
 12.8524040440097451 17.7233881652355194 35.3728752136230469
  5.8883318165317178 17.9791206419467926 35.1347694396972656
  5.4283995628356934 10.3293008804321289 34.7436752319335938
 14.9177198410034180  0.6301885843276978 34.9127769470214915
  0.9848958849906921  3.5083749294281006 40.9729690551757812
  1.1507292985916138 12.9313335418701172 41.1337814331054759
  9.9243507385253906  3.7219893932342529 41.0394592285156250
  9.7017641067504883 12.6976757049560547 41.1443595886230469
  3.7113239765167236  8.1220960617065430 41.0777435302734375
  3.6972367027774453 17.2552496194839478 41.1190071105957031
 12.7563056945800781  8.3923568725585938 40.9447631835937500
 12.7667087772861123 17.2847487926483154 41.2134895324707102
  8.1976032257080078  5.2959747314453125 41.0283737182617259
  8.2331361770629883 14.5200281143188477 41.1094818115234375
 17.4556764364242554  5.2073655128479004 41.1915664672851634
 17.0519461631774902 13.7612285614013672 41.2945022583007812
  5.3454446792602539  0.8498589992523193 40.8912162780761719
  5.3289756774902344  9.8147182464599592 41.1507034301757884
 14.4350051879882795  0.8648412227630615 41.1251716613769602
 14.5273618698120117  9.9151754379272461 40.9596595764160156
  0.8273094892501831  3.6869695186614990 47.0359649658203125
  0.8248501420021057 12.7183685302734375 47.0359649658203125
  9.8577098846435547  3.6869695186614990 47.0359649658203125
  9.8552503585815412 12.7183685302734375 47.0359649658203125
  3.6843190193176270  8.2023353576660156 47.0346527099609375
  3.6818594932556152 17.2337341308593750 47.0346527099609375
 12.7147188186645508  8.2023353576660156 47.0346527099609375
 12.7122592926025391 17.2337341308593750 47.0346527099609375
  8.2006769180297852  5.3445744514465332 47.0360260009765696
  8.1982173919677734 14.3759746551513672 47.0360260009765696
 17.2310771942138672  5.3445744514465332 47.0360260009765696
 17.2286186218261719 14.3759746551513672 47.0360260009765696
  5.3436489105224600  0.8290914893150328 47.0346527099609375
  5.3411893844604483  9.8604917526245117 47.0346527099609375
 14.3740482330322266  0.8290914893150328 47.0346527099609375
 14.3715896606445312  9.8604917526245117 47.0346527099609375
 13.8305997848510742  9.5988388061523438 34.4120979309082031
  9.3612480163574219  0.2694336473941803 34.5261764526367188
  8.7307405471801758  8.9473171234130859 34.6096839904785227
  0.2950133979320526  0.1099752113223076 34.2673263549804688
  0.6550700664520264  9.1995630264282227 34.5668830871582031
  4.2787694931030273  4.3469543457031250 34.5079345703125000
  4.5710721015930176 13.8425989151000977 34.5688400268554688
 13.3478965759277344  3.7500391006469727 34.6141586303710938
 12.6490230560302717 14.2861919403076172 34.6093444824218750
 18.0540964863030240 17.7873519361019135 40.8458976745605540
 18.0355353858321905  9.1358356475830078 40.9114646911621094
  8.9528188705444336  0.1665831953287125 40.9044113159179759
  9.1601095199584961  8.8395185470581055 40.9075355529785156
  4.6601481437683105  4.4697070121765137 40.8798255920410156
  4.6788563728332511 13.6106357574462891 40.8932685852050852
 13.4359350204467773  4.8021278381347656 40.8744354248046946
 13.4413833618164045 13.3933153152465820 40.8759193420410156
  2.4164686203002930  2.0252845287322998 37.9556159973144531
  2.6263573169708252 11.0037450790405273 38.0231552124023509
 11.6940135955810547  1.9131841659545896 38.1207618713378977
 11.1288194656372070 11.3439922332763672 38.0025672912597656
  6.4518790245056152  7.0030274391174308 37.8140144348144531
  6.7644290924072266 15.8908462524414062 37.9057998657226562
 16.0704574584960938  6.5812797546386719 38.0196075439453196
 15.6483201980590820 15.8904504776000977 37.8013725280761719
  2.1604895591735840  6.6347193717956543 38.0492095947265625
  2.2325658798217773 15.6795902252197266 37.9701805114746165
 10.7313823699951172  6.1314706802368164 37.5845870971679688
 11.1269884109497070 15.7281665802001953 38.3049354553222656
  6.9637565612792960  2.4324643611907959 37.8468322753906250
  6.9354991912841797 11.3650732040405273 38.1000366210937500
 15.9962472915649414  2.3968691825866699 38.1443595886230540
 16.1570968627929688 11.6673650741577131 38.0650024414062571
  0.0000000000000000  0.0000000000000000 47.1735610961914062
 -0.0024593239650130  9.0313997268676740 47.1735610961914062
  9.0304002761840803  0.0000000000000000 47.1735610961914062
  9.0279407501220685  9.0313997268676740 47.1735610961914062
  4.5139794349670410  4.5156998634338379 47.1742515563964844
  4.5115203857421875 13.5470991134643537 47.1742515563964844
 13.5443792343139648  4.5156998634338379 47.1742515563964844
 13.5419197082519531 13.5470991134643537 47.1742515563964844
  2.4519233703613277  2.0629522800445557 44.0401268005371165
  2.4494640827178955 11.0943517684936523 44.0401268005371165
 11.4823226928710920  2.0629522800445557 44.0401268005371165
 11.4798641204833984 11.0943517684936523 44.0401268005371165
  6.5760178565979004  6.9684472084045410 44.0401268005371165
  6.5735583305358887 15.9998464584350586 44.0401268005371165
 15.6064186096191406  6.9684472084045410 44.0401268005371165
 15.6039590835571289 15.9998464584350586 44.0401268005371165
  2.0610768795013428  6.5788145065307617 44.0400009155273509
  2.0586175918579102 15.6102142333984375 44.0400009155273509
 11.0914773941040039  6.5788145065307617 44.0400009155273509
 11.0890178680419922 15.6102142333984375 44.0400009155273509
  6.9668641090393066  2.4525938034057613 44.0400657653808665
  6.9644045829772949 11.4839935302734375 44.0400657653808665
 15.9972639083862305  2.4525938034057613 44.0400657653808665
 15.9948053359985352 11.4839935302734375 44.0400657653808665
  2.4316265583038330  2.0832188129425049 50.0684852600097656
  2.4291670322418213 11.1146183013915998 50.0684852600097656
 11.4620265960693359  2.0832188129425049 50.0684852600097656
 11.4595670700073224 11.1146183013915998 50.0684852600097656
  6.5963144302368164  6.9481806755065918 50.0684852600097656
  6.5938549041748047 15.9795799255371076 50.0684852600097656
 15.6267137527465803  6.9481806755065918 50.0684852600097656
 15.6242542266845703 15.9795799255371076 50.0684852600097656
  2.0811281204223633  6.5990090370178223 50.0690460205078125
  2.0786688327789307 15.6304082870483398 50.0690460205078125
 11.1115283966064453  6.5990090370178223 50.0690460205078125
 11.1090688705444336 15.6304082870483398 50.0690460205078125
  6.9468131065368652  2.4323906898498531 50.0690460205078125
  6.9443535804748535 11.4637899398803711 50.0690460205078125
 15.9772129058837891  2.4323906898498531 50.0690460205078125
 15.9747543334960938 11.4637899398803711 50.0690460205078125
 18.0481874505057966 18.0382711030542886 37.7866210937500000
  0.0694561004638672  9.1162786483764648 37.7457733154296875
  9.1322603225708008  0.1382813155651093 37.7371444702148438
  9.0072536468505859  8.8727178573608398 37.7468490600585938
  4.4631137847900391  4.4606232643127441 37.6529350280761790
  4.5490345954895020 13.4862184524536133 37.6999244689941406
 13.4745826721191406  4.4449229240417480 37.6428184509277344
 13.3312292098999023 13.6365690231323224 37.6501846313476562
  0.0000090280000222  0.0000090310004452 44.0429992675781250
 -0.0024502959568053  9.0314083099365234 44.0429992675781250
  9.0304088592529297  0.0000090310004452 44.0429992675781250
  9.0279493331909180  9.0314083099365234 44.0429992675781250
  4.5139703750610352  4.5156903266906738 44.0427513122558594
  4.5115113258361816 13.5470905303955078 44.0427513122558594
 13.5443706512451172  4.5156903266906738 44.0427513122558594
 13.5419111251831037 13.5470905303955078 44.0427513122558594
  0.0000000000000000  0.0000000000000000 50.4472808837890696
 -0.0024593239650130  9.0313997268676740 50.4472808837890696
  9.0304002761840803  0.0000000000000000 50.4472808837890696
  9.0279407501220685  9.0313997268676740 50.4472808837890696
  4.5139703750610352  4.5156998634338379 50.4472808837890696
  4.5115113258361816 13.5470991134643537 50.4472808837890696
 13.5443706512451172  4.5156998634338379 50.4472808837890696
 13.5419111251831055 13.5470991134643537 50.4472808837890696
