 H  C  N  I Pb 
 1.0000000000000000
    18.0608005523681641    0.0000000000000000    0.0000000000000000
    -0.0049186488613486   18.0627994537353516    0.0000000000000000
     0.0000000000000000    0.0000000000000000   62.4874992370605469
 H   C   N   I   Pb 
 143  39  47  72  24
Cartesian
  8.1768398284912109  5.7594981193542480 36.1173820495605540
  8.1111755371093750 15.2754631042480469 35.9180564880371094
 16.7258491516113281  4.5465750694274893 36.3366622924804688
 17.1823215484619141 14.5632772445678711 36.4282875061035156
  5.3792872428894043  1.0559010505676270 36.1649169921875000
  5.6328487396240234 10.1530809402465820 36.2200469970703125
 14.3001890182495099  1.3222042322158813 36.2911796569824219
  1.9629306793212902  4.1243128776550293 34.8593177795410156
  1.6808986663818357 12.2908964157104492 35.2170753479003977
 10.3301105499267560  3.1514303684234615 34.7666015625000000
  9.0763244628906250 11.7964630126953107 35.4147033691406250
  6.5029606819152823  0.3311097919940948 35.0533981323242188
  5.0799589157104492 11.1767349243164062 34.9141540527343821
 15.6468811035156250  0.7160373926162720 35.3691406250000000
  1.1516571044921873  4.0352463722229004 36.3881683349609375
  0.5671234130859409 12.4891691207885742 36.5212783813476634
 10.2795572280883789  4.5240645408630371 35.9048080444335938
  8.6144151687622070 12.9203968048095703 36.6681594848632884
  4.7242569923400879  7.8329973220825186 36.3028221130371094
  3.0016546249389644  0.3230130672454834 35.9485473632812500
 12.1801652908325195  0.0705703645944595 36.1757774353027344
  6.8173294067382812  5.1842799186706534 35.1495780944824219
  8.5811824798583984 15.6640663146972656 34.3041000366210938
 15.9518527984619141  4.6597023010253897 34.8087997436523438
 17.5521850585937500 15.6745367050170898 35.1288948059082031
  3.5630896091461177  7.4062538146972656 35.0796356201171875
  2.5933870533481240 17.3069206476211548 34.6412696838378906
 12.2078766087070107 16.6654711961746216 35.1913108825683594
  8.0616827011108398  3.5162990093231201 34.1162643432617259
  9.2317276000976562 13.4430351257324219 33.8042106628417969
 18.0307025909423828  4.4929203987121582 33.6681251525878906
  1.0749473571777355 14.2896499633789062 34.1692657470703125
  3.6834292411804199  9.5182895660400391 34.0593605041503906
  4.8502315739169717 17.1704214811325073 33.9568214416503977
 14.3835396030917764 16.9630645513534581 34.5478439331054688
  8.3282957077026367  5.5823731422424316 42.2649955749511790
  7.7599163055419913 14.6593809127807599 41.9940109252929688
 17.3632546663284302  5.0506038665771484 42.4837989807128906
 16.8502727746963501 14.1633901596069336 42.1318740844726562
  5.4989523887634277  1.0230287313461304 42.1127395629882812
  5.3538560867309570  9.7813825607299805 42.3297576904296875
 14.2910299301147461  0.9015424847602843 42.3227462768554688
 15.2335348129272461  9.2347545623779297 41.7927017211914062
  1.5841362476348877  3.2060613632202144 40.3010177612304688
  1.7327603101730344 12.4689826965332031 40.8630409240722727
 10.3337993621826154  2.9730765819549561 40.6253967285156250
 10.4103069305419922 12.2854022979736328 41.0396766662597656
  3.1488757133483887  7.5380668640136719 40.4613151550292969
  3.1647168854251504 16.6350015401840210 40.6722869873046946
 11.7338132858276367  8.5276632308959961 41.1021080017089844
 12.1277775028720498 16.6363811492919922 40.4549903869628906
  1.2206792831420898  3.3332755565643311 41.9880065917968750
  0.7213847637176514 12.4850549697875977 42.2519760131835938
 10.1400203704833984  3.7424461841583252 42.1815261840820312
  9.6096096038818359 12.9041442871093750 42.4541091918945312
  3.6005439758300777  7.8797831535339347 42.0872306823730469
  3.6328777531161904 17.2287883162498474 42.2140884399414062
 13.0000724792480451  8.0836124420166016 42.1766891479492188
 12.4424919346347433 17.1115999817848206 42.0842704772949219
  7.5267281532287598  5.8359417915344229 40.7526473999023438
  7.5660352706909180 15.0200929641723633 40.3012657165527415
 16.6929996013641357  5.8145742416381836 41.0624923706054688
 16.7704113721847534 15.0979413986206037 40.6517448425293040
  5.9836859703063965  1.4179432392120361 40.5027999877929688
  5.8420104980468741 10.4848003387451172 40.8307304382324219
 14.9898900985717773  1.3649380207061768 40.8132400512695312
 15.3350410461425781 10.2261323928832990 40.3312568664550852
  0.0203556120395660  4.7281031608581543 39.6102218627929688
  0.5935087800025939 14.0931138992309570 39.7587242126464844
  8.7060375213623047  4.2353601455688477 39.6079711914062500
  9.2145824432373047 13.5780525207519531 39.5893974304199290
  4.5442604282870889 17.9792424589395523 39.4787788391113352
  4.5258145332336426  9.1607599258422852 39.5407600402832102
 13.6790508488193137 18.0315892510116100 39.5326194763183594
 13.0947189331054688  9.8978824615478516 39.8137893676757812
  8.1032123565673828  5.4420318603515616 48.0459518432617259
  8.1007528305053711 14.4734306335449219 48.0459518432617259
 17.1336116790771484  5.4420318603515616 48.0459518432617259
 17.1311531066894531 14.4734306335449219 48.0459518432617259
  5.4410333633422852  0.9265221953392029 48.0449485778808594
  5.4385743141174316  9.9579219818115234 48.0449485778808594
 14.4714326858520490  0.9265221953392029 48.0449485778808594
 14.4689741134643555  9.9579219818115234 48.0449485778808594
  1.4218254089355467  3.0919990539550781 46.4558296203613281
  1.4193661212921143 12.1233978271484375 46.4558296203613281
 10.4522256851196289  3.0919990539550781 46.4558296203613281
 10.4497661590576172 12.1233978271484375 46.4558296203613281
  3.0899283885955806  7.6075901985168457 46.4545211791992188
  3.0874691009521484 16.6389904022216797 46.4545211791992188
 12.1203289031982422  7.6075901985168457 46.4545211791992188
 12.1178693771362305 16.6389904022216797 46.4545211791992188
  0.9247469902038573  3.5893490314483643 48.0459518432617259
  0.9222877025604248 12.6207475662231445 48.0459518432617259
  9.9551477432250977  3.5893490314483643 48.0459518432617259
  9.9526882171630859 12.6207475662231445 48.0459518432617259
  3.5868983268737793  8.1048498153686523 48.0448913574218821
  3.5844390392303462 17.1362495422363281 48.0448913574218821
 12.6172990798950195  8.1048498153686523 48.0448913574218821
 12.6148395538330078 17.1362495422363281 48.0448913574218821
  7.6061611175537109  5.9393639564514160 46.4558296203613281
  7.6037015914916992 14.9707632064819336 46.4558296203613281
 16.6365604400634766  5.9393639564514160 46.4558296203613281
 16.6341018676757812 14.9707632064819336 46.4558296203613281
  5.9380125999450684  1.4238001108169553 46.4545211791992188
  5.9355530738830566 10.4551992416381836 46.4545211791992188
 14.9684123992919904  1.4238001108169553 46.4545211791992188
 14.9659538269042951 10.4551992416381836 46.4545211791992188
 -0.0011664569610730  4.5157265663146973 45.3548011779785156
 -0.0036257810425013 13.5471258163452148 45.3548011779785156
  9.0292339324951172  4.5157265663146973 45.3548011779785156
  9.0267744064331037 13.5471258163452148 45.3548011779785156
  4.5152091979980469  0.0000000000000000 45.3536758422851562
  4.5127501487731934  9.0313997268676740 45.3536758422851562
 13.5456094741821289  0.0000000000000000 45.3536758422851562
 13.5431499481201172  9.0313997268676740 45.3536758422851562
 12.9496583938598633  7.9319491386413565 33.8733940124511790
 13.2951307296752930  9.0010929107666016 32.5499572753906250
 11.7982921600341797  9.8813714981079102 35.0981826782226562
 12.6138763427734357 11.4481773376464844 35.0213623046875000
 15.1983413696289062  9.1121902465820312 35.8390655517578125
 13.9933729171752930 10.2598066329956055 36.4329605102539062
 15.6258087158203125 10.0693931579589844 33.4336891174316406
 14.3244791030883789 11.2312335968017578 33.0120048522949219
 15.6194229125976562  8.4910001754760742 32.5075950622558594
 15.6247749328613281  7.8179650306701660 34.1213073730468750
 15.8419208526611328  6.0626139640808105 32.4814682006835938
 14.2602396011352539  5.8794589042663574 33.2544937133789062
 11.4445066452026367  9.8847761154174805 32.6210746765136719
 12.4847879409790039 11.3490648269653320 32.4599380493164062
 10.9546327590942365 11.4343118667602539 33.3164138793945384
 13.6053791046142578  8.0755548477172852 37.4157218933105469
 13.3817682266235352  7.3046464920043945 35.8449897766113281
 12.2149419784545881  8.5085353851318359 36.4228515625000000
 14.9643163681030273 12.3425855636596680 35.3538436889648438
 16.0196113586425781 12.4558448791503906 33.9704627990722727
 16.4227313995361328 11.2813463211059553 35.2453079223632812
 14.8526983261108381  7.0983624458312979 30.4832801818847656
 14.1923046112060547  5.4577603340148926 30.7601833343505895
 11.9602861404418945  5.7644457817077637 32.6335144042968750
 13.2852268218994141  8.4059429168701172 29.5274658203125000
  9.7252311706542969  6.7905564308166504 32.5456390380859446
 11.0463743209838867  9.4583644866943342 29.4383087158203125
  9.2161779403686523  8.6415796279907227 30.9376945495605504
 17.9903411865234375  4.4175839424133301 34.7713356018066406
  0.5616264343261728 13.9727859497070312 35.0945930480957031
  8.5366802215576172  4.1526856422424316 34.8661155700683594
  8.8986454010009766 13.7292385101318359 34.8100624084472656
  4.2997422218322754  9.2876892089843750 34.9354820251464844
  4.5658344486728311 17.8302592188119888 34.7853431701660156
 13.9094452122226357 17.7068210840225220 35.2106056213378906
  0.1009414121508598  4.5183987617492667 40.6638832092285227
  0.2210487127304077 13.7967195510864240 40.7366256713867259
  8.9215087890625000  4.4121446609497070 40.6493606567382812
  8.9878530502319336 13.6659975051879883 40.6470375061035156
  4.4920864105224609  9.0182390213012695 40.6164016723632884
  4.5842194557189941  0.0003711208701134 40.5578231811523509
 13.5325212478637695  9.3693218231201172 40.6752166748046946
 13.5714449146762490 18.0446854420006275 40.6075096130371094
  9.0289716720581055  4.5156092643737793 46.4455223083496165
  9.0265130996704102 13.5470085144042969 46.4455223083496165
 18.0593719482421875  4.5156092643737793 46.4455223083496165
 18.0569133758544922 13.5470085144042969 46.4455223083496165
  4.5152091979980469  0.0000180629995157 46.4442062377929759
  4.5127501487731934  9.0314178466796857 46.4442062377929759
 13.5456094741821289  0.0000180629995157 46.4442062377929759
 13.5431499481201172  9.0314178466796857 46.4442062377929759
 12.7881984710693359  7.0265321731567383 31.0914821624755859
 11.7618284225463867  6.5588440895080566 31.9221382141113281
 12.4944581985473633  8.0701847076416016 30.1949844360351562
 10.5000705718994141  7.1353950500488281 31.8631057739257812
 11.2236766815185547  8.6296205520629883 30.1390857696533239
 10.2302808761596680  8.1736660003662109 30.9732761383056641
 13.7116279602050781  8.6069545745849609 33.4668159484863281
 12.4387912750244141 10.5089941024780273 34.4781341552734375
 14.1240854263305664  9.3535070419311523 35.8285293579101562
 14.8639259338378906 10.7351646423339844 33.8388023376464844
 15.0147180557250977  7.9086756706237793 33.2117042541503906
 14.8429813385009766  6.5226550102233887 32.5833702087402415
 11.8100528717041016 10.7861108779907227 33.1297912597656250
 13.2662248611450195  8.2408933639526367 36.3883094787597656
 15.5937099456787109 11.7448110580444336 34.6928138732910156
 14.2103586196899414  6.4952201843261710 31.1749267578125000
  1.0590419769287094  4.1590466499328613 35.3765563964843750
  0.9627075195312499 12.8556652069091797 35.6365547180175781
  9.7911596298217773  3.8973066806793213 35.2199363708496094
  8.9357824325561523 12.7821159362792969 35.7066268920898438
  7.8269748687744141  5.1381087303161621 35.3585357666015625
  8.5142383575439453 14.9542026519775391 35.0207099914550781
 16.8305320739746094  4.5834903717041016 35.3254508972167969
 17.6603965759277344 14.7343645095825195 35.5410118103027415
  4.2077031135559082  8.1146984100341797 35.4814071655273509
  3.3024582127109170 17.8352131694555283 35.1636238098144602
 12.6605047443881631 17.5479943752288818 35.5107116699218750
  5.5048360824584961  0.4493223428726196 35.3668403625488281
  5.0745711326599121 10.2497358322143555 35.3878288269042969
 14.6600170135498047  0.6280682086944580 35.6730995178222656
  1.0310418605804443  3.6343293190002441 41.0160636901855469
  0.9314781427383423 12.8443050384521467 41.3406105041503906
  9.8722839355468750  3.6556501388549805 41.1996612548828125
  9.7123680114746094 12.9073028564453125 41.4540405273437500
  3.7091314792633052  8.0870037078857422 41.0912513732910156
  3.7516054371371865 17.2672186493873596 41.2000923156738281
 12.7256641387939453  8.5804185867309570 41.3423347473144531
 12.6684841373935342 17.2199323773384094 41.0889968872070312
  8.2329826354980469  5.3217110633850089 41.2644386291503977
  8.0619249343872070 14.4914426803588867 41.0166931152343821
 17.3653502464294434  5.1497611999511719 41.4638252258300781
 17.2250162363052368 14.3883647918701154 41.2306175231933594
  5.3918685913085938  0.8516156077384949 41.0962295532226562
  5.2824425697326660  9.8076066970825195 41.3120346069335938
 14.3132724761962891  0.7867316603660583 41.2981796264648509
 14.7707595825195312  9.6073255538940412 40.9509391784667969
  0.8273094892501831  3.6869695186614990 47.0359649658203125
  0.8248501420021057 12.7183685302734375 47.0359649658203125
  9.8577098846435547  3.6869695186614990 47.0359649658203125
  9.8552503585815412 12.7183685302734375 47.0359649658203125
  3.6843190193176270  8.2023353576660156 47.0346527099609375
  3.6818594932556152 17.2337341308593750 47.0346527099609375
 12.7147188186645508  8.2023353576660156 47.0346527099609375
 12.7122592926025391 17.2337341308593750 47.0346527099609375
  8.2006769180297852  5.3445744514465332 47.0360260009765696
  8.1982173919677734 14.3759746551513672 47.0360260009765696
 17.2310771942138672  5.3445744514465332 47.0360260009765696
 17.2286186218261719 14.3759746551513672 47.0360260009765696
  5.3436489105224600  0.8290914893150328 47.0346527099609375
  5.3411893844604483  9.8604917526245117 47.0346527099609375
 14.3740482330322266  0.8290914893150328 47.0346527099609375
 14.3715896606445312  9.8604917526245117 47.0346527099609375
 13.7827558517456055  9.8097591400146484 34.4292182922363281
  9.0186777114868164  0.3424033224582672 34.4762344360351562
  8.7068719863891602  9.3236503601074219 34.7206268310546875
 17.9414448738098180  0.0490247383713722 34.5337486267089844
  0.6202430129051208  9.0998716354370117 34.5889892578125000
  4.4758701324462891  4.4200916290283203 34.4688301086425781
  4.6033105850219727 13.7420816421508789 34.5037994384765696
 13.4556779861450195  3.8602595329284668 34.8514442443847656
 12.8071918487548828 14.2662296295165998 34.2347335815429759
  0.1231582472100854 18.0476338807493448 40.9272308349609375
  0.2224010676145554  8.8503971099853516 40.9404563903808594
  9.0177650451660156  0.0977801233530045 40.8997268676757884
  9.1754064559936523  8.8909339904785156 40.9655990600586009
  4.5556793212890625  4.4496588706970215 40.9263610839843750
  4.4565720558166504 13.6546382904052734 40.9128456115722656
 13.4095125198364240  4.6067943572998047 40.9910507202148509
 13.5204238891601562 13.6183080673217773 40.7965087890625000
  2.5656075477600093  1.9652279615402222 37.9406166076660156
  2.5830900669097900 11.0386266708374023 38.2079734802246094
 11.6679344177246094  1.9257118701934812 38.1306266784667969
 11.2008295059204102 11.3828268051147461 38.4403648376464844
  6.4371428489685059  7.1218514442443848 38.1747093200683594
  6.6548514366149902 16.0074996948242188 38.0280380249023438
 15.9632091522216779  6.6959176063537598 38.3453445434570312
 15.5775337219238263 15.9747762680053711 38.1448783874511719
  2.0386810302734375  6.4120349884033203 38.0848541259765625
  2.2181355953216553 15.8261528015136701 38.0561370849609446
 10.5837392807006836  6.1900386810302734 37.8549995422363281
 11.0370159149169922 15.5896863937377930 38.1728820800781321
  6.9815139770507804  2.4066114425659180 38.0110588073730469
  6.8908071517944336 11.4275598526000977 38.3090400695800781
 16.0319137573242188  2.5569510459899898 38.3148994445800852
 16.5080833435058594 11.7757101058959961 38.5730133056640696
  0.0000000000000000  0.0000000000000000 47.1735610961914062
 -0.0024593239650130  9.0313997268676740 47.1735610961914062
  9.0304002761840803  0.0000000000000000 47.1735610961914062
  9.0279407501220685  9.0313997268676740 47.1735610961914062
  4.5139794349670410  4.5156998634338379 47.1742515563964844
  4.5115203857421875 13.5470991134643537 47.1742515563964844
 13.5443792343139648  4.5156998634338379 47.1742515563964844
 13.5419197082519531 13.5470991134643537 47.1742515563964844
  2.4519233703613277  2.0629522800445557 44.0401268005371165
  2.4494640827178955 11.0943517684936523 44.0401268005371165
 11.4823226928710920  2.0629522800445557 44.0401268005371165
 11.4798641204833984 11.0943517684936523 44.0401268005371165
  6.5760178565979004  6.9684472084045410 44.0401268005371165
  6.5735583305358887 15.9998464584350586 44.0401268005371165
 15.6064186096191406  6.9684472084045410 44.0401268005371165
 15.6039590835571289 15.9998464584350586 44.0401268005371165
  2.0610768795013428  6.5788145065307617 44.0400009155273509
  2.0586175918579102 15.6102142333984375 44.0400009155273509
 11.0914773941040039  6.5788145065307617 44.0400009155273509
 11.0890178680419922 15.6102142333984375 44.0400009155273509
  6.9668641090393066  2.4525938034057613 44.0400657653808665
  6.9644045829772949 11.4839935302734375 44.0400657653808665
 15.9972639083862305  2.4525938034057613 44.0400657653808665
 15.9948053359985352 11.4839935302734375 44.0400657653808665
  2.4316265583038330  2.0832188129425049 50.0684852600097656
  2.4291670322418213 11.1146183013915998 50.0684852600097656
 11.4620265960693359  2.0832188129425049 50.0684852600097656
 11.4595670700073224 11.1146183013915998 50.0684852600097656
  6.5963144302368164  6.9481806755065918 50.0684852600097656
  6.5938549041748047 15.9795799255371076 50.0684852600097656
 15.6267137527465803  6.9481806755065918 50.0684852600097656
 15.6242542266845703 15.9795799255371076 50.0684852600097656
  2.0811281204223633  6.5990090370178223 50.0690460205078125
  2.0786688327789307 15.6304082870483398 50.0690460205078125
 11.1115283966064453  6.5990090370178223 50.0690460205078125
 11.1090688705444336 15.6304082870483398 50.0690460205078125
  6.9468131065368652  2.4323906898498531 50.0690460205078125
  6.9443535804748535 11.4637899398803711 50.0690460205078125
 15.9772129058837891  2.4323906898498531 50.0690460205078125
 15.9747543334960938 11.4637899398803711 50.0690460205078125
 17.9324342310428619  0.0970395356416702 37.8322830200195312
  0.1237512677907944  9.1378831863403320 37.7596740722656321
  9.0881433486938477  0.1548072099685669 37.7161369323730469
  9.0067567825317383  9.0751419067382795 37.8195304870605469
  4.5044555664062500  4.5876340866088867 37.7660064697265696
  4.4592447280883789 13.6536207199096662 37.7253570556640625
 13.4477958679199219  4.6775698661804199 37.9064178466796875
 13.3707742691040039 13.6718540191650391 37.6395187377929688
  0.0000090280000222  0.0000090310004452 44.0429992675781250
 -0.0024502959568053  9.0314083099365234 44.0429992675781250
  9.0304088592529297  0.0000090310004452 44.0429992675781250
  9.0279493331909180  9.0314083099365234 44.0429992675781250
  4.5139703750610352  4.5156903266906738 44.0427513122558594
  4.5115113258361816 13.5470905303955078 44.0427513122558594
 13.5443706512451172  4.5156903266906738 44.0427513122558594
 13.5419111251831037 13.5470905303955078 44.0427513122558594
  0.0000000000000000  0.0000000000000000 50.4472808837890696
 -0.0024593239650130  9.0313997268676740 50.4472808837890696
  9.0304002761840803  0.0000000000000000 50.4472808837890696
  9.0279407501220685  9.0313997268676740 50.4472808837890696
  4.5139703750610352  4.5156998634338379 50.4472808837890696
  4.5115113258361816 13.5470991134643537 50.4472808837890696
 13.5443706512451172  4.5156998634338379 50.4472808837890696
 13.5419111251831055 13.5470991134643537 50.4472808837890696
