 H  C  N  I Pb 
 1.0000000000000000
    18.0608005523681641    0.0000000000000000    0.0000000000000000
    -0.0049186488613486   18.0627994537353516    0.0000000000000000
     0.0000000000000000    0.0000000000000000   62.4874992370605469
 H   C   N   I   Pb 
 143  39  47  72  24
Cartesian
  7.6715111732482910  4.6966471672058105 36.3151817321777344
  7.4855704307556152 13.3556842803955078 36.0841026306152344
 16.8821601867675781  5.2051658630371094 36.3557701110839844
 17.0590343475341797 14.6366119384765625 36.2066612243652344
  5.6363878250122070  1.1110181808471680 36.1693611145019531
  5.4912853240966797 10.4682149887084961 35.9385871887207031
 14.2175321578979492  1.3674896955490112 36.3202819824218750
  1.8933944702148466  3.6139438152313232 35.2636833190917969
  1.5241470336914051 12.1964836120605469 35.2977790832519602
 10.8672838211059570  3.5379188060760498 35.2096786499023438
 10.9638662338256836 13.4147357940673828 35.1967582702636719
  6.6830544471740723  0.3262153863906860 35.0406074523925781
  4.8748445510864249 11.0855407714843750 34.4629364013671875
 15.4739646911621076  1.0007990598678589 35.1969490051269531
  1.2440280914306681  4.5588655471801758 36.5636825561523509
  0.1704273223876966 12.4749994277954102 36.3975524902343750
  9.6594362258911115  3.2254931926727295 36.3873100280761719
  9.8306884765625000 12.5907020568847656 36.2981605529785227
  4.8557453155517569  8.0595474243164062 36.4652137756347656
  3.1765737533569331  0.4361743927001953 36.0373840332031250
 12.1830181339755637 17.9279935061931610 36.2432899475097727
  7.6002535820007324  5.9086098670959473 35.0600204467773509
  7.1189098358154297 14.5298528671264648 34.8512954711914062
 16.0549316406250000  4.5854196548461914 34.9405250549316406
 17.6282272338867188 15.7323322296142560 34.9571838378906250
  3.8470745086669917  7.2613434791564941 35.3189277648925781
  2.7656015614047647 17.3586494922637939 34.7976799011230540
 12.2757229069247842 16.6119624376296997 35.0997657775878906
  9.6111230850219727  5.2330164909362793 34.1675796508789134
  9.3757667541503888 14.6182537078857422 34.1396865844726562
 17.9472274780273438  3.6082680225372314 34.0988349914550781
  1.2188568115234384 14.2353219985961914 34.2416687011718750
  3.7387535572052002  9.1167287826538086 33.9239158630371165
  4.9447845676913857 17.1682155728340149 34.0444526672363281
 14.3499330738559348 17.2495561838150024 34.3022613525390625
  7.8804478645324707  5.1370882987976074 42.2054443359375000
  7.7799172401428223 14.8304243087768555 41.9739570617675781
 17.5669646263122559  4.9468946456909180 42.6457176208496094
 16.8664948940277100 14.2001237869262695 42.1879501342773438
  5.3663988113403320  0.8476686477661132 42.3107910156250000
  5.3840327262878418  9.9451017379760724 42.2099304199218821
 14.3992214202880842  1.0149700641632080 42.1771507263183594
 14.5737628936767578  9.9784545898437500 42.2685737609863352
  1.5062345266342161  3.0275192260742188 40.2426872253418040
  1.7465845346450806 12.4317922592163086 40.8627433776855469
 10.4926233291625977  3.1509318351745605 40.5896797180175781
 10.1357316970825178 12.1953964233398438 41.0182266235351634
  3.2891528606414795  7.4082603454589844 40.5707511901855469
  3.1174558857455850 16.6419205665588379 40.3845367431640625
 12.1354293823242188  7.6959671974182129 40.7815628051757812
 12.0470365742221457 16.7371811866760254 40.5945281982421946
  1.2899068593978882  3.2197239398956299 41.9662628173828125
  0.6714472770690918 12.4227371215820295 42.2363929748535227
  9.6613607406616211  3.3089981079101562 42.1017303466796875
  9.4439153671264648 12.9737663269042969 42.4221420288085938
  3.8309013843536377  7.8635277748107910 42.1505012512207102
  3.3925103405490518 17.1132307052612340 42.0234184265136719
 12.8446350097656250  8.0487709045410156 42.3070449829101562
 12.4313759068027139 17.3850995302200317 42.1564216613769602
  7.6602368354797363  6.0303649902343750 40.7202529907226562
  7.5230970382690421 15.1742992401123047 40.2877693176269531
 16.7855565547943151  5.7487702369689941 41.2747535705566406
 16.8882514238357544 15.1985425949096662 40.7557067871093750
  6.1161050796508789  1.2925900220870972 40.8330802917480540
  5.6902766227722168 10.6669902801513672 40.6724052429199219
 15.1296844482421875  1.3044209480285645 40.6324386596679688
 14.7521820068359357 10.7348241806030273 40.7039566040039062
 17.9777347594499624  4.6053657531738281 39.7233963012695312
  0.6602008342742920 14.1951398849487305 39.8329429626464844
  9.3198680877685547  4.8576440811157227 39.6019058227539062
  8.9786062240600586 13.5642414093017578 39.5549354553222656
  4.7768201092258087 18.0034706257283688 39.5169258117675781
  4.4191927909851074  9.1555757522583008 39.5170135498046875
 13.7294229725375772 17.9331644475460052 39.5224075317382812
 13.2380800247192383  9.3387641906738281 39.6621971130371094
  8.1032123565673828  5.4420318603515616 48.0459518432617259
  8.1007528305053711 14.4734306335449219 48.0459518432617259
 17.1336116790771484  5.4420318603515616 48.0459518432617259
 17.1311531066894531 14.4734306335449219 48.0459518432617259
  5.4410333633422852  0.9265221953392029 48.0449485778808594
  5.4385743141174316  9.9579219818115234 48.0449485778808594
 14.4714326858520490  0.9265221953392029 48.0449485778808594
 14.4689741134643555  9.9579219818115234 48.0449485778808594
  1.4218254089355467  3.0919990539550781 46.4558296203613281
  1.4193661212921143 12.1233978271484375 46.4558296203613281
 10.4522256851196289  3.0919990539550781 46.4558296203613281
 10.4497661590576172 12.1233978271484375 46.4558296203613281
  3.0899283885955806  7.6075901985168457 46.4545211791992188
  3.0874691009521484 16.6389904022216797 46.4545211791992188
 12.1203289031982422  7.6075901985168457 46.4545211791992188
 12.1178693771362305 16.6389904022216797 46.4545211791992188
  0.9247469902038573  3.5893490314483643 48.0459518432617259
  0.9222877025604248 12.6207475662231445 48.0459518432617259
  9.9551477432250977  3.5893490314483643 48.0459518432617259
  9.9526882171630859 12.6207475662231445 48.0459518432617259
  3.5868983268737793  8.1048498153686523 48.0448913574218821
  3.5844390392303462 17.1362495422363281 48.0448913574218821
 12.6172990798950195  8.1048498153686523 48.0448913574218821
 12.6148395538330078 17.1362495422363281 48.0448913574218821
  7.6061611175537109  5.9393639564514160 46.4558296203613281
  7.6037015914916992 14.9707632064819336 46.4558296203613281
 16.6365604400634766  5.9393639564514160 46.4558296203613281
 16.6341018676757812 14.9707632064819336 46.4558296203613281
  5.9380125999450684  1.4238001108169553 46.4545211791992188
  5.9355530738830566 10.4551992416381836 46.4545211791992188
 14.9684123992919904  1.4238001108169553 46.4545211791992188
 14.9659538269042951 10.4551992416381836 46.4545211791992188
 -0.0011664569610730  4.5157265663146973 45.3548011779785156
 -0.0036257810425013 13.5471258163452148 45.3548011779785156
  9.0292339324951172  4.5157265663146973 45.3548011779785156
  9.0267744064331037 13.5471258163452148 45.3548011779785156
  4.5152091979980469  0.0000000000000000 45.3536758422851562
  4.5127501487731934  9.0313997268676740 45.3536758422851562
 13.5456094741821289  0.0000000000000000 45.3536758422851562
 13.5431499481201172  9.0313997268676740 45.3536758422851562
 14.1929483413696289  9.1847858428955078 32.4015007019042969
 15.7346849441528320  9.1448745727539062 33.2447242736816406
 13.5856513977050763 11.3401460647583008 33.6722335815429688
 13.8642044067382812 11.3371372222900391 35.4011497497558594
 12.2660446166992188  8.2013616561889648 34.8760032653808594
 12.1068754196166992  9.9370193481445312 35.2252807617187500
 14.4508161544799805  7.7345943450927734 35.6739654541015625
 15.6537075042724609  9.0590219497680664 35.7156791687011719
 15.5656881332397461  6.8673214912414551 33.8828773498535227
 13.8101272583007812  6.8125514984130859 33.6313514709472656
 14.0203332901000977  6.8827371597290039 31.2148723602294922
 15.6134662628173828  7.5811572074890137 31.2436180114746094
 16.1081333160400391 11.0301980972290039 33.3043174743652344
 16.3727207183837891 11.0176563262939453 35.0762481689453125
 15.6637535095214844 12.4561195373535156 34.2758979797363281
 10.7753868103027344  9.4435520172119141 33.3472785949707102
 12.0504245758056641  8.7289714813232422 32.3797264099121094
 12.0847511291503906 10.4918746948242188 32.7144546508789134
 13.0775566101074219  8.7088537216186523 37.2798728942871094
 13.5580348968505842 10.3782730102539062 37.0593338012695312
 14.6894626617431623  9.2355499267578125 37.8534011840820312
 15.0724449157714844  4.7611427307128906 32.3417739868164062
 15.2650156021118146  5.0171289443969718 30.6185016632080078
 16.9702033996582031  3.1513173580169678 31.4154090881347656
 17.5853023529052734  7.3593029975891113 32.1458625793457031
  1.3284950256347672  2.7397782802581787 31.4642047882080078
  1.9311332702636745  6.9425187110900879 32.2516860961914062
  2.8699474334716784  4.6808385848999023 31.9470005035400426
 18.0054550170898438  4.0998363494873047 35.0514984130859375
  0.5433311462402359 13.9537334442138672 35.0622940063476562
  9.2258348464965820  4.6954512596130371 35.0364799499511719
  9.0651388168334961 13.9404706954956055 34.9455375671386719
  4.3185825347900391  9.1604919433593750 34.8296966552734375
  4.7358445385470986 17.8354948908090591 34.8628158569335938
 13.8756832340732217 17.8129232823848724 35.0911216735839915
  0.1172953844070435  4.3899860382080078 40.7725486755371094
  0.2795251607894897 13.8056640625000000 40.8009872436523438
  9.0799617767333984  4.5901541709899902 40.6412277221679688
  8.8380289077758789 13.6881542205810529 40.6405220031738352
  4.4839534759521484  9.0282907485961914 40.6024513244628906
  4.6132129887118936 17.9977822527289391 40.6147689819335938
 13.4410505294799805  9.2215166091918945 40.7143630981445312
 13.5859398106113076 18.0439003184437752 40.6017227172851562
  9.0289716720581055  4.5156092643737793 46.4455223083496165
  9.0265130996704102 13.5470085144042969 46.4455223083496165
 18.0593719482421875  4.5156092643737793 46.4455223083496165
 18.0569133758544922 13.5470085144042969 46.4455223083496165
  4.5152091979980469  0.0000180629995157 46.4442062377929759
  4.5127501487731934  9.0314178466796857 46.4442062377929759
 13.5456094741821289  0.0000180629995157 46.4442062377929759
 13.5431499481201172  9.0314178466796857 46.4442062377929759
 17.0686302185058594  5.2521977424621573 31.7374362945556641
 17.6251926422119141  3.9881770610809326 31.5801734924316406
 17.9591312408447266  6.3288207054138184 32.0115814208984375
  0.9456882476806615  3.7584402561187744 31.6281490325927734
  1.2680644989013656  6.1056509017944336 32.0456123352050781
  1.8039474487304685  4.8362970352172852 31.8574924468994176
 14.6866073608398438  8.7969541549682617 33.2947883605957031
 14.2409362792968750 10.9267530441284180 34.4616165161132812
 12.4970226287841797  9.2192821502685547 34.4851112365722656
 14.5781593322753888  8.8292293548583984 35.7604103088378977
 14.7376985549926758  7.2628841400146484 33.2516098022460938
 14.9719314575195312  6.8652310371398917 31.7582836151123047
 15.6900739669799805 11.3567914962768555 34.2740898132324219
 11.8471641540527344  9.4969043731689453 33.1429557800292969
 13.9315004348754883  9.3337421417236328 37.0507621765136719
 15.5664358139038086  5.4442625045776367 31.5990657806396520
  1.0715217590332045  4.0556659698486328 35.6954650878906250
  0.7482547760009761 12.7923879623413086 35.6143188476562500
  9.9221343994140625  3.7203149795532227 35.5506362915039134
  9.9959411621093750 13.1683816909790039 35.4734954833984375
  8.0798025131225586  5.1243066787719727 35.5060119628906250
  7.7959828376770020 13.9439458847045898 35.3411979675292969
 16.9203109741210938  4.6823654174804688 35.4740104675292969
 17.6627178192138672 14.7927827835083008 35.4005355834960938
  4.3192749023437500  8.1072473526000977 35.5909614562988281
  3.4968733051791787 17.8931238502264058 35.2610969543457031
 12.6758789280429482 17.4744414091110265 35.4679641723632812
  5.7199187278747559  0.4715524315834045 35.3671798706054759
  4.9231023788452148 10.2949848175048828 35.1069450378417969
 14.5551185607910156  0.7571091651916504 35.5743942260742259
  1.0226619243621826  3.4866666793823242 41.0275268554687500
  0.9282661676406860 12.8322792053222656 41.3437728881835938
  9.7801208496093750  3.6328492164611816 41.1557884216308594
  9.5303859710693359 12.9005041122436506 41.4421501159667969
  3.8478796482086182  8.0627260208129883 41.1735801696777344
  3.6700629452243447 17.2259575128555333 41.0669441223144602
 12.7595033645629883  8.2601213455200195 41.3119583129882812
 12.6547569492831826 17.3630636930465698 41.1850013732910227
  8.1407833099365234  5.2929272651672363 41.2474136352539062
  7.9957890510559082 14.6263637542724609 41.0177536010742259
 17.4682893753051758  5.0681543350219727 41.6379585266113281
 17.2892003059387207 14.4231510162353516 41.2799491882324290
  5.3775739669799805  0.7054531574249268 41.3196411132812571
  5.2349615097045898  9.9335908889770490 41.2239685058593821
 14.4275827407836914  0.8169869184494019 41.2043304443359375
 14.3143520355224609 10.0356025695800781 41.2803764343261790
  0.8273094892501831  3.6869695186614990 47.0359649658203125
  0.8248501420021057 12.7183685302734375 47.0359649658203125
  9.8577098846435547  3.6869695186614990 47.0359649658203125
  9.8552503585815412 12.7183685302734375 47.0359649658203125
  3.6843190193176270  8.2023353576660156 47.0346527099609375
  3.6818594932556152 17.2337341308593750 47.0346527099609375
 12.7147188186645508  8.2023353576660156 47.0346527099609375
 12.7122592926025391 17.2337341308593750 47.0346527099609375
  8.2006769180297852  5.3445744514465332 47.0360260009765696
  8.1982173919677734 14.3759746551513672 47.0360260009765696
 17.2310771942138672  5.3445744514465332 47.0360260009765696
 17.2286186218261719 14.3759746551513672 47.0360260009765696
  5.3436489105224600  0.8290914893150328 47.0346527099609375
  5.3411893844604483  9.8604917526245117 47.0346527099609375
 14.3740482330322266  0.8290914893150328 47.0346527099609375
 14.3715896606445312  9.8604917526245117 47.0346527099609375
 13.9993486404418928  9.4180488586425781 34.4832687377929688
  9.1614698627963662 17.8713181018829346 34.5812606811523438
  8.2500066757202148  8.6150655746459961 34.6622352600097656
 17.9671034738421476  0.1911907643079758 34.4500045776367188
  0.6299664974212645  8.8648214340209961 34.8712387084960938
  4.4280934333801270  4.4507231712341309 34.7090339660644531
  4.3184881210327148 13.9247846603393555 34.4578514099121165
 13.4225263595581037  4.0910906791687012 34.6574440002441406
 12.9199066162109375 14.2518835067749023 34.0435829162597656
  0.0346446679905057 18.0053316578269040 40.8800086975097727
 18.0532122943550348  9.1375064849853516 41.0191993713378906
  8.9463081359863281  0.0323130078613758 40.9390563964843821
  8.9426174163818359  9.0069942474365234 40.9454307556152344
  4.6003904342651367  4.3266963958740234 40.9715919494628906
  4.5621595382690430 13.6120290756225586 40.8652343750000000
 13.4344329833984375  4.5137324333190918 40.9604492187500000
 13.6694383621215803 13.6522035598754883 40.8529739379882884
  2.6887979507446285  1.9009718894958496 38.1152420043945312
  2.7267410755157471 10.9644165039062482 38.0683326721191406
 11.6754617691040039  1.9314584732055664 38.1482315063476562
 11.0181446075439453 11.5640354156494141 38.4259262084961009
  6.5495405197143555  7.0179209709167480 38.2924995422363281
  6.5252466201782218 16.0817623138427734 38.0354118347167969
 16.0650558471679688  6.5388178825378418 38.5013961791992188
 15.5539617538452148 16.1009197235107422 38.0171127319335938
  2.1200928688049316  6.4965767860412598 38.2438888549804688
  2.0773370265960693 15.7342910766601562 38.0182151794433665
 11.1402311325073242  6.6851038932800293 37.9097747802734375
 11.1642408370971680 15.6446990966796875 38.2804756164550852
  7.1858010292053223  2.5553505420684810 38.0478515625000000
  6.9365510940551758 11.5558776855468750 37.9602012634277344
 15.9959564208984375  2.4708452224731445 38.3318519592285227
 16.5204505920410156 12.0120496749877930 38.3935928344726634
  0.0000000000000000  0.0000000000000000 47.1735610961914062
 -0.0024593239650130  9.0313997268676740 47.1735610961914062
  9.0304002761840803  0.0000000000000000 47.1735610961914062
  9.0279407501220685  9.0313997268676740 47.1735610961914062
  4.5139794349670410  4.5156998634338379 47.1742515563964844
  4.5115203857421875 13.5470991134643537 47.1742515563964844
 13.5443792343139648  4.5156998634338379 47.1742515563964844
 13.5419197082519531 13.5470991134643537 47.1742515563964844
  2.4519233703613277  2.0629522800445557 44.0401268005371165
  2.4494640827178955 11.0943517684936523 44.0401268005371165
 11.4823226928710920  2.0629522800445557 44.0401268005371165
 11.4798641204833984 11.0943517684936523 44.0401268005371165
  6.5760178565979004  6.9684472084045410 44.0401268005371165
  6.5735583305358887 15.9998464584350586 44.0401268005371165
 15.6064186096191406  6.9684472084045410 44.0401268005371165
 15.6039590835571289 15.9998464584350586 44.0401268005371165
  2.0610768795013428  6.5788145065307617 44.0400009155273509
  2.0586175918579102 15.6102142333984375 44.0400009155273509
 11.0914773941040039  6.5788145065307617 44.0400009155273509
 11.0890178680419922 15.6102142333984375 44.0400009155273509
  6.9668641090393066  2.4525938034057613 44.0400657653808665
  6.9644045829772949 11.4839935302734375 44.0400657653808665
 15.9972639083862305  2.4525938034057613 44.0400657653808665
 15.9948053359985352 11.4839935302734375 44.0400657653808665
  2.4316265583038330  2.0832188129425049 50.0684852600097656
  2.4291670322418213 11.1146183013915998 50.0684852600097656
 11.4620265960693359  2.0832188129425049 50.0684852600097656
 11.4595670700073224 11.1146183013915998 50.0684852600097656
  6.5963144302368164  6.9481806755065918 50.0684852600097656
  6.5938549041748047 15.9795799255371076 50.0684852600097656
 15.6267137527465803  6.9481806755065918 50.0684852600097656
 15.6242542266845703 15.9795799255371076 50.0684852600097656
  2.0811281204223633  6.5990090370178223 50.0690460205078125
  2.0786688327789307 15.6304082870483398 50.0690460205078125
 11.1115283966064453  6.5990090370178223 50.0690460205078125
 11.1090688705444336 15.6304082870483398 50.0690460205078125
  6.9468131065368652  2.4323906898498531 50.0690460205078125
  6.9443535804748535 11.4637899398803711 50.0690460205078125
 15.9772129058837891  2.4323906898498531 50.0690460205078125
 15.9747543334960938 11.4637899398803711 50.0690460205078125
 17.9667787775397336  0.0905446112155914 37.7450561523437500
  0.1599333435297012  9.1206998825073242 37.9102821350097656
  9.0439953068271279 17.9730024263262749 37.6871833801269531
  8.9438867568969727  9.0453252792358398 37.6827964782714844
  4.5446972846984863  4.5098748207092285 37.8225555419921946
  4.3931617736816406 13.6664218902587891 37.7063255310058594
 13.5822324752807599  4.5805282592773429 37.8368568420410156
 13.5481491088867188 13.6375551223754865 37.7965545654296946
  0.0000090280000222  0.0000090310004452 44.0429992675781250
 -0.0024502959568053  9.0314083099365234 44.0429992675781250
  9.0304088592529297  0.0000090310004452 44.0429992675781250
  9.0279493331909180  9.0314083099365234 44.0429992675781250
  4.5139703750610352  4.5156903266906738 44.0427513122558594
  4.5115113258361816 13.5470905303955078 44.0427513122558594
 13.5443706512451172  4.5156903266906738 44.0427513122558594
 13.5419111251831037 13.5470905303955078 44.0427513122558594
  0.0000000000000000  0.0000000000000000 50.4472808837890696
 -0.0024593239650130  9.0313997268676740 50.4472808837890696
  9.0304002761840803  0.0000000000000000 50.4472808837890696
  9.0279407501220685  9.0313997268676740 50.4472808837890696
  4.5139703750610352  4.5156998634338379 50.4472808837890696
  4.5115113258361816 13.5470991134643537 50.4472808837890696
 13.5443706512451172  4.5156998634338379 50.4472808837890696
 13.5419111251831055 13.5470991134643537 50.4472808837890696
