 H  C  N  I Pb 
 1.0000000000000000
    18.0608005523681641    0.0000000000000000    0.0000000000000000
    -0.0049186488613486   18.0627994537353516    0.0000000000000000
     0.0000000000000000    0.0000000000000000   62.4874992370605469
 H   C   N   I   Pb 
 143  39  47  72  24
Cartesian
  8.0620813369750977  5.9941182136535645 35.3816566467285156
  7.6451263427734366 15.0124006271362305 35.5198326110839844
 17.3478469848632812  5.8566784858703613 36.0671577453613281
 17.1015739440917969 14.7213268280029297 35.8489685058593750
  5.8575453022494912 17.1982827782630956 35.8657608032226562
  6.3083372116088867 10.0222215652465820 35.1621055603027415
 14.5450935363769531  1.5324940681457520 35.6222839355468750
  0.2426834106445322  2.5430834293365479 35.0178833007812500
  1.1911010742187513 11.8384075164794922 35.5466537475585938
 10.0853462219238281  3.0602047443389893 34.7196502685546875
  8.9902925491333008 11.6863183975219727 35.1158409118652415
  6.5714402198791504  0.3706501126289368 34.8747482299804688
  5.2804851531982413 11.3712577819824219 34.6682624816894602
 15.7999095916748047  0.4185619950294495 35.0873985290527344
 17.3536586761474609  3.3824377059936523 36.1742210388183594
 17.8958606719970703 12.4608268737792969 36.4578857421875000
 10.1725854873657227  4.6519422531127930 35.4552078247070312
  7.7809553146362305 12.5623979568481445 35.9692955017089844
  5.0988588333129883  7.9021234512329093 35.7721939086914062
  3.4373583057895303 16.7917817831039429 35.6525764465332031
 12.2292203903198242  0.6145448088645935 35.6303863525390625
  6.6697072982788086  5.1870808601379395 34.6676559448242188
  8.8875122070312500 15.7022552490234375 34.5197906494140625
  0.3233451843261713  6.6339073181152344 34.8829765319824219
 18.0065937042236328 15.5935792922973633 34.6444015502929688
  3.4275877475738525  7.8485651016235352 35.3310203552246094
  2.5149926403537393 17.9124666005373001 34.7233657836914062
 12.0496410587802529 17.0364091396331823 35.0792884826660156
  7.8710851669311515  3.2966537475585938 34.1277351379394531
  9.9141817092895508 13.6211357116699219 34.1573257446289062
  1.0843067169189473  4.5319685935974112 34.0570755004882812
  1.4685134887695310 13.8014087677001953 34.3323860168457031
  3.3708403110504150 10.0347995758056641 34.6086692810058665
  4.4349093437194824  1.0761135816574097 34.0891227722168040
 14.2890552738681436 16.7668318748474121 34.6764144897460938
  8.7624540328979492  6.1114974021911612 41.5590476989746165
  8.0732040405273438 14.6678037643432599 42.1015968322753906
 17.4592918157577515  5.0866365432739258 42.3450164794921946
 16.7320162057876587 13.0911655426025391 42.0633239746093821
  5.5804538726806632  0.9597581028938293 41.9485015869140625
  5.4038829803466797  9.9378690719604492 42.1781768798828125
 14.4368591308593750  1.0462571382522583 42.1662864685058594
 13.5847101211547852 10.8023881912231445 41.2745208740234446
  1.5230652093887327  2.9311742782592773 40.2944068908691406
  2.0112893581390381 12.9869327545166016 40.6342506408691406
 10.4438076019287109  3.0397691726684570 40.5655021667480540
 10.1619930267333984 11.9996452331542951 40.6767387390136719
  3.2597491741180420  7.4701352119445801 40.5262031555175852
  3.1622628429904580 16.6554334163665771 40.5179367065429688
 12.8088045120239240  7.2361016273498535 41.3510246276855469
 12.1739010075107199 16.7008123397827148 40.5836830139160156
  1.1375827789306641  3.2158524990081787 41.9770240783691406
  1.0320855379104614 12.1968059539794922 41.8179244995117188
 10.7768068313598615  4.6213226318359375 41.2036056518554688
  9.5715265274047852 12.5744838714599609 42.2218132019042969
  3.6067130565643311  8.0553035736083984 42.1187744140625000
  3.7211205223575234 17.1753911972045898 42.0678253173828125
 12.1013641357421875  8.7970142364501953 41.7003707885742259
 12.5278352955356223 17.3642526865005493 42.1552619934082102
  7.2116708755493164  5.3838133811950684 41.2055854797363281
  7.8175940513610840 15.2666006088256836 40.4880447387695312
 16.9237262010574341  5.8898854255676270 40.8927268981933594
 16.2894482612609899 14.3785018920898438 40.9664382934570384
  6.0124049186706543  1.4189836978912354 40.3323593139648438
  5.9994077682495117 10.3933687210083008 40.6080093383789062
 15.1220569610595703  1.3744983673095701 40.6120719909667969
 15.1344385147094727 10.4523458480834961 40.5776596069335938
  0.1531636565923691  4.5936074256896973 39.4998054504394531
  0.3391343355178833 14.4411153793334961 39.9646644592285227
  8.1390943527221680  3.4014573097229004 40.4756202697753906
  9.1159944534301758 13.6300926208496094 39.4732360839843750
  4.5328544834628701 18.0457743834704161 39.3186912536621094
  4.7150716781616211  8.8757581710815430 39.4618453979492259
 13.7813886860385537 17.9251371771097183 39.4996719360351634
 14.7751197814941406  8.1416969299316406 40.5272140502929759
  8.1032123565673828  5.4420318603515616 48.0459518432617259
  8.1007528305053711 14.4734306335449219 48.0459518432617259
 17.1336116790771484  5.4420318603515616 48.0459518432617259
 17.1311531066894531 14.4734306335449219 48.0459518432617259
  5.4410333633422852  0.9265221953392029 48.0449485778808594
  5.4385743141174316  9.9579219818115234 48.0449485778808594
 14.4714326858520490  0.9265221953392029 48.0449485778808594
 14.4689741134643555  9.9579219818115234 48.0449485778808594
  1.4218254089355467  3.0919990539550781 46.4558296203613281
  1.4193661212921143 12.1233978271484375 46.4558296203613281
 10.4522256851196289  3.0919990539550781 46.4558296203613281
 10.4497661590576172 12.1233978271484375 46.4558296203613281
  3.0899283885955806  7.6075901985168457 46.4545211791992188
  3.0874691009521484 16.6389904022216797 46.4545211791992188
 12.1203289031982422  7.6075901985168457 46.4545211791992188
 12.1178693771362305 16.6389904022216797 46.4545211791992188
  0.9247469902038573  3.5893490314483643 48.0459518432617259
  0.9222877025604248 12.6207475662231445 48.0459518432617259
  9.9551477432250977  3.5893490314483643 48.0459518432617259
  9.9526882171630859 12.6207475662231445 48.0459518432617259
  3.5868983268737793  8.1048498153686523 48.0448913574218821
  3.5844390392303462 17.1362495422363281 48.0448913574218821
 12.6172990798950195  8.1048498153686523 48.0448913574218821
 12.6148395538330078 17.1362495422363281 48.0448913574218821
  7.6061611175537109  5.9393639564514160 46.4558296203613281
  7.6037015914916992 14.9707632064819336 46.4558296203613281
 16.6365604400634766  5.9393639564514160 46.4558296203613281
 16.6341018676757812 14.9707632064819336 46.4558296203613281
  5.9380125999450684  1.4238001108169553 46.4545211791992188
  5.9355530738830566 10.4551992416381836 46.4545211791992188
 14.9684123992919904  1.4238001108169553 46.4545211791992188
 14.9659538269042951 10.4551992416381836 46.4545211791992188
 -0.0011664569610730  4.5157265663146973 45.3548011779785156
 -0.0036257810425013 13.5471258163452148 45.3548011779785156
  9.0292339324951172  4.5157265663146973 45.3548011779785156
  9.0267744064331037 13.5471258163452148 45.3548011779785156
  4.5152091979980469  0.0000000000000000 45.3536758422851562
  4.5127501487731934  9.0313997268676740 45.3536758422851562
 13.5456094741821289  0.0000000000000000 45.3536758422851562
 13.5431499481201172  9.0313997268676740 45.3536758422851562
 14.0180511474609357 10.0512609481811523 32.4600143432617188
 13.0222673416137678  8.6340532302856445 32.8283386230468750
 15.7028207778930664  9.0542478561401367 33.7523880004882812
 15.4811830520629883  8.6949853897094727 35.4698905944824219
 13.4213695526123047 11.5915822982788086 34.9943580627441406
 14.6011610031127930 10.7687625885009766 36.0397071838378906
 12.0250158309936523  9.9140396118164062 35.5844802856445312
 12.2526426315307599  8.2516756057739258 35.0291404724121165
 11.1288576126098633 10.0567874908447266 33.5659255981445312
 12.1394758224487305 11.4968690872192383 33.4508895874023438
 10.9414978027343750 11.6616058349609357 31.4894104003906286
 12.4020185470581037 10.8653297424316406 30.9092311859130859
 14.1875057220458967  7.0839266777038574 33.1522674560546875
 14.0675954818725586  6.6668953895568848 34.8911209106445312
 15.6381559371948242  6.6557230949401855 34.0663108825683594
 15.5845174789428711 12.5495138168334961 34.6594200134277344
 15.2472295761108381 11.6924047470092773 33.1703376770019531
 16.4008350372314453 11.0116405487060547 34.3667259216308594
 13.7823925018310547  9.5585031509399414 37.3797302246093750
 13.9529180526733398  7.8660178184509277 36.8490028381347727
 12.4221429824829102  8.4360914230346680 37.5022087097167969
  9.6760015487670898  9.5808629989624023 31.4611892700195312
 10.4294395446777344  9.9008064270019531 29.9030914306640661
 12.5900878906249982  8.6324958801269531 29.2984256744384766
 10.1052904129028320  7.5083823204040527 32.6247558593750000
 13.7757740020751953  6.4613766670227051 29.4570674896240270
 11.3023281097412109  5.3478760719299308 32.8018112182617188
 13.1571989059448224  4.8206715583801270 31.2361259460449254
  0.3522033691406242  4.5874695777893066 34.8661613464355469
  0.6321392059326186 13.7130689620971680 35.0310859680175852
  8.3842697143554688  4.1270699501037598 34.6102485656738281
  8.9941453933715820 13.6809167861938477 34.7431678771972656
  4.3237276077270508  9.6047039031982422 34.9237556457519531
  4.5333781242370605  0.1981305927038192 34.7341690063476562
 13.9317669132724404 17.7302194237709045 35.0435409545898438
  0.1929173469543457  4.4100046157836914 40.5659027099609375
  0.1319488137960434 13.7189207077026367 40.7500686645507812
  8.7967510223388672  4.1926393508911133 40.8333053588867188
  8.9963884353637695 13.6300477981567383 40.5629310607910156
  4.6281180381774902  8.9224262237548828 40.5454406738281250
  4.5871558189392081  0.0054676011204720 40.4029693603515696
 14.0085897445678711  8.8056154251098633 40.9254264831542969
 13.6556886890903115 18.0586618892848527 40.5694961547851562
  9.0289716720581055  4.5156092643737793 46.4455223083496165
  9.0265130996704102 13.5470085144042969 46.4455223083496165
 18.0593719482421875  4.5156092643737793 46.4455223083496165
 18.0569133758544922 13.5470085144042969 46.4455223083496165
  4.5152091979980469  0.0000180629995157 46.4442062377929759
  4.5127501487731934  9.0314178466796857 46.4442062377929759
 13.5456094741821289  0.0000180629995157 46.4442062377929759
 13.5431499481201172  9.0314178466796857 46.4442062377929759
 11.2753963470458984  8.2339210510253906 30.9624805450439489
 12.3067121505737305  7.9171872138977051 30.0675792694091797
 10.9133882522583008  7.2872195243835449 31.9284496307373082
 12.9793138504028320  6.6927733421325675 30.1622943878173864
 11.5780420303344727  6.0669989585876465 32.0280113220214844
 12.6233758926391602  5.7657809257507324 31.1531162261962891
 13.2252674102783203  9.6659688949584961 33.1229553222656321
 15.0009260177612305  8.6320934295654297 34.4822006225585938
 14.2982625961303711 10.9250831604003906 34.9992637634277344
 12.7544441223144531  9.0966777801513672 35.5142822265625000
 11.9584131240844709 10.5143356323242188 33.0082244873046946
 11.5125398635864258 10.7128896713256836 31.5488224029541016
 14.6796350479125977  7.1901097297668448 34.1304626464843821
 15.4465332031250000 11.5459403991699219 34.2382621765136790
 13.2821836471557617  8.7253456115722656 36.8811073303222656
 10.6381368637084943  9.5947389602661133 30.9403972625732422
 18.0200748443603516  3.4463186264038081 35.4072456359863281
  0.5647201538085919 12.6185474395751953 35.7426071166992259
  9.6562013626098615  3.9730141162872314 34.8806953430175852
  8.5334081649780273 12.5806465148925781 35.2799682617187500
  7.6806545257568359  5.2042822837829590 34.8618545532226562
  8.4409618377685547 14.8559627532958967 34.8819885253906250
 17.9816551208496094  5.7624654769897461 35.2599754333496094
 17.8313941955566406 14.7022924423217773 35.1246337890625000
  4.3196682929992676  8.3321332931518555 35.2609214782714844
  3.4395474651828408 17.5939721465110779 35.0219306945800781
 12.6315368870273232 17.8453315496444738 35.2023696899414134
  5.7283629635348907 17.9439079836010933 35.1649475097656250
  5.3761792182922363 10.3856678009033203 34.9143943786621094
 14.8192625045776349  0.5923140645027161 35.3139839172363352
  0.9849907755851746  3.4600098133087158 40.9931755065917969
  1.0948508977890015 12.8924837112426758 41.0677528381347727
 10.0809907913208008  3.9453065395355225 40.8888778686523438
  9.6125774383544922 12.6685161590576172 41.2111282348632812
  3.7848622798919678  8.1018047332763672 41.1149139404296875
  3.7684036949649449 17.2566004395484924 41.0476036071777415
 12.8795509338378906  8.2540292739868164 41.3195953369140696
 12.7305464008823019 17.3277841806411743 41.1501998901367188
  8.2320079803466797  5.3145132064819336 41.2006492614746094
  8.2638339996337891 14.5797100067138672 41.0987586975097727
 17.4935584664344788  5.1735796928405762 41.3335876464843821
 17.0106018781661987 13.7573585510253906 41.3276329040527344
  5.4428977966308594  0.8331561088562012 40.9399528503417969
  5.3968811035156250  9.8012123107910156 41.1597404479980540
 14.4422674179077148  0.8557513952255249 41.1658744812011719
 14.2539558410644513 10.0853557586669922 40.9626998901367188
  0.8273094892501831  3.6869695186614990 47.0359649658203125
  0.8248501420021057 12.7183685302734375 47.0359649658203125
  9.8577098846435547  3.6869695186614990 47.0359649658203125
  9.8552503585815412 12.7183685302734375 47.0359649658203125
  3.6843190193176270  8.2023353576660156 47.0346527099609375
  3.6818594932556152 17.2337341308593750 47.0346527099609375
 12.7147188186645508  8.2023353576660156 47.0346527099609375
 12.7122592926025391 17.2337341308593750 47.0346527099609375
  8.2006769180297852  5.3445744514465332 47.0360260009765696
  8.1982173919677734 14.3759746551513672 47.0360260009765696
 17.2310771942138672  5.3445744514465332 47.0360260009765696
 17.2286186218261719 14.3759746551513672 47.0360260009765696
  5.3436489105224600  0.8290914893150328 47.0346527099609375
  5.3411893844604483  9.8604917526245117 47.0346527099609375
 14.3740482330322266  0.8290914893150328 47.0346527099609375
 14.3715896606445312  9.8604917526245117 47.0346527099609375
 13.8139600753784180  9.5731687545776367 34.5230293273925852
  9.1683750152587891  0.2977445721626282 34.4480895996093750
  8.6246957778930664  9.0068893432617188 34.6808586120605540
  0.0791206508874893  0.0747871845960617 34.3224029541015696
  0.7130787372589111  9.1320104598999023 34.5854110717773438
  4.2212748527526855  4.3838777542114258 34.4871978759765625
  4.6055846214294434 13.7976179122924787 34.5678901672363281
 13.2871904373168945  3.6437492370605469 34.6912040710449219
 12.6999111175537092 14.3141794204711914 34.5962219238281250
 -0.0003512757830322 17.7610475718975067 40.8710136413574219
 18.0225006602704525  9.0450353622436523 40.9381790161132812
  9.0778474807739258  0.2640279233455658 40.8642044067382812
  9.2612771987915039  8.8226499557495117 40.9462203979492188
  4.7165489196777335  4.4363179206848145 40.8785362243652415
  4.6671013832092285 13.6055040359497070 40.9014663696289134
 13.6176805496215820  4.7591252326965332 40.9028778076171946
 13.4367275238037109 13.5700492858886701 40.8940887451171875
  2.4377830028533936  1.9839781522750852 37.9706268310546875
  2.7236323356628418 10.9090795516967756 38.0643157958984375
 11.7030515670776367  1.8928785324096680 38.1606750488281250
 11.1349134445190430 11.3861827850341797 38.1777687072753906
  6.5135240554809570  6.9334092140197754 37.8728904724121165
  6.7248497009277344 15.9307813644409180 37.9136123657226634
 16.1024837493896484  6.5883579254150382 38.1754875183105469
 15.7480926513671875 15.7865657806396484 37.8677101135253906
  2.2566492557525635  6.6478238105773926 38.0639572143554759
  2.2264783382415771 15.6584539413452131 37.9755325317382812
 10.6345071792602539  6.0574407577514640 37.5979385375976562
 11.1528978347778320 15.7604293823242188 38.2466850280761790
  6.9502081871032715  2.4170672893524165 37.7764701843261790
  6.9494233131408691 11.3822679519653320 38.1841316223144602
 15.9973115921020508  2.3859083652496338 38.2467384338378906
 16.2602691650390625 11.5751857757568359 38.2327537536621165
  0.0000000000000000  0.0000000000000000 47.1735610961914062
 -0.0024593239650130  9.0313997268676740 47.1735610961914062
  9.0304002761840803  0.0000000000000000 47.1735610961914062
  9.0279407501220685  9.0313997268676740 47.1735610961914062
  4.5139794349670410  4.5156998634338379 47.1742515563964844
  4.5115203857421875 13.5470991134643537 47.1742515563964844
 13.5443792343139648  4.5156998634338379 47.1742515563964844
 13.5419197082519531 13.5470991134643537 47.1742515563964844
  2.4519233703613277  2.0629522800445557 44.0401268005371165
  2.4494640827178955 11.0943517684936523 44.0401268005371165
 11.4823226928710920  2.0629522800445557 44.0401268005371165
 11.4798641204833984 11.0943517684936523 44.0401268005371165
  6.5760178565979004  6.9684472084045410 44.0401268005371165
  6.5735583305358887 15.9998464584350586 44.0401268005371165
 15.6064186096191406  6.9684472084045410 44.0401268005371165
 15.6039590835571289 15.9998464584350586 44.0401268005371165
  2.0610768795013428  6.5788145065307617 44.0400009155273509
  2.0586175918579102 15.6102142333984375 44.0400009155273509
 11.0914773941040039  6.5788145065307617 44.0400009155273509
 11.0890178680419922 15.6102142333984375 44.0400009155273509
  6.9668641090393066  2.4525938034057613 44.0400657653808665
  6.9644045829772949 11.4839935302734375 44.0400657653808665
 15.9972639083862305  2.4525938034057613 44.0400657653808665
 15.9948053359985352 11.4839935302734375 44.0400657653808665
  2.4316265583038330  2.0832188129425049 50.0684852600097656
  2.4291670322418213 11.1146183013915998 50.0684852600097656
 11.4620265960693359  2.0832188129425049 50.0684852600097656
 11.4595670700073224 11.1146183013915998 50.0684852600097656
  6.5963144302368164  6.9481806755065918 50.0684852600097656
  6.5938549041748047 15.9795799255371076 50.0684852600097656
 15.6267137527465803  6.9481806755065918 50.0684852600097656
 15.6242542266845703 15.9795799255371076 50.0684852600097656
  2.0811281204223633  6.5990090370178223 50.0690460205078125
  2.0786688327789307 15.6304082870483398 50.0690460205078125
 11.1115283966064453  6.5990090370178223 50.0690460205078125
 11.1090688705444336 15.6304082870483398 50.0690460205078125
  6.9468131065368652  2.4323906898498531 50.0690460205078125
  6.9443535804748535 11.4637899398803711 50.0690460205078125
 15.9772129058837891  2.4323906898498531 50.0690460205078125
 15.9747543334960938 11.4637899398803711 50.0690460205078125
 18.0367060275748372 18.0215256102383137 37.8314285278320312
  0.1440111100673676  9.0477790832519531 37.8131866455078196
  9.0833044052124023  0.1467415988445282 37.7009773254394531
  8.9897594451904297  8.8950738906860352 37.8028793334960938
  4.4436945915222168  4.4331016540527344 37.6440315246582031
  4.5106182098388672 13.4496946334838849 37.7337684631347656
 13.4091930389404279  4.4262804985046387 37.6682624816894531
 13.3174562454223633 13.6528959274291992 37.6812629699707031
  0.0000090280000222  0.0000090310004452 44.0429992675781250
 -0.0024502959568053  9.0314083099365234 44.0429992675781250
  9.0304088592529297  0.0000090310004452 44.0429992675781250
  9.0279493331909180  9.0314083099365234 44.0429992675781250
  4.5139703750610352  4.5156903266906738 44.0427513122558594
  4.5115113258361816 13.5470905303955078 44.0427513122558594
 13.5443706512451172  4.5156903266906738 44.0427513122558594
 13.5419111251831037 13.5470905303955078 44.0427513122558594
  0.0000000000000000  0.0000000000000000 50.4472808837890696
 -0.0024593239650130  9.0313997268676740 50.4472808837890696
  9.0304002761840803  0.0000000000000000 50.4472808837890696
  9.0279407501220685  9.0313997268676740 50.4472808837890696
  4.5139703750610352  4.5156998634338379 50.4472808837890696
  4.5115113258361816 13.5470991134643537 50.4472808837890696
 13.5443706512451172  4.5156998634338379 50.4472808837890696
 13.5419111251831055 13.5470991134643537 50.4472808837890696
