 H  C  N  I Pb 
 1.0000000000000000
    18.0608005523681641    0.0000000000000000    0.0000000000000000
    -0.0049186488613486   18.0627994537353516    0.0000000000000000
     0.0000000000000000    0.0000000000000000   62.4874992370605469
 H   C   N   I   Pb 
 143  39  47  72  24
Cartesian
  8.2789678573608398  5.8679089546203613 35.9920158386230469
  8.1247091293334961 15.2499685287475586 35.9028778076171875
 16.6579303741455078  4.4328522682189941 36.3036346435546875
 17.0858840942382812 14.5668315887451172 36.2846794128417969
  5.4398565292358398  1.1271374225616455 36.0050849914550852
  5.7427182197570801 10.2613573074340820 36.0882911682128977
 14.3662939071655273  1.3838202953338623 36.1934661865234375
  1.9425601959228540  4.3005123138427734 34.9038734436035156
  1.7174644470214813 12.2667770385742170 35.3716888427734375
 10.2574958801269531  3.0909273624420166 34.7569503784179688
  8.9642333984375000 11.7631406784057617 35.3592910766601562
  6.5296540260314941  0.1906780451536178 35.0046691894531250
  4.9715452194213867 11.2621002197265625 34.8780632019042969
 15.7054157257080078  0.5422481894493103 35.4163818359375000
  1.0944042205810562  4.1538586616516113 36.4224243164062500
  0.4601478576660148 12.5059318542480469 36.5712280273437500
 10.3339023590087891  4.5132584571838379 35.7909584045410227
  8.4646749496459961 12.8403921127319318 36.6139450073242188
  4.9842572212219229  7.8972554206848145 36.2144622802734375
  3.0201489925384521  0.6157684922218322 35.7874908447265696
 12.1696081161499023  0.3216705918312073 36.0527954101562500
  6.8534331321716309  5.2625131607055664 35.1174163818359375
  8.7618312835693359 15.6805133819580060 34.3446006774902344
 15.8921442031860352  4.4498801231384277 34.7445526123046875
 17.6241741180419922 15.6701631546020508 35.0560340881347656
  3.6591970920562740  7.4340090751647949 35.1520309448242188
  2.5507239559665318 17.4779620170593262 34.6044464111328196
 12.1024641254916769 16.8206684589385986 35.1903457641601562
  7.9983687400817871  3.4525339603424068 34.1923828125000000
  9.3416595458984375 13.4370012283325178 33.8120231628417969
 17.9970531463623047  4.4826869964599609 33.6710166931152344
  1.2015056610107420 14.2734813690185547 34.2689857482910227
  3.5411887168884277  9.5522890090942383 34.1578178405761719
  4.7922848919406533 17.0589436292648315 33.9840316772460938
 14.2820944050326943 16.8410536050796509 34.6545753479003906
  8.3611783981323242  5.6098785400390625 42.1892662048339844
  7.8024568557739249 14.6279869079589844 42.0647010803222727
 17.2975302338600159  5.0393595695495597 42.4148445129394531
 16.7405121326446569 14.0462541580200195 42.1327819824218750
  5.5043263435363770  1.0083692073822021 42.1137199401855469
  5.3236255645751944  9.7426662445068359 42.3591499328613352
 14.2695980072021467  0.9460189938545227 42.2384414672851562
 15.3108739852905273  9.0303411483764648 41.7192230224609375
  1.5966372489929199  3.1729817390441895 40.3218040466308594
  1.7269988059997556 12.4828176498413086 40.8224220275878906
 10.3987712860107404  3.0193011760711670 40.5785064697265625
 10.3718557357788068 12.2512683868408203 40.9367103576660156
  3.1519436836242676  7.5043668746948233 40.3945617675781250
  3.1690882900729775 16.6721125841140783 40.5987663269042969
 11.7163591384887695  8.6322202682495117 41.1523818969726562
 12.1380590656772256 16.5510090589523315 40.5243377685546875
  1.1688730716705322  3.3146328926086426 42.0040168762207102
  0.6631572246551513 12.3865413665771484 42.1934585571289062
 10.2537317276000977  3.8212141990661621 42.1073837280273438
  9.6452951431274414 12.7995939254760742 42.4073562622070312
  3.5655941963195801  7.8271079063415527 42.0595397949218821
  3.6334077576175332 17.2570446729660034 42.1641311645507812
 13.0230989456176758  7.9618358612060547 42.1176528930664062
 12.5087627628818154 17.0958947539329529 42.1325759887695312
  7.4839954376220703  5.7834520339965820 40.6955261230468750
  7.5555129051208496 15.0493106842041016 40.3834800720214844
 16.7043275833129883  5.7886643409729004 40.9898223876953125
 16.7205722332000732 15.0719013214111328 40.7113838195800852
  6.0295896530151367  1.4117015600204468 40.5012741088867259
  5.8363785743713379 10.4828872680664062 40.8558998107910227
 14.9058513641357422  1.3920917510986328 40.6768379211425781
 15.4043302536010742 10.1410312652587891 40.3720321655273438
  0.0384648665785789  4.7334284782409668 39.5794830322265625
  0.5657621026039124 14.1601934432983398 39.7973670959472727
  8.6699705123901367  4.1825342178344727 39.5669212341308665
  9.1584835052490234 13.5972089767456055 39.5688209533691477
  4.5820621708407998 17.9949501454830170 39.4417457580566406
  4.5266232490539551  9.1484994888305664 39.5355529785156321
 13.5933260181918740 17.9564415067434311 39.4917259216308665
 13.0924129486083984 10.0013141632080078 39.9236106872558594
  8.1032123565673828  5.4420318603515616 48.0459518432617259
  8.1007528305053711 14.4734306335449219 48.0459518432617259
 17.1336116790771484  5.4420318603515616 48.0459518432617259
 17.1311531066894531 14.4734306335449219 48.0459518432617259
  5.4410333633422852  0.9265221953392029 48.0449485778808594
  5.4385743141174316  9.9579219818115234 48.0449485778808594
 14.4714326858520490  0.9265221953392029 48.0449485778808594
 14.4689741134643555  9.9579219818115234 48.0449485778808594
  1.4218254089355467  3.0919990539550781 46.4558296203613281
  1.4193661212921143 12.1233978271484375 46.4558296203613281
 10.4522256851196289  3.0919990539550781 46.4558296203613281
 10.4497661590576172 12.1233978271484375 46.4558296203613281
  3.0899283885955806  7.6075901985168457 46.4545211791992188
  3.0874691009521484 16.6389904022216797 46.4545211791992188
 12.1203289031982422  7.6075901985168457 46.4545211791992188
 12.1178693771362305 16.6389904022216797 46.4545211791992188
  0.9247469902038573  3.5893490314483643 48.0459518432617259
  0.9222877025604248 12.6207475662231445 48.0459518432617259
  9.9551477432250977  3.5893490314483643 48.0459518432617259
  9.9526882171630859 12.6207475662231445 48.0459518432617259
  3.5868983268737793  8.1048498153686523 48.0448913574218821
  3.5844390392303462 17.1362495422363281 48.0448913574218821
 12.6172990798950195  8.1048498153686523 48.0448913574218821
 12.6148395538330078 17.1362495422363281 48.0448913574218821
  7.6061611175537109  5.9393639564514160 46.4558296203613281
  7.6037015914916992 14.9707632064819336 46.4558296203613281
 16.6365604400634766  5.9393639564514160 46.4558296203613281
 16.6341018676757812 14.9707632064819336 46.4558296203613281
  5.9380125999450684  1.4238001108169553 46.4545211791992188
  5.9355530738830566 10.4551992416381836 46.4545211791992188
 14.9684123992919904  1.4238001108169553 46.4545211791992188
 14.9659538269042951 10.4551992416381836 46.4545211791992188
 -0.0011664569610730  4.5157265663146973 45.3548011779785156
 -0.0036257810425013 13.5471258163452148 45.3548011779785156
  9.0292339324951172  4.5157265663146973 45.3548011779785156
  9.0267744064331037 13.5471258163452148 45.3548011779785156
  4.5152091979980469  0.0000000000000000 45.3536758422851562
  4.5127501487731934  9.0313997268676740 45.3536758422851562
 13.5456094741821289  0.0000000000000000 45.3536758422851562
 13.5431499481201172  9.0313997268676740 45.3536758422851562
 12.9550943374633789  7.9186859130859366 33.8707237243652344
 13.2965908050537092  8.9716253280639648 32.5113449096679688
 11.8039131164550781  9.9513883590698242 35.0821266174316406
 12.6876478195190430 11.4853811264038068 34.9584465026855469
 15.2296924591064453  9.1097803115844727 35.7700309753417969
 14.0790891647338849 10.2974805831909180 36.3843688964843750
 15.6234397888183594 10.0793190002441406 33.3284034729003906
 14.3128623962402344 11.2809171676635742 32.9674301147460938
 15.6649961471557617  8.4265661239624023 32.4438018798828125
 15.5964012145996094  7.7413349151611328 34.0510635375976562
 15.7797813415527344  5.9874095916748038 32.4671440124511719
 14.1812191009521484  5.8409261703491211 33.1803703308105469
 11.5082941055297852  9.9068908691406250 32.5657730102539062
 12.4694995880126953 11.4247074127197248 32.4376296997070312
 10.9271430969238281 11.4275074005126953 33.2825775146484446
 13.6010437011718732  8.1101436614990234 37.4186630249023438
 13.4342870712280256  7.3043146133422852 35.8421249389648438
 12.2616672515869123  8.5275716781616211 36.3716697692871094
 14.9065837860107404 12.3897285461425781 35.2049865722656250
 16.1336021423339844 12.3940992355346680 33.9550399780273438
 16.3208656311035156 11.2388401031494141 35.3210525512695312
 14.7880153656005859  7.0355091094970703 30.4278106689453125
 14.1820144653320295  5.4034252166748038 30.7488346099853551
 11.9741210937500000  5.7849435806274405 32.6717529296875000
 13.2278280258178711  8.3434247970581055 29.4341297149658203
  9.7140331268310529  6.8117666244506836 32.5886268615722727
 10.9700317382812500  9.3711042404174805 29.3507194519042969
  9.1850576400756836  8.5976705551147461 30.9190235137939453
 17.9528236389160156  4.4106874465942383 34.7497329711914062
  0.6023635864257803 13.9602203369140625 35.1267013549804759
  8.5322980880737305  4.1483087539672852 34.8453063964843821
  8.9380807876586914 13.7054595947265625 34.8088111877441406
  4.2842392921447754  9.3485355377197266 34.9434890747070312
  4.5626563290134072 17.8229123204946553 34.7379455566406250
 13.8959936359897256 17.6921484470367432 35.2320671081542969
  0.1171854287385941  4.4851498603820801 40.6283111572265625
  0.2018899768590927 13.7840805053710938 40.7430305480957031
  8.9420166015625000  4.4031777381896973 40.5980262756347727
  8.9639987945556641 13.6584548950195312 40.6309013366699290
  4.4980812072753906  9.0018577575683594 40.6035842895507812
  4.6090302467346191  0.0153504107147455 40.5212631225586009
 13.5509262084960920  9.3928012847900373 40.6944580078125000
 13.5267385700717551 18.0068795457482338 40.5713615417480469
  9.0289716720581055  4.5156092643737793 46.4455223083496165
  9.0265130996704102 13.5470085144042969 46.4455223083496165
 18.0593719482421875  4.5156092643737793 46.4455223083496165
 18.0569133758544922 13.5470085144042969 46.4455223083496165
  4.5152091979980469  0.0000180629995157 46.4442062377929759
  4.5127501487731934  9.0314178466796857 46.4442062377929759
 13.5456094741821289  0.0000180629995157 46.4442062377929759
 13.5431499481201172  9.0314178466796857 46.4442062377929759
 12.7627515792846662  7.0043573379516602 31.0648841857910192
 11.7311820983886719  6.5585784912109375 31.9292278289794957
 12.4457025527954102  7.9983329772949219 30.1381874084472656
 10.4722518920898438  7.1378450393676749 31.8819828033447301
 11.1685504913330078  8.5725612640380859 30.0759162902832031
 10.1938781738281250  8.1400547027587891 30.9453163146972692
 13.7084522247314453  8.5728464126586914 33.4267158508300852
 12.4784574508666974 10.5319976806640625 34.4342193603515625
 14.1736192703247070  9.3823318481445312 35.7848625183105469
 14.8548831939697266 10.7347564697265625 33.7551651000976634
 15.0155649185180646  7.8489713668823242 33.1225395202636719
 14.7929096221923828  6.4682407379150391 32.5161399841308594
 11.8276376724243164 10.8164892196655273 33.0910949707031321
 13.3201160430908203  8.2694644927978516 36.3670120239257884
 15.5859603881835920 11.7276926040649414 34.6501159667968750
 14.1646862030029297  6.4439926147460929 31.1301975250244141
  1.0250129699707025  4.2481913566589355 35.3994369506836009
  0.9408206939697283 12.8423500061035156 35.7287139892578125
  9.7900104522705078  3.9087891578674316 35.1428108215332102
  8.8551893234252930 12.7268657684326172 35.6813545227050852
  7.8639826774597168  5.2128100395202628 35.2948760986328125
  8.5946798324584961 14.9443998336791992 35.0160713195800781
 16.7649536132812500  4.4905090332031250 35.2897262573242188
 17.6576519012451172 14.7310380935668945 35.4751968383789062
  4.3015151023864746  8.1361169815063477 35.4714279174804688
  3.3033656338229775 17.9885803610086441 35.0777397155761719
 12.6005062321200967 17.6698206067085266 35.4520568847656250
  5.5708689689636230  0.4269834756851196 35.2653770446777344
  5.0787196159362793 10.3309478759765625 35.3114280700683594
 14.6983613967895490  0.5832092165946960 35.6553878784179688
  1.0149809122085571  3.6056830883026123 41.0355567932128977
  0.9039564132690430 12.8163709640502930 41.2987289428710938
  9.9287128448486328  3.7116396427154541 41.1408576965332102
  9.6980495452880859 12.8660020828247070 41.3730239868164062
  3.7079341411590576  8.0595216751098633 41.0555839538574219
  3.7452434757724400 17.2831468582153320 41.1397857666015625
 12.7324180603027344  8.5799493789672852 41.3424491882324290
 12.6686052540317178 17.1628092527389526 41.1118125915527415
  8.2313098907470703  5.3173928260803223 41.2024421691894602
  8.0639200210571289 14.4898176193237305 41.0646972656250071
 17.3392160534858739  5.1337566375732413 41.4153251647949219
 17.1843689084053040 14.3381175994873047 41.2511405944824290
  5.4197773933410645  0.8545657396316527 41.0902557373046946
  5.2545838356018066  9.7638425827026367 41.3298606872558594
 14.2686605453491193  0.8056976199150085 41.2120094299316406
 14.8280830383300781  9.5161113739013654 40.9438476562500000
  0.8273094892501831  3.6869695186614990 47.0359649658203125
  0.8248501420021057 12.7183685302734375 47.0359649658203125
  9.8577098846435547  3.6869695186614990 47.0359649658203125
  9.8552503585815412 12.7183685302734375 47.0359649658203125
  3.6843190193176270  8.2023353576660156 47.0346527099609375
  3.6818594932556152 17.2337341308593750 47.0346527099609375
 12.7147188186645508  8.2023353576660156 47.0346527099609375
 12.7122592926025391 17.2337341308593750 47.0346527099609375
  8.2006769180297852  5.3445744514465332 47.0360260009765696
  8.1982173919677734 14.3759746551513672 47.0360260009765696
 17.2310771942138672  5.3445744514465332 47.0360260009765696
 17.2286186218261719 14.3759746551513672 47.0360260009765696
  5.3436489105224600  0.8290914893150328 47.0346527099609375
  5.3411893844604483  9.8604917526245117 47.0346527099609375
 14.3740482330322266  0.8290914893150328 47.0346527099609375
 14.3715896606445312  9.8604917526245117 47.0346527099609375
 13.8235187530517578  9.7783203125000000 34.3614845275878906
  9.0627641677856445  0.3080296814441681 34.5445632934570312
  8.7119550704956055  9.2957544326782209 34.7203330993652415
 17.9587180912494659  0.0823827087879181 34.5144577026367188
  0.6263155341148376  9.1226377487182617 34.5900001525878906
  4.4282655715942383  4.4661831855773926 34.5540733337402344
  4.5005874633789062 13.7914762496948242 34.5119857788085938
 13.4224863052368146  3.8447248935699463 34.8073463439941406
 12.7554759979248029 14.3016395568847638 34.3291625976562500
  0.1151177519932389 18.0187179893255234 40.9225997924804759
  0.2247164696455002  8.8594026565551758 40.9646568298339844
  9.0545043945312500  0.0479683093726635 40.9085922241211009
  9.1238784790039062  8.9135227203369141 40.9602890014648438
  4.6050834655761719  4.4223265647888184 40.9022140502929759
  4.4951796531677246 13.6180706024169922 40.9082603454589915
 13.4586830139160138  4.6511702537536621 40.9786224365234375
 13.5143013000488281 13.5195531845092773 40.8374557495117188
  2.5379030704498291  2.0229403972625732 37.9386711120605469
  2.6005928516387939 11.0466394424438477 38.1801033020019531
 11.6599884033203125  1.9723589420318604 38.0966224670410227
 11.2250738143920898 11.3411788940429688 38.3932838439941406
  6.4762511253356934  7.1110620498657227 38.1434402465820384
  6.7111849784851074 15.9667634963989258 37.9359474182128906
 15.9783973693847656  6.6911230087280273 38.3145446777343750
 15.6391906738281250 15.9412412643432617 38.1252861022949290
  2.0785329341888428  6.4791297912597656 38.0638580322265625
  2.1845083236694336 15.8168420791625977 38.0454711914062571
 10.6179914474487305  6.1873626708984375 37.8199653625488281
 11.0523052215576172 15.5880260467529297 38.1348457336425852
  6.9313988685607910  2.4069828987121578 37.9604492187500000
  6.8691215515136710 11.4581041336059570 38.3482704162597656
 16.0619926452636719  2.5715808868408199 38.3460464477539134
 16.4796867370605469 11.7578649520874023 38.5675277709960938
  0.0000000000000000  0.0000000000000000 47.1735610961914062
 -0.0024593239650130  9.0313997268676740 47.1735610961914062
  9.0304002761840803  0.0000000000000000 47.1735610961914062
  9.0279407501220685  9.0313997268676740 47.1735610961914062
  4.5139794349670410  4.5156998634338379 47.1742515563964844
  4.5115203857421875 13.5470991134643537 47.1742515563964844
 13.5443792343139648  4.5156998634338379 47.1742515563964844
 13.5419197082519531 13.5470991134643537 47.1742515563964844
  2.4519233703613277  2.0629522800445557 44.0401268005371165
  2.4494640827178955 11.0943517684936523 44.0401268005371165
 11.4823226928710920  2.0629522800445557 44.0401268005371165
 11.4798641204833984 11.0943517684936523 44.0401268005371165
  6.5760178565979004  6.9684472084045410 44.0401268005371165
  6.5735583305358887 15.9998464584350586 44.0401268005371165
 15.6064186096191406  6.9684472084045410 44.0401268005371165
 15.6039590835571289 15.9998464584350586 44.0401268005371165
  2.0610768795013428  6.5788145065307617 44.0400009155273509
  2.0586175918579102 15.6102142333984375 44.0400009155273509
 11.0914773941040039  6.5788145065307617 44.0400009155273509
 11.0890178680419922 15.6102142333984375 44.0400009155273509
  6.9668641090393066  2.4525938034057613 44.0400657653808665
  6.9644045829772949 11.4839935302734375 44.0400657653808665
 15.9972639083862305  2.4525938034057613 44.0400657653808665
 15.9948053359985352 11.4839935302734375 44.0400657653808665
  2.4316265583038330  2.0832188129425049 50.0684852600097656
  2.4291670322418213 11.1146183013915998 50.0684852600097656
 11.4620265960693359  2.0832188129425049 50.0684852600097656
 11.4595670700073224 11.1146183013915998 50.0684852600097656
  6.5963144302368164  6.9481806755065918 50.0684852600097656
  6.5938549041748047 15.9795799255371076 50.0684852600097656
 15.6267137527465803  6.9481806755065918 50.0684852600097656
 15.6242542266845703 15.9795799255371076 50.0684852600097656
  2.0811281204223633  6.5990090370178223 50.0690460205078125
  2.0786688327789307 15.6304082870483398 50.0690460205078125
 11.1115283966064453  6.5990090370178223 50.0690460205078125
 11.1090688705444336 15.6304082870483398 50.0690460205078125
  6.9468131065368652  2.4323906898498531 50.0690460205078125
  6.9443535804748535 11.4637899398803711 50.0690460205078125
 15.9772129058837891  2.4323906898498531 50.0690460205078125
 15.9747543334960938 11.4637899398803711 50.0690460205078125
 17.9585185572504997  0.0871495902538300 37.8449211120605540
  0.0993439853191376  9.1571207046508789 37.7550735473632812
  9.0984382629394531  0.1273542344570160 37.7880058288574290
  9.0002584457397461  9.0900478363037092 37.7789840698242259
  4.4909124374389648  4.5608410835266113 37.7836151123046875
  4.4523220062255859 13.6651325225830060 37.7277641296386719
 13.4852457046508789  4.6876010894775382 37.8717117309570312
 13.3389272689819318 13.6654796600341797 37.6131439208984446
  0.0000090280000222  0.0000090310004452 44.0429992675781250
 -0.0024502959568053  9.0314083099365234 44.0429992675781250
  9.0304088592529297  0.0000090310004452 44.0429992675781250
  9.0279493331909180  9.0314083099365234 44.0429992675781250
  4.5139703750610352  4.5156903266906738 44.0427513122558594
  4.5115113258361816 13.5470905303955078 44.0427513122558594
 13.5443706512451172  4.5156903266906738 44.0427513122558594
 13.5419111251831037 13.5470905303955078 44.0427513122558594
  0.0000000000000000  0.0000000000000000 50.4472808837890696
 -0.0024593239650130  9.0313997268676740 50.4472808837890696
  9.0304002761840803  0.0000000000000000 50.4472808837890696
  9.0279407501220685  9.0313997268676740 50.4472808837890696
  4.5139703750610352  4.5156998634338379 50.4472808837890696
  4.5115113258361816 13.5470991134643537 50.4472808837890696
 13.5443706512451172  4.5156998634338379 50.4472808837890696
 13.5419111251831055 13.5470991134643537 50.4472808837890696
