 H  C  N  I Pb 
 1.0000000000000000
    18.0608005523681641    0.0000000000000000    0.0000000000000000
    -0.0049186488613486   18.0627994537353516    0.0000000000000000
     0.0000000000000000    0.0000000000000000   62.4874992370605469
 H   C   N   I   Pb 
 143  39  47  72  24
Cartesian
  8.1326332092285156  5.3872461318969727 36.3124465942382812
  8.0333204269409180 14.7021389007568359 36.2428054809570312
 17.2484493255615234  5.0538678169250488 36.6699905395507812
 17.4896774291992188 14.5307836532592773 36.5550308227539062
  5.4328188896179199  0.8264434933662415 36.4039306640625000
  5.3967127799987793  9.9288215637207031 36.4112014770507884
 14.2753429412841779  1.0503256320953369 36.3116683959960938
  1.6228790283203163  3.1811182498931885 34.6415710449218750
  1.3656692504882830 12.1436023712158203 34.6905708312988281
 10.6212701797485352  3.2692852020263672 34.6817131042480540
 10.1426734924316406 12.0330505371093750 35.2211189270019531
  6.0250163078308105  1.2588262557983398 34.8563499450683594
  5.8860077857971191 10.5131044387817365 34.8747100830078125
 14.9124822616577148  1.4319535493850706 34.7671737670898438
  1.1759471893310558  3.5128023624420162 36.2742080688476562
  0.9396495819091832 12.6258354187011719 36.2773437500000000
 10.1240520477294904  3.8306236267089844 36.2702598571777415
  9.5584230422973633 12.8308753967285156 36.6501388549804688
  3.5754907131195068  8.0528411865234375 36.3046150207519531
  3.4251813152804971 17.1967890858650208 36.3251113891601562
 12.6452488163486123 17.0752993822097778 36.3079338073730469
  7.3660287857055664  5.6881833076477051 34.7596588134765625
  7.7037291526794434 15.1734237670898438 34.6374969482421875
 16.4803028106689453  5.7112851142883301 35.2599945068359375
 16.9136180877685547 15.3360996246337891 35.1091995239257812
  3.1034677028656006  7.6473970413207999 34.7096290588378906
  2.9618255356326699 16.7479164600372314 34.7376022338867259
 12.4132036427035910 16.3666701316833496 34.7573585510253906
  8.8973293304443359  4.4162344932556152 33.5818138122558594
  9.0925741195678711 13.4379606246948242 33.7780723571777344
 17.9370059967041016  4.5847482681274414 33.7737007141113281
  0.0181026458740242 13.8540420532226562 33.7461738586425852
  4.4733281135559082  9.1369867324829102 33.6469116210937500
  4.5196651676669717 18.0113652683794498 33.6513214111328196
 13.8418935993686318 17.8382815718650818 33.6339340209960938
  8.1360406875610352  5.4940333366394043 42.1632118225097656
  8.1314449310302734 14.3270788192749006 42.2501754760742188
 17.0452929735183716  5.5451650619506836 41.9624404907226634
 17.0695250034332275 14.5278005599975568 42.1439247131347656
  5.4255156517028809  0.8742222785949707 42.1708641052246094
  5.3684663772583008  9.9539518356323242 42.1714820861816406
 14.4911937713623047  1.0414274930953979 42.1242561340332102
 14.6919422149658203  9.8152093887329102 42.1731224060058594
  1.3764019012451172  3.0238718986511230 40.6972618103027344
  1.4447370767593382 12.1389636993408203 40.6434440612792969
 10.4025297164916992  3.0682134628295898 40.5698204040527415
 10.3877925872802734 12.1917171478271484 40.4460678100586009
  3.1001441478729248  7.5778613090515137 40.5846061706543040
  3.0570463398471475 16.6651347875595093 40.4838218688964844
 11.9925193786621094  7.9472169876098633 40.6573944091796946
 12.1310791233554482 16.6598742008209229 40.6815834045410156
  0.7314975857734680  3.7033226490020748 42.1790390014648509
  0.8884587883949280 12.6811323165893537 42.2408561706543040
  9.9354410171508789  3.6208834648132324 42.1671333312988352
  9.9641389846801758 12.5768470764160156 42.0715560913085938
  3.6482477188110352  8.1100063323974609 42.1635856628417969
  3.5697252014651895 17.1698807477951050 42.0927200317382812
 12.6198396682739258  8.1709814071655273 42.2038459777832031
 12.6996168354526144 17.2726651430130005 42.2320327758789062
  7.5900516510009766  6.0423345565795890 40.5790748596191406
  7.4993238449096680 14.9747390747070312 40.7391662597656250
 16.6766910552978551  5.9457163810729980 40.3215751647949219
 16.5777571201324498 14.9378585815429688 40.5162239074707031
  6.0284528732299805  1.4258217811584473 40.6090850830078125
  5.8697571754455566 10.5486249923706055 40.6028251647949219
 14.9526090621948242  1.5348920822143555 40.4976882934570312
 15.0860643386840803 10.4111633300781250 40.6312294006347656
  0.0795516520738602  4.4025907516479492 39.3813018798828125
 17.9993918612599373 13.5053396224975568 39.4462814331054688
  8.9990043640136719  4.5468907356262207 39.4639816284179759
  8.8909082412719727 13.6503019332885742 39.4569625854492188
  4.5759696960449210  0.0511227734386921 39.4367485046386719
  4.4729704856872559  9.0645093917846680 39.4709892272949219
 13.5358352661132795  0.0407553128898144 39.4834289550781250
 13.4043483734130859  9.3400774002075195 39.5644378662109446
  8.1032123565673828  5.4420318603515616 48.0459518432617259
  8.1007528305053711 14.4734306335449219 48.0459518432617259
 17.1336116790771484  5.4420318603515616 48.0459518432617259
 17.1311531066894531 14.4734306335449219 48.0459518432617259
  5.4410333633422852  0.9265221953392029 48.0449485778808594
  5.4385743141174316  9.9579219818115234 48.0449485778808594
 14.4714326858520490  0.9265221953392029 48.0449485778808594
 14.4689741134643555  9.9579219818115234 48.0449485778808594
  1.4218254089355467  3.0919990539550781 46.4558296203613281
  1.4193661212921143 12.1233978271484375 46.4558296203613281
 10.4522256851196289  3.0919990539550781 46.4558296203613281
 10.4497661590576172 12.1233978271484375 46.4558296203613281
  3.0899283885955806  7.6075901985168457 46.4545211791992188
  3.0874691009521484 16.6389904022216797 46.4545211791992188
 12.1203289031982422  7.6075901985168457 46.4545211791992188
 12.1178693771362305 16.6389904022216797 46.4545211791992188
  0.9247469902038573  3.5893490314483643 48.0459518432617259
  0.9222877025604248 12.6207475662231445 48.0459518432617259
  9.9551477432250977  3.5893490314483643 48.0459518432617259
  9.9526882171630859 12.6207475662231445 48.0459518432617259
  3.5868983268737793  8.1048498153686523 48.0448913574218821
  3.5844390392303462 17.1362495422363281 48.0448913574218821
 12.6172990798950195  8.1048498153686523 48.0448913574218821
 12.6148395538330078 17.1362495422363281 48.0448913574218821
  7.6061611175537109  5.9393639564514160 46.4558296203613281
  7.6037015914916992 14.9707632064819336 46.4558296203613281
 16.6365604400634766  5.9393639564514160 46.4558296203613281
 16.6341018676757812 14.9707632064819336 46.4558296203613281
  5.9380125999450684  1.4238001108169553 46.4545211791992188
  5.9355530738830566 10.4551992416381836 46.4545211791992188
 14.9684123992919904  1.4238001108169553 46.4545211791992188
 14.9659538269042951 10.4551992416381836 46.4545211791992188
 -0.0011664569610730  4.5157265663146973 45.3548011779785156
 -0.0036257810425013 13.5471258163452148 45.3548011779785156
  9.0292339324951172  4.5157265663146973 45.3548011779785156
  9.0267744064331037 13.5471258163452148 45.3548011779785156
  4.5152091979980469  0.0000000000000000 45.3536758422851562
  4.5127501487731934  9.0313997268676740 45.3536758422851562
 13.5456094741821289  0.0000000000000000 45.3536758422851562
 13.5431499481201172  9.0313997268676740 45.3536758422851562
 13.0170278549194336  8.3720645904541016 34.3460922241210938
 13.4448146820068359  9.3589744567871094 32.9854965209961009
 11.8777418136596680 10.1147756576538086 35.2941818237304688
 12.5566225051879883 11.7087640762329102 35.3644676208496094
 15.1399402618408203  9.4770269393920898 36.3274040222167969
 13.9903593063354474 10.7092933654785156 36.8698654174804688
 15.8591670989990234 10.1854667663574201 34.2058677673339844
 14.8272571563720703 11.3199157714843750 33.3536491394042969
 15.8765554428100586  8.8672199249267578 33.2424011230468750
 15.5763282775878906  8.2222976684570312 34.8759803771972727
 16.0335235595703125  6.3967680931091309 33.4234657287597656
 14.3917503356933594  6.2883248329162598 34.0017929077148438
 11.3159503936767578 10.2557477951049805 32.9395027160644602
 12.8050613403320312 11.1993818283081055 32.6094970703125000
 11.5069646835327131 12.0480794906616211 33.3362274169921875
 13.1883411407470703  8.7059488296508789 37.7528228759765696
 13.4621906280517578  7.6855340003967285 36.3046531677246094
 12.1495132446289062  8.9072246551513672 36.3403701782226562
 15.1363477706909180 12.3067789077758789 35.9835090637207031
 15.7918787002563459 12.9545574188232422 34.5637092590332031
 16.7340507507324219 11.7097358703613281 35.5212783813476562
 15.2444458007812500  7.2388157844543457 31.2325782775878906
 14.5575695037841797  5.6885533332824707 31.6252593994140661
 12.2128429412841797  5.9253764152526855 33.0764732360839915
 13.7892417907714826  8.6546697616577148 30.1886787414550817
  9.9966602325439453  6.8773760795593262 32.7729377746582031
 11.5450353622436523  9.5995731353759748 29.8819141387939489
  9.6629562377929688  8.7688474655151367 31.1831951141357422
  0.0349826812744154  4.4438772201538086 34.8087196350097656
  0.1125411987304682 13.7570762634277326 34.7881202697753977
  9.0175886154174805  4.4530267715454102 34.6670188903808594
  8.9829282760620117 13.5706481933593750 34.8107910156250000
  4.5145874023437500  9.1058206558227539 34.7366638183593750
  4.4681667545810342 18.0144086480140686 34.7418327331542969
 13.6842817524448037 17.9525786042213440 34.7083091735839844
 18.0537833385169542  4.4883599281311035 40.5102653503418040
 18.0468607172369957 13.5356550216674805 40.5861091613769602
  9.0187988281250000  4.5315003395080566 40.5988922119140625
  8.9899263381958008 13.5420799255371094 40.5807495117187500
  4.5033540725708008  9.0800905227661115 40.5923919677734446
  4.5177549580112100 18.0569086428731680 40.5665702819824219
 13.5001049041748047  9.1526899337768555 40.6174087524414062
 13.5451602935791016  0.0413269437849522 40.6158752441406250
  9.0289716720581055  4.5156092643737793 46.4455223083496165
  9.0265130996704102 13.5470085144042969 46.4455223083496165
 18.0593719482421875  4.5156092643737793 46.4455223083496165
 18.0569133758544922 13.5470085144042969 46.4455223083496165
  4.5152091979980469  0.0000180629995157 46.4442062377929759
  4.5127501487731934  9.0314178466796857 46.4442062377929759
 13.5456094741821289  0.0000180629995157 46.4442062377929759
 13.5431499481201172  9.0314178466796857 46.4442062377929759
 13.1918897628784180  7.2023701667785645 31.6273193359375036
 12.1000366210937500  6.7252249717712402 32.3149833679199219
 12.9802179336547852  8.2569284439086914 30.7234363555908203
 10.7954673767089844  7.2654275894165039 32.1603050231933665
 11.7086505889892578  8.8121452331542969 30.5304546356201207
 10.5857982635498047  8.3012857437133789 31.3055782318115270
 13.7868490219116211  9.0415458679199219 33.9823341369628977
 12.5360622406005859 10.8224821090698242 34.7352981567382812
 14.1115159988403303  9.8167123794555664 36.2418518066406250
 15.0999183654785138 10.9562997817993146 34.2912025451660156
 15.1779642105102539  8.2983894348144531 33.8462219238281250
 15.0393409729003906  6.8204073905944824 33.3329162597656250
 12.0058069229125977 11.0405387878417969 33.3185272216796875
 13.1718053817749023  8.6814479827880859 36.6630897521972656
 15.7445631027221680 12.0229883193969709 35.1295509338378906
 14.5276336669921875  6.7585291862487793 31.8428211212158239
  0.9675121307373087  3.6933195590972900 35.2740402221679688
  0.8486595153808594 12.7372140884399396 35.3102035522461009
  9.9580602645874023  3.7852387428283691 35.2663002014160156
  9.6042633056640625 12.7881822586059570 35.6383209228515696
  8.0992898941040039  5.2452135086059570 35.3218727111816406
  8.1689357757568359 14.5867185592651367 35.2846260070800852
 17.2264575958251953  5.1299748420715332 35.6396331787109446
 17.5220451354980469 14.6232881546020508 35.5636482238769531
  3.6618793010711665  8.1971416473388672 35.2576599121093750
  3.5575007656589150 17.2676735520362854 35.2726974487304688
 12.8447174290195090 17.0565224885940552 35.2696723937988281
  5.3854327201843262  0.7440891861915588 35.3473968505859446
  5.3205657005310059  9.9079608917236328 35.3506584167480540
 14.3453540802001935  0.8528498411178589 35.2697067260742188
  0.7150676250457763  3.7219722270965576 41.1867141723632812
  0.7857325077056885 12.7909488677978516 41.1781044006347656
  9.7886419296264648  3.7285559177398682 41.1681594848632884
  9.8741197586059553 12.7265453338623047 41.0585708618164134
  3.7185246944427490  8.1613044738769531 41.1965026855468750
  3.6990062454715371 17.2862128019332886 41.1298141479492188
 12.6773824691772461  8.3840312957763672 41.2335777282714844
 12.7792247990146279 17.3365242481231689 41.2599296569824219
  8.1747713088989258  5.4337329864501953 41.1924438476562500
  8.1314754486083984 14.3505811691284180 41.2791748046875000
 17.1782599091529846  5.4126348495483398 40.9669303894043040
 17.1970536112785339 14.4133605957031250 41.1113700866699290
  5.4018125534057617  0.8371437788009644 41.2000198364257884
  5.2470345497131348  9.9171838760375977 41.2080726623535156
 14.4149427413940430  0.9428040981292725 41.1611099243164062
 14.5281686782836914  9.8596143722534180 41.2123146057128906
  0.8273094892501831  3.6869695186614990 47.0359649658203125
  0.8248501420021057 12.7183685302734375 47.0359649658203125
  9.8577098846435547  3.6869695186614990 47.0359649658203125
  9.8552503585815412 12.7183685302734375 47.0359649658203125
  3.6843190193176270  8.2023353576660156 47.0346527099609375
  3.6818594932556152 17.2337341308593750 47.0346527099609375
 12.7147188186645508  8.2023353576660156 47.0346527099609375
 12.7122592926025391 17.2337341308593750 47.0346527099609375
  8.2006769180297852  5.3445744514465332 47.0360260009765696
  8.1982173919677734 14.3759746551513672 47.0360260009765696
 17.2310771942138672  5.3445744514465332 47.0360260009765696
 17.2286186218261719 14.3759746551513672 47.0360260009765696
  5.3436489105224600  0.8290914893150328 47.0346527099609375
  5.3411893844604483  9.8604917526245117 47.0346527099609375
 14.3740482330322266  0.8290914893150328 47.0346527099609375
 14.3715896606445312  9.8604917526245117 47.0346527099609375
 13.9559469223022461 10.1672286987304688 34.8264122009277344
  8.9500627517700195  0.0760906338691711 34.5073051452636719
  8.8404264450073242  9.2151870727539062 34.6469192504882812
  0.0335204489529133  0.0421335995197296 34.4836692810058594
  0.2245337069034576  9.2081212997436523 34.7118949890136790
  4.5682687759399414  4.5485606193542480 34.5337715148925781
  4.5540890693664551 13.5096006393432617 34.5465087890625000
 13.3453626632690430  4.2912344932556152 34.7173042297363281
 13.3108301162719709 13.7753658294677734 34.2672958374023438
 18.0262708067893982  0.0530666187405586 40.8327255249023438
  0.0939546152949333  8.9722633361816406 40.9428253173828196
  8.9837955692782998 18.0420356970280409 40.8653564453125000
  8.9626255035400391  8.9939537048339844 40.8959655761718750
  4.5540637969970703  4.4822936058044434 40.8951950073242188
  4.4331998825073242 13.5092954635620099 40.8693275451660156
 13.5794067382812500  4.4876794815063477 40.9129257202148509
 13.5840730667114258 13.5516633987426758 40.8852348327636719
  2.6191525459289551  1.9558143615722656 37.9876174926757812
  2.6045255661010742 10.9407463073730469 38.0067863464355540
 11.6488075256347638  1.9347949028015137 38.0055656433105469
 11.3845567703247070 11.1862592697143555 38.1844100952148438
  6.3927192687988281  7.0583643913269043 37.9995269775390625
  6.4634847640991211 16.0970363616943359 38.0201950073242259
 15.6841335296630859  6.8933243751525879 38.1697578430175781
 15.4814777374267578 16.1571483612060547 38.0066566467285156
  1.9882569313049314  6.4161992073059082 38.0111656188964844
  1.9661359786987305 15.5260162353515625 37.9970741271972656
 10.7722969055175781  6.2611255645751944 37.9037017822265625
 10.9089603424072248 15.5194473266601562 37.9837265014648509
  7.0834465026855469  2.5936715602874756 38.0017585754394531
  7.1316390037536621 11.5718641281127930 38.0202293395996094
 16.0809268951416016  2.5963437557220459 37.9703636169433594
 16.3454151153564453 11.6710500717163086 38.1892585754394531
  0.0000000000000000  0.0000000000000000 47.1735610961914062
 -0.0024593239650130  9.0313997268676740 47.1735610961914062
  9.0304002761840803  0.0000000000000000 47.1735610961914062
  9.0279407501220685  9.0313997268676740 47.1735610961914062
  4.5139794349670410  4.5156998634338379 47.1742515563964844
  4.5115203857421875 13.5470991134643537 47.1742515563964844
 13.5443792343139648  4.5156998634338379 47.1742515563964844
 13.5419197082519531 13.5470991134643537 47.1742515563964844
  2.4519233703613277  2.0629522800445557 44.0401268005371165
  2.4494640827178955 11.0943517684936523 44.0401268005371165
 11.4823226928710920  2.0629522800445557 44.0401268005371165
 11.4798641204833984 11.0943517684936523 44.0401268005371165
  6.5760178565979004  6.9684472084045410 44.0401268005371165
  6.5735583305358887 15.9998464584350586 44.0401268005371165
 15.6064186096191406  6.9684472084045410 44.0401268005371165
 15.6039590835571289 15.9998464584350586 44.0401268005371165
  2.0610768795013428  6.5788145065307617 44.0400009155273509
  2.0586175918579102 15.6102142333984375 44.0400009155273509
 11.0914773941040039  6.5788145065307617 44.0400009155273509
 11.0890178680419922 15.6102142333984375 44.0400009155273509
  6.9668641090393066  2.4525938034057613 44.0400657653808665
  6.9644045829772949 11.4839935302734375 44.0400657653808665
 15.9972639083862305  2.4525938034057613 44.0400657653808665
 15.9948053359985352 11.4839935302734375 44.0400657653808665
  2.4316265583038330  2.0832188129425049 50.0684852600097656
  2.4291670322418213 11.1146183013915998 50.0684852600097656
 11.4620265960693359  2.0832188129425049 50.0684852600097656
 11.4595670700073224 11.1146183013915998 50.0684852600097656
  6.5963144302368164  6.9481806755065918 50.0684852600097656
  6.5938549041748047 15.9795799255371076 50.0684852600097656
 15.6267137527465803  6.9481806755065918 50.0684852600097656
 15.6242542266845703 15.9795799255371076 50.0684852600097656
  2.0811281204223633  6.5990090370178223 50.0690460205078125
  2.0786688327789307 15.6304082870483398 50.0690460205078125
 11.1115283966064453  6.5990090370178223 50.0690460205078125
 11.1090688705444336 15.6304082870483398 50.0690460205078125
  6.9468131065368652  2.4323906898498531 50.0690460205078125
  6.9443535804748535 11.4637899398803711 50.0690460205078125
 15.9772129058837891  2.4323906898498531 50.0690460205078125
 15.9747543334960938 11.4637899398803711 50.0690460205078125
 18.0148859852924978 18.0269198045134544 37.6688537597656250
 -0.0016671116463840  9.0944175720214844 37.8055343627929688
  9.0403652191162109  0.0043806857429445 37.6536216735839844
  9.0477437973022461  9.0494775772094727 37.7159156799316406
  4.5843286514282218  4.4912953376770020 37.6742439270019531
  4.4545888900756836 13.5462913513183594 37.5949745178222727
 13.5083990097045881  4.4856004714965820 37.7571411132812571
 13.4087047576904297 13.7320756912231428 37.8051185607910156
  0.0000090280000222  0.0000090310004452 44.0429992675781250
 -0.0024502959568053  9.0314083099365234 44.0429992675781250
  9.0304088592529297  0.0000090310004452 44.0429992675781250
  9.0279493331909180  9.0314083099365234 44.0429992675781250
  4.5139703750610352  4.5156903266906738 44.0427513122558594
  4.5115113258361816 13.5470905303955078 44.0427513122558594
 13.5443706512451172  4.5156903266906738 44.0427513122558594
 13.5419111251831037 13.5470905303955078 44.0427513122558594
  0.0000000000000000  0.0000000000000000 50.4472808837890696
 -0.0024593239650130  9.0313997268676740 50.4472808837890696
  9.0304002761840803  0.0000000000000000 50.4472808837890696
  9.0279407501220685  9.0313997268676740 50.4472808837890696
  4.5139703750610352  4.5156998634338379 50.4472808837890696
  4.5115113258361816 13.5470991134643537 50.4472808837890696
 13.5443706512451172  4.5156998634338379 50.4472808837890696
 13.5419111251831055 13.5470991134643537 50.4472808837890696
