 H  C  N  I Pb 
 1.0000000000000000
    18.0608005523681641    0.0000000000000000    0.0000000000000000
    -0.0049186488613486   18.0627994537353516    0.0000000000000000
     0.0000000000000000    0.0000000000000000   62.4874992370605469
 H   C   N   I   Pb 
 143  39  47  72  24
Cartesian
  8.0557308197021484  5.3856530189514160 36.3854179382324290
  8.0085029602050781 14.8319320678710938 36.2142028808593750
 17.3046836853027344  4.9396147727966309 36.6767883300781250
 17.5172328948974609 14.5493831634521484 36.5902214050292969
  5.4088768959045410  0.8232953548431396 36.4548034667968821
  5.4010834693908691  9.9154157638549805 36.4243507385253906
 14.1886539459228516  1.1459921598434448 36.3235015869140696
  1.6799163818359359  3.2750837802886963 34.6419906616210938
  1.3911151885986341 12.1612730026245117 34.6750984191894602
 10.6374788284301740  3.2724270820617676 34.7109527587890625
 10.0138769149780273 11.9676704406738281 35.3075981140136719
  6.1246123313903809  1.1806571483612061 34.9098739624023438
  5.8178324699401855 10.6161880493164045 34.8866996765136719
 14.9433784484863281  1.4772149324417112 34.7957534790039062
  1.2647552490234366  3.5361433029174805 36.2450790405273438
  0.9191398620605487 12.5737352371215803 36.3051567077636790
 10.1787071228027344  3.8923025131225581 36.3240280151367188
  9.4214773178100586 12.8383541107177734 36.7029991149902344
  3.6622834205627441  7.9518504142761230 36.3020057678222656
  3.3237354019656777 17.2783543467521667 36.3340187072753906
 12.6019033649936318 17.1332506537437439 36.3138389587402344
  7.2213158607482910  5.5426125526428223 34.8143501281738281
  7.7599506378173828 15.2620868682861328 34.5346221923828125
 16.4435596466064453  5.5763626098632812 35.3334960937500000
 17.0387401580810547 15.4270286560058594 35.1613731384277344
  3.1375932693481445  7.5812096595764160 34.6904716491699219
  2.9014610508456826 16.7813273668289220 34.7244834899902344
 12.4884714344516397 16.3049887418746948 34.7746658325195312
  8.8014259338378906  4.2347831726074219 33.6299133300781250
  9.1061677932739258 13.3819332122802734 33.7842483520507812
 17.9186630249023438  4.5803990364074707 33.7897567749023438
  0.1334743499755870 13.9943647384643555 33.7621231079101562
  4.4543094635009766  9.2277002334594727 33.6379928588867188
  4.6055144527927041 17.9517089873552322 33.6662940979003977
 13.9595712879672629 17.7727801203727722 33.6657943725585938
  8.1438751220703125  5.5111851692199707 42.1537971496582031
  8.0333919525146484 14.3813724517822248 42.2585983276367188
 17.0280153751373291  5.4539127349853516 42.0535545349121094
 17.0881026983261108 14.5529603958129883 42.1859321594238281
  5.3802366256713858  0.8278165459632874 42.1999626159668040
  5.3349623680114746  9.9946784973144531 42.1733932495117188
 14.5724973678588867  1.0277481079101562 42.0610961914062500
 14.8599119186401367  9.7515983581542969 42.2021064758300781
  1.4735330343246458  3.0592622756958008 40.6501655578613281
  1.4987827539443968 12.2024021148681623 40.6956634521484446
 10.3714265823364258  3.0189065933227539 40.5849037170410227
 10.3691320419311506 12.1417016983032227 40.5929756164550852
  3.2345914840698242  7.4925909042358398 40.5475006103515625
  3.0557507732883096 16.6415240764617920 40.3752098083496165
 11.9427061080932617  8.0387430191040039 40.7100486755371094
 12.0848364094272256 16.6768951416015625 40.7260093688964844
  0.8791220188140868  3.6292815208435059 42.2028732299804759
  0.8449149131774902 12.7067728042602539 42.2810058593750000
  9.9236288070678711  3.6446089744567871 42.2024154663086009
  9.8943433761596680 12.6063804626464844 42.1677780151367188
  3.7081103324890137  8.0591230392456055 42.1471061706542969
  3.5108801582828164 17.0849715471267736 42.0255126953125071
 12.6791067123413086  8.1345691680908203 42.2225341796875000
 12.7060999134555459 17.2815641760826111 42.2626991271972727
  7.5685396194458008  5.9745163917541504 40.5562667846679688
  7.4774923324584952 14.9620599746704102 40.6926193237304688
 16.6159268617630005  5.8593978881835938 40.4534835815429688
 16.6429195404052734 15.0127906799316406 40.5594940185546875
  6.0009908676147461  1.4079054594039915 40.6583824157714844
  5.8412132263183594 10.5847749710083008 40.6043510437011719
 14.9849252700805664  1.4618490934371948 40.4042816162109375
 15.1773242950439435 10.3820981979370117 40.6350860595703125
  0.0572129637002945  4.4313268661499023 39.4246215820312500
  0.0993525832891464 13.6001844406127930 39.5034675598144531
  8.9120168685913086  4.4088115692138672 39.4618377685546875
  8.9276428222656250 13.5589761734008771 39.5090637207031250
  4.5632891654968262  0.0172238349914551 39.4050369262695312
  4.5793056488037109  9.0773000717163086 39.4432601928710938
 13.4545387485995889 18.0130970627069473 39.4616584777832031
 13.3484153747558594  9.3969364166259766 39.5755119323730469
  8.1032123565673828  5.4420318603515616 48.0459518432617259
  8.1007528305053711 14.4734306335449219 48.0459518432617259
 17.1336116790771484  5.4420318603515616 48.0459518432617259
 17.1311531066894531 14.4734306335449219 48.0459518432617259
  5.4410333633422852  0.9265221953392029 48.0449485778808594
  5.4385743141174316  9.9579219818115234 48.0449485778808594
 14.4714326858520490  0.9265221953392029 48.0449485778808594
 14.4689741134643555  9.9579219818115234 48.0449485778808594
  1.4218254089355467  3.0919990539550781 46.4558296203613281
  1.4193661212921143 12.1233978271484375 46.4558296203613281
 10.4522256851196289  3.0919990539550781 46.4558296203613281
 10.4497661590576172 12.1233978271484375 46.4558296203613281
  3.0899283885955806  7.6075901985168457 46.4545211791992188
  3.0874691009521484 16.6389904022216797 46.4545211791992188
 12.1203289031982422  7.6075901985168457 46.4545211791992188
 12.1178693771362305 16.6389904022216797 46.4545211791992188
  0.9247469902038573  3.5893490314483643 48.0459518432617259
  0.9222877025604248 12.6207475662231445 48.0459518432617259
  9.9551477432250977  3.5893490314483643 48.0459518432617259
  9.9526882171630859 12.6207475662231445 48.0459518432617259
  3.5868983268737793  8.1048498153686523 48.0448913574218821
  3.5844390392303462 17.1362495422363281 48.0448913574218821
 12.6172990798950195  8.1048498153686523 48.0448913574218821
 12.6148395538330078 17.1362495422363281 48.0448913574218821
  7.6061611175537109  5.9393639564514160 46.4558296203613281
  7.6037015914916992 14.9707632064819336 46.4558296203613281
 16.6365604400634766  5.9393639564514160 46.4558296203613281
 16.6341018676757812 14.9707632064819336 46.4558296203613281
  5.9380125999450684  1.4238001108169553 46.4545211791992188
  5.9355530738830566 10.4551992416381836 46.4545211791992188
 14.9684123992919904  1.4238001108169553 46.4545211791992188
 14.9659538269042951 10.4551992416381836 46.4545211791992188
 -0.0011664569610730  4.5157265663146973 45.3548011779785156
 -0.0036257810425013 13.5471258163452148 45.3548011779785156
  9.0292339324951172  4.5157265663146973 45.3548011779785156
  9.0267744064331037 13.5471258163452148 45.3548011779785156
  4.5152091979980469  0.0000000000000000 45.3536758422851562
  4.5127501487731934  9.0313997268676740 45.3536758422851562
 13.5456094741821289  0.0000000000000000 45.3536758422851562
 13.5431499481201172  9.0313997268676740 45.3536758422851562
 12.9717292785644531  8.2463684082031250 34.2661361694336009
 13.3863973617553711  9.3565263748168945 32.9182167053222656
 11.8682928085327148 10.0103702545166016 35.1923789978027344
 12.4704570770263672 11.6466531753540039 35.2597999572753906
 15.1546669006347638  9.3698768615722656 36.3217620849609446
 14.0179986953735352 10.6309604644775391 36.8015670776367259
 15.8405504226684570 10.1103515625000000 34.0903091430664134
 14.7883253097534180 11.2301082611083984 33.1944313049316406
 15.8153915405273438  8.7556819915771484 33.0922317504882812
 15.5845766067504865  8.2145643234252930 34.7629356384277344
 16.0017471313476562  6.3807291984558105 33.2673950195312500
 14.3394937515258789  6.1899352073669434 33.8849105834960938
 11.2311029434204102 10.1678180694580078 32.9262504577636719
 12.7001371383666992 11.1115312576293928 32.4798927307128977
 11.4102363586425781 11.9334430694580078 33.2819824218750000
 13.0890522003173828  8.5511598587036133 37.7152709960937500
 13.4226999282836914  7.5920815467834464 36.2204589843750000
 12.0834245681762678  8.8014345169067383 36.2922286987304688
 15.1869840621948224 12.2701930999755842 35.9069328308105469
 15.8262767791748047 12.9107894897460938 34.4384346008300781
 16.7322711944580078 11.5592689514160156 35.3423690795898438
 15.2078428268432599  7.1907944679260254 31.1054649353027379
 14.5034875869750959  5.6301474571228027 31.5331325531005895
 12.1980342864990234  5.8043293952941895 32.8608894348144531
 13.6688299179077131  8.7760953903198242 30.1029453277587891
  9.8952951431274414  6.7091803550720215 32.6604957580566406
 11.3634662628173828  9.6969051361083967 29.8879489898681641
  9.5153036117553693  8.7489519119262695 31.1779479980468750
  0.0555000305175821  4.4212589263916016 34.8430175781250000
  0.1976814270019554 13.8007507324218750 34.8264961242675781
  8.9429397583007812  4.3888459205627441 34.7031021118164062
  8.9441146850585938 13.5857505798339826 34.8290290832519531
  4.4831080436706543  9.1170167922973633 34.7454032897949290
  4.4982260921970010 18.0000336244702339 34.7751846313476562
 13.7270769337192178 17.9361878335475922 34.7436904907226562
  0.0039563626050949  4.4699988365173340 40.5431861877441477
  0.0312211997807026 13.6219806671142578 40.6249427795410156
  8.9803028106689453  4.4846158027648926 40.5714607238769531
  8.9541387557983398 13.5307664871215820 40.6263504028320312
  4.5450696945190430  9.0406818389892578 40.5552330017089844
  4.5202078083530068 18.0528853395953774 40.5108909606933594
 13.5212526321411133  9.1839094161987305 40.6616744995117188
 13.5468635559082031  0.0275099612772465 40.5618515014648438
  9.0289716720581055  4.5156092643737793 46.4455223083496165
  9.0265130996704102 13.5470085144042969 46.4455223083496165
 18.0593719482421875  4.5156092643737793 46.4455223083496165
 18.0569133758544922 13.5470085144042969 46.4455223083496165
  4.5152091979980469  0.0000180629995157 46.4442062377929759
  4.5127501487731934  9.0314178466796857 46.4442062377929759
 13.5456094741821289  0.0000180629995157 46.4442062377929759
 13.5431499481201172  9.0314178466796857 46.4442062377929759
 13.0999383926391602  7.2167892456054679 31.4496974945068359
 12.0286884307861310  6.6540131568908683 32.1590881347656321
 12.8497810363769531  8.2896165847778320 30.6340751647949219
 10.7109327316284180  7.1764225959777832 32.0796165466308665
 11.5764198303222656  8.8487367630004883 30.5135326385498047
 10.4772815704345703  8.2912540435791016 31.2548942565917969
 13.7493772506713849  8.9335069656372070 33.8861618041992188
 12.4775819778442365 10.7200889587402326 34.6637077331542969
 14.1135530471801758  9.7044315338134766 36.2103385925292969
 15.0946540832519531 10.8873434066772461 34.1741676330566406
 15.1309375762939453  8.2051677703857422 33.7668190002441406
 14.9807519912719727  6.7868461608886719 33.2251701354980540
 11.9129848480224609 10.9651660919189453 33.2604217529296875
 13.1308803558349609  8.5953445434570312 36.6177215576171875
 15.7434005737304670 11.9640064239501953 35.0077781677246094
 14.5046415328979492  6.6888365745544434 31.7660636901855504
  1.0615863800048821  3.6994299888610835 35.2678184509277415
  0.8513374328613298 12.7742471694946289 35.3125343322753906
  9.9584350585937500  3.7812213897705078 35.2856941223144531
  9.5112962722778320 12.7769327163696289 35.6765098571777415
  8.0187978744506836  5.1614389419555664 35.3476867675781250
  8.1864976882934570 14.6397256851196289 35.2395362854003906
 17.2457466125488281  5.0313229560852042 35.6577072143554759
 17.6067008972167969 14.6855030059814453 35.5747718811035227
  3.7205004692077637  8.1633415222167969 35.2846450805664062
  3.5275220135226841 17.3172252178192139 35.3085327148437500
 12.8803886631503701 17.0791251063346863 35.3184318542480540
  5.3950157165527344  0.6927743554115295 35.4242362976074219
  5.2718114852905273  9.9273719787597638 35.3873405456542969
 14.3231935501098633  0.8792384266853333 35.3220596313476562
  0.8190771341323853  3.6865937709808350 41.1781501770019531
  0.8377318382263184 12.8112983703613281 41.2444648742675852
  9.7961750030517560  3.6804327964782715 41.1798057556152344
  9.8036327362060547 12.7212228775024414 41.2010993957519531
  3.7980279922485352  8.1094350814819336 41.1486053466796875
  3.6712998608127236 17.2435194849967957 41.0478782653808594
 12.6754579544067383  8.4159431457519531 41.2579574584960938
 12.7627767780795693 17.3365272879600525 41.2637748718261719
  8.1683635711669922  5.3916506767272949 41.1532592773437500
  8.0847826004028320 14.3546714782714844 41.2551078796386719
 17.1964870095252991  5.3008108139038086 41.0868835449218750
 17.2338169217109680 14.4472827911376953 41.1453170776367188
  5.3674430847167969  0.8027505278587341 41.1944503784179759
  5.2737069129943839  9.9698286056518555 41.1770210266113352
 14.4449501037597656  0.8985090851783751 41.0696105957031250
 14.5908689498901367  9.8050785064697266 41.2282295227050781
  0.8273094892501831  3.6869695186614990 47.0359649658203125
  0.8248501420021057 12.7183685302734375 47.0359649658203125
  9.8577098846435547  3.6869695186614990 47.0359649658203125
  9.8552503585815412 12.7183685302734375 47.0359649658203125
  3.6843190193176270  8.2023353576660156 47.0346527099609375
  3.6818594932556152 17.2337341308593750 47.0346527099609375
 12.7147188186645508  8.2023353576660156 47.0346527099609375
 12.7122592926025391 17.2337341308593750 47.0346527099609375
  8.2006769180297852  5.3445744514465332 47.0360260009765696
  8.1982173919677734 14.3759746551513672 47.0360260009765696
 17.2310771942138672  5.3445744514465332 47.0360260009765696
 17.2286186218261719 14.3759746551513672 47.0360260009765696
  5.3436489105224600  0.8290914893150328 47.0346527099609375
  5.3411893844604483  9.8604917526245117 47.0346527099609375
 14.3740482330322266  0.8290914893150328 47.0346527099609375
 14.3715896606445312  9.8604917526245117 47.0346527099609375
 13.8679409027099592 10.1170005798339844 34.7271842956543040
  8.9967288970947266  0.1749885082244873 34.5087852478027415
  8.7863435745239258  9.2779140472412092 34.6821556091308665
 18.0486177150160110  0.0556510835886002 34.4795227050781250
  0.3210489451885223  9.2437009811401367 34.7677001953125000
  4.5643033981323242  4.4645333290100098 34.4480819702148438
  4.5470585823059082 13.5922403335571289 34.5262832641601562
 13.2511701583862305  4.1865687370300293 34.8103904724121165
 13.2188911437988263 13.8753852844238281 34.1945152282714915
  0.0617730841040611  0.0610255412757397 40.8513145446777344
  0.1758646368980408  9.0528154373168945 41.0114440917968750
  9.0133361816406250  0.0409416370093822 40.8995819091796875
  9.0355472564697266  8.9950380325317383 40.9506301879882884
  4.5297923088073730  4.4265341758728027 40.9283828735351562
  4.4238615036010742 13.5440511703491211 40.8928413391113352
 13.4797782897949201  4.5308437347412109 40.9834289550781250
 13.5768747329711914 13.6107387542724609 40.8857154846191406
  2.6023726463317867  1.9361026287078855 37.9690818786621094
  2.6810946464538574 10.9736595153808594 38.0594596862793040
 11.6338214874267560  1.8895428180694578 38.0849494934082031
 11.3025693893432617 11.2859849929809570 38.2753219604492188
  6.3970904350280762  7.0784997940063477 38.0255126953125071
  6.4654235839843750 16.1560535430908203 38.0841102600097656
 15.7539587020874023  6.8303675651550293 38.2348594665527415
 15.4396762847900391 16.1859836578369141 38.0693626403808594
  1.9744368791580200  6.4154553413391104 38.0352821350097656
  2.0273556709289551 15.6084117889404297 38.0986595153808594
 10.7372074127197266  6.2237544059753418 37.9432601928710938
 10.8809261322021484 15.5577182769775391 38.0849418640136790
  7.1172351837158203  2.5565731525421138 38.0368385314941406
  7.0981998443603516 11.5682296752929688 38.1250038146972727
 16.0685367584228516  2.5504484176635742 38.0042610168457031
 16.4203262329101562 11.6739377975463867 38.2858810424804688
  0.0000000000000000  0.0000000000000000 47.1735610961914062
 -0.0024593239650130  9.0313997268676740 47.1735610961914062
  9.0304002761840803  0.0000000000000000 47.1735610961914062
  9.0279407501220685  9.0313997268676740 47.1735610961914062
  4.5139794349670410  4.5156998634338379 47.1742515563964844
  4.5115203857421875 13.5470991134643537 47.1742515563964844
 13.5443792343139648  4.5156998634338379 47.1742515563964844
 13.5419197082519531 13.5470991134643537 47.1742515563964844
  2.4519233703613277  2.0629522800445557 44.0401268005371165
  2.4494640827178955 11.0943517684936523 44.0401268005371165
 11.4823226928710920  2.0629522800445557 44.0401268005371165
 11.4798641204833984 11.0943517684936523 44.0401268005371165
  6.5760178565979004  6.9684472084045410 44.0401268005371165
  6.5735583305358887 15.9998464584350586 44.0401268005371165
 15.6064186096191406  6.9684472084045410 44.0401268005371165
 15.6039590835571289 15.9998464584350586 44.0401268005371165
  2.0610768795013428  6.5788145065307617 44.0400009155273509
  2.0586175918579102 15.6102142333984375 44.0400009155273509
 11.0914773941040039  6.5788145065307617 44.0400009155273509
 11.0890178680419922 15.6102142333984375 44.0400009155273509
  6.9668641090393066  2.4525938034057613 44.0400657653808665
  6.9644045829772949 11.4839935302734375 44.0400657653808665
 15.9972639083862305  2.4525938034057613 44.0400657653808665
 15.9948053359985352 11.4839935302734375 44.0400657653808665
  2.4316265583038330  2.0832188129425049 50.0684852600097656
  2.4291670322418213 11.1146183013915998 50.0684852600097656
 11.4620265960693359  2.0832188129425049 50.0684852600097656
 11.4595670700073224 11.1146183013915998 50.0684852600097656
  6.5963144302368164  6.9481806755065918 50.0684852600097656
  6.5938549041748047 15.9795799255371076 50.0684852600097656
 15.6267137527465803  6.9481806755065918 50.0684852600097656
 15.6242542266845703 15.9795799255371076 50.0684852600097656
  2.0811281204223633  6.5990090370178223 50.0690460205078125
  2.0786688327789307 15.6304082870483398 50.0690460205078125
 11.1115283966064453  6.5990090370178223 50.0690460205078125
 11.1090688705444336 15.6304082870483398 50.0690460205078125
  6.9468131065368652  2.4323906898498531 50.0690460205078125
  6.9443535804748535 11.4637899398803711 50.0690460205078125
 15.9772129058837891  2.4323906898498531 50.0690460205078125
 15.9747543334960938 11.4637899398803711 50.0690460205078125
 18.0211588228121400 18.0528783183544874 37.6957511901855469
  0.0209167823195457  9.1094532012939453 37.8512115478515625
  8.9927701950073242  0.0597969330847263 37.6118965148925852
  9.0194253921508789  9.0141448974609375 37.7912673950195384
  4.5745754241943359  4.5158505439758301 37.6825141906738281
  4.4567241668701172 13.5264511108398438 37.6293601989746094
 13.4515180587768555  4.5129971504211426 37.8317413330078125
 13.4328975677490234 13.7640218734741211 37.8275985717773438
  0.0000090280000222  0.0000090310004452 44.0429992675781250
 -0.0024502959568053  9.0314083099365234 44.0429992675781250
  9.0304088592529297  0.0000090310004452 44.0429992675781250
  9.0279493331909180  9.0314083099365234 44.0429992675781250
  4.5139703750610352  4.5156903266906738 44.0427513122558594
  4.5115113258361816 13.5470905303955078 44.0427513122558594
 13.5443706512451172  4.5156903266906738 44.0427513122558594
 13.5419111251831037 13.5470905303955078 44.0427513122558594
  0.0000000000000000  0.0000000000000000 50.4472808837890696
 -0.0024593239650130  9.0313997268676740 50.4472808837890696
  9.0304002761840803  0.0000000000000000 50.4472808837890696
  9.0279407501220685  9.0313997268676740 50.4472808837890696
  4.5139703750610352  4.5156998634338379 50.4472808837890696
  4.5115113258361816 13.5470991134643537 50.4472808837890696
 13.5443706512451172  4.5156998634338379 50.4472808837890696
 13.5419111251831055 13.5470991134643537 50.4472808837890696
