 H  C  N  I Pb 
 1.0000000000000000
    18.0608005523681641    0.0000000000000000    0.0000000000000000
    -0.0049186488613486   18.0627994537353516    0.0000000000000000
     0.0000000000000000    0.0000000000000000   62.4874992370605469
 H   C   N   I   Pb 
 143  39  47  72  24
Cartesian
  7.6087384223937988  4.6303477287292480 36.1030616760253906
  7.4075284004211417 13.0709829330444318 35.9318885803222656
 16.6985912322998047  5.1019911766052246 36.3075561523437500
 16.9742698669433594 14.7308378219604492 36.0590438842773509
  5.7247714996337891  1.2731095552444458 35.9081535339355469
  5.5442719459533691 10.5072956085205078 35.8359947204589844
 14.4051418304443359  1.3977199792861938 36.1379966735839844
  1.9533081054687491  3.9695105552673340 35.3217163085937500
  1.4562931060791007 12.1667652130126953 35.5481719970703125
 11.0137681961059570  3.6287600994110103 35.3009414672851562
 10.8967981338500977 13.4616403579711914 35.1000938415527415
  6.7556610107421875  0.2074876576662064 34.9783897399902344
  4.6301536560058594 11.2201910018920881 34.5190811157226562
 15.7325515747070312  0.6694432497024536 35.2401962280273509
  1.1061573028564480  4.9353919029235840 36.5242652893066406
 18.0505981445312500 12.4698553085327131 36.4458618164062571
  9.5652561187744141  3.1546800136566162 36.2422676086425781
  9.7990674972534180 12.4801177978515625 36.1331634521484446
  5.1905112266540527  8.0844640731811523 36.2923507690429688
  3.2917520999908447  0.8390263319015503 35.8019828796386719
 12.2296571731567383  0.3099616765975952 35.9888038635253906
  7.7844066619873047  6.0782017707824707 35.0933761596679688
  6.9941744804382324 14.3561534881591797 34.8146858215332031
 15.9541053771972656  4.2322750091552734 34.9782104492187500
 17.7860660552978516 15.7613458633422852 34.9264221191406321
  3.9781892299652100  7.2783250808715820 35.3362350463867188
  2.7398893097415566 17.6297419667243958 34.7381782531738281
 12.1707243183627725 16.8543988466262817 35.0714302062988352
  9.9511604309082031  5.4623007774353027 34.3764724731445312
  9.2617502212524414 14.6699428558349592 34.1820755004882884
 18.0300254821777344  3.4889693260192871 34.1577377319335938
  1.3990421295165989 14.2073726654052734 34.4461479187011719
  3.4895832538604736  9.1999979019165039 34.0842628479003977
  4.9599012592807403 17.0631641745567322 34.1158180236816406
 14.3633712986484170 16.9686207771301270 34.4637794494628906
  7.9539947509765625  5.0891051292419434 42.2469635009765625
  7.7805895805358887 14.8393297195434570 41.9937286376953196
 17.5840158462524414  4.9545698165893555 42.6312179565429688
 16.7868201732635498 13.9322662353515625 42.1026535034179759
  5.2975687980651855  0.8328658938407898 42.2585601806640625
  5.4795680046081543  9.9935054779052734 42.0836410522460938
 14.3351392745971680  1.0628192424774170 42.2137107849121094
 14.6743345260620117  9.8326492309570312 42.2330093383789134
  1.5387046337127686  2.9833142757415771 40.2752380371093750
  1.8247218132019041 12.4628553390502912 40.8440666198730469
 10.4993906021118146  3.1394543647766113 40.4759178161621165
 10.1452522277832031 12.2278861999511719 40.9571075439453125
  3.2720031738281246  7.3484797477722168 40.7941627502441406
  3.0297412136569619 16.6774903535842896 40.4215507507324290
 11.9971208572387695  7.8655552864074707 40.6332168579101562
 12.0800937870517373 16.6511819362640381 40.6810035705566406
  1.3278746604919434  3.1630012989044189 42.0019378662109375
  0.6593073606491089 12.1867752075195312 42.1046867370605469
  9.7269001007080078  3.2060050964355469 42.0255393981933594
  9.4828128814697266 12.9304227828979492 42.4068260192871165
  3.9001519680023193  7.9331259727478027 42.3059577941894602
  3.3526396015658975 17.1844106316566467 42.0585517883300781
 12.7847738265991211  8.0146322250366211 42.1686553955078196
 12.4754919270053506 17.2977182865142822 42.2468261718750071
  7.7675571441650391  6.0602312088012695 40.8148231506347656
  7.5123510360717773 15.1711206436157227 40.2951965332031250
 16.8527220487594640  5.7235655784606934 41.2706871032714915
 16.8869302272796666 15.1236696243286133 40.8391380310058594
  6.0712213516235352  1.2060359716415405 40.7621803283691406
  5.6418037414550781 10.5615072250366193 40.4602241516113281
 14.9643001556396484  1.3710865974426270 40.6226348876953125
 14.9077978134155273 10.6909971237182617 40.7452201843261790
 18.0501410514116287  4.5597968101501465 39.6793823242187500
  0.7643747329711914 14.2587442398071289 39.9328498840332102
  9.3262796401977539  4.9281067848205566 39.5945053100585938
  8.9766569137573242 13.5604686737060547 39.5297279357910227
  4.6901120403781533 17.9166276007890701 39.5076980590820312
  4.2855267524719238  8.9224634170532227 39.5257797241210938
 13.5854696491733176 17.9056218266487122 39.5545997619628906
 13.2276182174682617  9.5487184524536133 39.6139335632324219
  8.1032123565673828  5.4420318603515616 48.0459518432617259
  8.1007528305053711 14.4734306335449219 48.0459518432617259
 17.1336116790771484  5.4420318603515616 48.0459518432617259
 17.1311531066894531 14.4734306335449219 48.0459518432617259
  5.4410333633422852  0.9265221953392029 48.0449485778808594
  5.4385743141174316  9.9579219818115234 48.0449485778808594
 14.4714326858520490  0.9265221953392029 48.0449485778808594
 14.4689741134643555  9.9579219818115234 48.0449485778808594
  1.4218254089355467  3.0919990539550781 46.4558296203613281
  1.4193661212921143 12.1233978271484375 46.4558296203613281
 10.4522256851196289  3.0919990539550781 46.4558296203613281
 10.4497661590576172 12.1233978271484375 46.4558296203613281
  3.0899283885955806  7.6075901985168457 46.4545211791992188
  3.0874691009521484 16.6389904022216797 46.4545211791992188
 12.1203289031982422  7.6075901985168457 46.4545211791992188
 12.1178693771362305 16.6389904022216797 46.4545211791992188
  0.9247469902038573  3.5893490314483643 48.0459518432617259
  0.9222877025604248 12.6207475662231445 48.0459518432617259
  9.9551477432250977  3.5893490314483643 48.0459518432617259
  9.9526882171630859 12.6207475662231445 48.0459518432617259
  3.5868983268737793  8.1048498153686523 48.0448913574218821
  3.5844390392303462 17.1362495422363281 48.0448913574218821
 12.6172990798950195  8.1048498153686523 48.0448913574218821
 12.6148395538330078 17.1362495422363281 48.0448913574218821
  7.6061611175537109  5.9393639564514160 46.4558296203613281
  7.6037015914916992 14.9707632064819336 46.4558296203613281
 16.6365604400634766  5.9393639564514160 46.4558296203613281
 16.6341018676757812 14.9707632064819336 46.4558296203613281
  5.9380125999450684  1.4238001108169553 46.4545211791992188
  5.9355530738830566 10.4551992416381836 46.4545211791992188
 14.9684123992919904  1.4238001108169553 46.4545211791992188
 14.9659538269042951 10.4551992416381836 46.4545211791992188
 -0.0011664569610730  4.5157265663146973 45.3548011779785156
 -0.0036257810425013 13.5471258163452148 45.3548011779785156
  9.0292339324951172  4.5157265663146973 45.3548011779785156
  9.0267744064331037 13.5471258163452148 45.3548011779785156
  4.5152091979980469  0.0000000000000000 45.3536758422851562
  4.5127501487731934  9.0313997268676740 45.3536758422851562
 13.5456094741821289  0.0000000000000000 45.3536758422851562
 13.5431499481201172  9.0313997268676740 45.3536758422851562
 14.2900094985961914  9.1947154998779297 32.3102569580078125
 15.7541446685791016  9.1212759017944336 33.2790451049804759
 13.6176605224609375 11.3232669830322248 33.5561904907226562
 13.8554468154907209 11.2760362625122070 35.2885551452636719
 12.3208065032958984  8.1928577423095703 34.6505813598632884
 12.0818548202514648  9.8700275421142578 35.0966796875000000
 14.4165067672729492  7.7720823287963867 35.5912971496582102
 15.6162443161010742  9.0378046035766584 35.6579246520996094
 15.5482072830200195  6.8508620262145987 33.7724151611328196
 13.8365297317504883  6.7549605369567871 33.4552650451660156
 14.0594291687011701  6.8381519317626953 31.1573829650878906
 15.6899414062500000  7.5241022109985352 31.1609649658203125
 16.1638736724853516 11.0693607330322266 33.2429351806640625
 16.2786540985107422 11.0171623229980469 35.0256195068359375
 15.6921253204345703 12.4585456848144531 34.2146224975585938
 10.7453994750976562  9.4106025695800781 33.0982551574707031
 12.1639423370361310  8.7689952850341797 32.2164382934570312
 12.0214643478393555 10.4891204833984375 32.6362190246582102
 12.9353647232055646  8.7928247451782227 37.1934661865234446
 13.7207412719726562 10.4010143280029297 36.9872398376464844
 14.5779418945312500  9.0850877761840820 37.7803459167480540
 15.0181779861450178  4.7165060043334961 32.2247657775878906
 15.3189296722412109  5.0285520553588867 30.5496940612793004
 16.8748073577880859  3.0621969699859619 31.2900409698486328
 17.5819931030273438  7.2025532722473145 32.2280235290527344
  1.2536468505859384  2.6270115375518794 31.4680023193359411
  1.9572849273681652  6.7595701217651367 32.3967666625976634
  2.8281002044677725  4.4802417755126953 32.0049934387207102
 17.9937973022460938  4.0996851921081543 35.0679931640625000
  0.5910797119140633 13.9406814575195312 35.1175422668457031
  9.3911027908325195  4.8352851867675781 35.0727348327636719
  8.9713525772094727 13.8922910690307617 34.8854980468750000
  4.2478871345520020  9.2522459030151367 34.8773651123046875
  4.7585348347201943 17.9126440435647964 34.7962036132812500
 13.9458755711093527 17.7771622538566589 35.0883293151855469
  0.1541100293397903  4.3636288642883301 40.7418670654296946
  0.3164775371551514 13.7965869903564453 40.8012199401855540
  9.1369256973266602  4.6190671920776367 40.6048088073730469
  8.8331165313720703 13.7076120376586914 40.5891380310058594
  4.4646778106689453  8.9619140625000000 40.5905036926269531
  4.5501121738925576 17.9729879498481750 40.5636405944824219
 13.4435968399047852  9.2804918289184570 40.6632461547851562
 13.5348591068759561 18.0432826839387417 40.6260070800781321
  9.0289716720581055  4.5156092643737793 46.4455223083496165
  9.0265130996704102 13.5470085144042969 46.4455223083496165
 18.0593719482421875  4.5156092643737793 46.4455223083496165
 18.0569133758544922 13.5470085144042969 46.4455223083496165
  4.5152091979980469  0.0000180629995157 46.4442062377929759
  4.5127501487731934  9.0314178466796857 46.4442062377929759
 13.5456094741821289  0.0000180629995157 46.4442062377929759
 13.5431499481201172  9.0314178466796857 46.4442062377929759
 17.0444412231445312  5.1959476470947266 31.7471084594726562
 17.5737133026123047  3.8865263462066650 31.5480327606201172
 17.9347133636474609  6.2033843994140625 32.0592765808105469
  0.8765697479248062  3.6373131275177002 31.6128253936767578
  1.2547130584716817  5.9476108551025391 32.1712226867675781
  1.7592163085937511  4.6722564697265625 31.9280509948730504
 14.7360830307006836  8.7485857009887695 33.2171134948730540
 14.2544879913330078 10.9202032089233398 34.3336830139160156
 12.4879245758056623  9.2101154327392578 34.3229522705078125
 14.5333423614501953  8.8482618331909180 35.6810760498046875
 14.7576045989990217  7.2435154914855957 33.1274185180664062
 15.0278320312500000  6.7928433418273926 31.6951179504394531
 15.6880664825439453 11.3655424118041992 34.1804199218750000
 11.8362855911254865  9.4745883941650391 32.9876747131347656
 13.8853645324707013  9.3238487243652344 36.9653282165527344
 15.5596723556518555  5.3831138610839844 31.5549945831298828
  1.0604343414306621  4.2916140556335449 35.7197189331054759
  0.6717700958251973 12.7751836776733398 35.7205657958984375
 10.0133781433105469  3.7550137042999268 35.5212554931640625
  9.9368476867675781 13.1419839859008789 35.3443069458007812
  8.1771078109741211  5.1907305717468262 35.4192810058593750
  7.7259516716003418 13.7979001998901367 35.2363967895507812
 16.8163089752197266  4.5594463348388672 35.4454879760742188
 17.6946716308593750 14.8259773254394513 35.3219757080078125
  4.4746661186218262  8.1529216766357422 35.5714225769042969
  3.5140569210052490  0.1002639830112457 35.1436195373535227
 12.6629213551059348 17.7047974467277527 35.3604164123535156
  5.8026847839355469  0.5263253450393677 35.2301216125488281
  4.8500695228576651 10.3935041427612305 35.0898323059082031
 14.7449779510498047  0.6715159416198730 35.5234947204589844
  1.0577312707901001  3.4488084316253662 41.0387725830078196
  0.9681050777435303 12.7428493499755842 41.2983970642089844
  9.8243103027343750  3.5879745483398438 41.0708770751953125
  9.5414428710937500 12.9298343658447266 41.3700599670410156
  3.8406355381011963  8.0162887573242188 41.2765846252441406
  3.5797890881076455 17.2355616688728333 41.0523223876953125
 12.7216520309448242  8.3453750610351562 41.2069511413574290
 12.6428493717685342 17.2764317989349365 41.2263984680175781
  8.2381143569946289  5.2842001914978027 41.2651290893554688
  8.0054826736450195 14.6239461898803711 40.9968757629394602
 17.5162256360054016  5.0490975379943848 41.6218986511230540
 17.2639200091362000 14.2878074645996076 41.2809066772460938
  5.3710770606994629  0.7009221315383911 41.2414131164550781
  5.2333235740661621  9.8781785964965820 41.0806198120117259
 14.3171119689941388  0.8387306928634644 41.1971511840820312
 14.3980293273925781  9.9564590454101562 41.2545852661132812
  0.8273094892501831  3.6869695186614990 47.0359649658203125
  0.8248501420021057 12.7183685302734375 47.0359649658203125
  9.8577098846435547  3.6869695186614990 47.0359649658203125
  9.8552503585815412 12.7183685302734375 47.0359649658203125
  3.6843190193176270  8.2023353576660156 47.0346527099609375
  3.6818594932556152 17.2337341308593750 47.0346527099609375
 12.7147188186645508  8.2023353576660156 47.0346527099609375
 12.7122592926025391 17.2337341308593750 47.0346527099609375
  8.2006769180297852  5.3445744514465332 47.0360260009765696
  8.1982173919677734 14.3759746551513672 47.0360260009765696
 17.2310771942138672  5.3445744514465332 47.0360260009765696
 17.2286186218261719 14.3759746551513672 47.0360260009765696
  5.3436489105224600  0.8290914893150328 47.0346527099609375
  5.3411893844604483  9.8604917526245117 47.0346527099609375
 14.3740482330322266  0.8290914893150328 47.0346527099609375
 14.3715896606445312  9.8604917526245117 47.0346527099609375
 14.0011281967163068  9.4221687316894531 34.3827781677246094
  9.0914587238803488 17.6796927750110626 34.6635665893554688
  8.2147912979125977  8.6958274841308594 34.6421775817871165
  0.0209272652864456  0.2658022344112396 34.5346260070800781
  0.6724522113800049  8.8982686996459961 34.7782135009765696
  4.4607634544372559  4.4446196556091309 34.7629547119140696
  4.2037916183471680 13.8824062347412109 34.4873695373535227
 13.4433145523071289  4.0494928359985352 34.6774711608886790
 12.9152879714965820 14.3348636627197266 34.1803207397461009
  0.0007207556627691 17.9384530633687973 40.9276885986328125
  0.0751063004136086  9.0682353973388672 40.9910316467285156
  8.9918699264526367  0.1399260014295578 40.9438552856445384
  9.0141038894653320  9.0704679489135742 40.8960227966308665
  4.6468224525451660  4.3124675750732422 41.0084915161132884
  4.4604163169860840 13.5479021072387678 40.8839607238769531
 13.3836822509765625  4.6085596084594727 40.9663619995117259
 13.6107826232910138 13.5937690734863281 40.8617782592773438
  2.5817689895629878  1.9280183315277100 38.0732879638671875
  2.6077165603637695 10.9973487854003906 38.1260528564453125
 11.6671400070190430  1.9242737293243408 38.0904006958007812
 11.0285043716430646 11.5362710952758789 38.3637504577636719
  6.5573163032531738  6.9788365364074698 38.3224182128906321
  6.5371527671813965 16.0153942108154297 37.9264945983886790
 16.0838661193847656  6.5119171142578125 38.4912452697753906
 15.6196689605712891 16.0173492431640625 37.9909362792968750
  2.1357805728912354  6.5692028999328613 38.3494300842285156
  2.1382946968078613 15.8272390365600586 37.9862937927246094
 11.1204099655151367  6.6702466011047363 37.9033432006835938
 11.2068128585815412 15.6779098510742188 38.2778930664062571
  7.1485137939453125  2.5519988536834717 37.8998794555664062
  6.8392763137817374 11.4883689880371094 37.8931045532226562
 16.0226211547851562  2.4768602848052979 38.3450622558593750
 16.4970111846923828 11.9657535552978498 38.3533172607421875
  0.0000000000000000  0.0000000000000000 47.1735610961914062
 -0.0024593239650130  9.0313997268676740 47.1735610961914062
  9.0304002761840803  0.0000000000000000 47.1735610961914062
  9.0279407501220685  9.0313997268676740 47.1735610961914062
  4.5139794349670410  4.5156998634338379 47.1742515563964844
  4.5115203857421875 13.5470991134643537 47.1742515563964844
 13.5443792343139648  4.5156998634338379 47.1742515563964844
 13.5419197082519531 13.5470991134643537 47.1742515563964844
  2.4519233703613277  2.0629522800445557 44.0401268005371165
  2.4494640827178955 11.0943517684936523 44.0401268005371165
 11.4823226928710920  2.0629522800445557 44.0401268005371165
 11.4798641204833984 11.0943517684936523 44.0401268005371165
  6.5760178565979004  6.9684472084045410 44.0401268005371165
  6.5735583305358887 15.9998464584350586 44.0401268005371165
 15.6064186096191406  6.9684472084045410 44.0401268005371165
 15.6039590835571289 15.9998464584350586 44.0401268005371165
  2.0610768795013428  6.5788145065307617 44.0400009155273509
  2.0586175918579102 15.6102142333984375 44.0400009155273509
 11.0914773941040039  6.5788145065307617 44.0400009155273509
 11.0890178680419922 15.6102142333984375 44.0400009155273509
  6.9668641090393066  2.4525938034057613 44.0400657653808665
  6.9644045829772949 11.4839935302734375 44.0400657653808665
 15.9972639083862305  2.4525938034057613 44.0400657653808665
 15.9948053359985352 11.4839935302734375 44.0400657653808665
  2.4316265583038330  2.0832188129425049 50.0684852600097656
  2.4291670322418213 11.1146183013915998 50.0684852600097656
 11.4620265960693359  2.0832188129425049 50.0684852600097656
 11.4595670700073224 11.1146183013915998 50.0684852600097656
  6.5963144302368164  6.9481806755065918 50.0684852600097656
  6.5938549041748047 15.9795799255371076 50.0684852600097656
 15.6267137527465803  6.9481806755065918 50.0684852600097656
 15.6242542266845703 15.9795799255371076 50.0684852600097656
  2.0811281204223633  6.5990090370178223 50.0690460205078125
  2.0786688327789307 15.6304082870483398 50.0690460205078125
 11.1115283966064453  6.5990090370178223 50.0690460205078125
 11.1090688705444336 15.6304082870483398 50.0690460205078125
  6.9468131065368652  2.4323906898498531 50.0690460205078125
  6.9443535804748535 11.4637899398803711 50.0690460205078125
 15.9772129058837891  2.4323906898498531 50.0690460205078125
 15.9747543334960938 11.4637899398803711 50.0690460205078125
 18.0195598676800763  0.1397544145584106 37.8043975830078125
  0.1481079310178757  9.1028223037719727 37.8388404846191406
  9.1197723606601357 17.9630133733153343 37.7943954467773438
  8.9222097396850586  9.0234403610229492 37.6761054992675852
  4.5666074752807617  4.5048580169677734 37.8792037963867259
  4.3670053482055664 13.6816940307617170 37.7156066894531250
 13.5583105087280273  4.6165761947631836 37.8804550170898509
 13.5263900756835920 13.6439285278320312 37.7809982299804688
  0.0000090280000222  0.0000090310004452 44.0429992675781250
 -0.0024502959568053  9.0314083099365234 44.0429992675781250
  9.0304088592529297  0.0000090310004452 44.0429992675781250
  9.0279493331909180  9.0314083099365234 44.0429992675781250
  4.5139703750610352  4.5156903266906738 44.0427513122558594
  4.5115113258361816 13.5470905303955078 44.0427513122558594
 13.5443706512451172  4.5156903266906738 44.0427513122558594
 13.5419111251831037 13.5470905303955078 44.0427513122558594
  0.0000000000000000  0.0000000000000000 50.4472808837890696
 -0.0024593239650130  9.0313997268676740 50.4472808837890696
  9.0304002761840803  0.0000000000000000 50.4472808837890696
  9.0279407501220685  9.0313997268676740 50.4472808837890696
  4.5139703750610352  4.5156998634338379 50.4472808837890696
  4.5115113258361816 13.5470991134643537 50.4472808837890696
 13.5443706512451172  4.5156998634338379 50.4472808837890696
 13.5419111251831055 13.5470991134643537 50.4472808837890696
