 H  C  N  I Pb 
 1.0000000000000000
    18.0608005523681641    0.0000000000000000    0.0000000000000000
    -0.0049186488613486   18.0627994537353516    0.0000000000000000
     0.0000000000000000    0.0000000000000000   62.4874992370605469
 H   C   N   I   Pb 
 143  39  47  72  24
Cartesian
  7.9218740463256836  5.6833224296569824 35.7676315307617188
  7.6737041473388672 15.0623703002929670 35.7386970520019602
 17.6549682617187500  5.7781400680541992 36.3374061584472656
 17.3374195098876953 14.6509113311767578 36.2486190795898438
  5.6649216869845986 17.2446113824844360 35.9185333251953125
  5.9576082229614258 10.1688413619995117 35.8462181091308594
 14.3645696640014648  1.3404049873352051 36.2070465087890625
  0.5184040069580087  2.4730479717254639 35.1191558837890625
  1.0882949829101562 11.6366739273071289 35.2488708496093821
 10.3042249679565430  3.2517058849334717 34.5259208679199219
  9.4648141860961914 11.9321651458740234 35.2551918029785156
  6.4446411132812491  0.3465012311935425 34.8688812255859375
  5.0665025711059570 11.3032064437866211 34.8287582397460938
 15.6895971298217773  0.5905951857566833 35.3226432800293040
 17.9863052368164062  3.3432028293609619 36.5461120605468821
  0.1442546844482457 12.3413267135620099 36.5362472534179688
 10.1294202804565430  4.6168279647827148 35.6014137268066406
  8.1905927658081055 12.5910453796386719 36.1549530029296875
  5.0811562538146973  7.8425593376159659 35.9882583618164062
  3.2066878536716099 16.9569834470748901 35.7361030578613281
 12.1804170608520490  0.3226091861724854 36.0150375366210938
  6.6056962013244620  4.9202628135681152 34.8891830444335938
  8.7820615768432617 15.9064302444458008 34.6762657165527344
  0.3437919616699214  6.5313501358032227 34.9515762329101562
 17.9015827178955078 15.5125694274902344 34.8579139709472656
  3.5514600276947021  7.5635795593261719 35.1654434204101562
  2.3858193615451451 18.0328838601708412 34.6321258544921946
 12.1023744801059365 16.8473113775253296 35.1108283996582031
  8.0191040039062500  3.2891068458557129 33.9390907287597656
 10.0535049438476562 13.9748725891113281 34.2513847351074290
  0.8527641296386709  4.4853053092956543 33.9264678955078125
  1.0211868286132804 13.6521463394165021 33.9982910156250000
  3.4415147304534912  9.7038536071777326 34.2648811340332031
  4.3585495948791504  1.0238393545150757 33.9313278198242188
 14.3163503864780051 16.9002639055252075 34.5311126708984375
  8.5286893844604492  5.8750572204589844 41.9714622497558665
  7.8339958190917969 14.7438020706176758 42.0095405578613352
 17.5123556852340698  5.0178670883178711 42.5613594055175781
 16.5698467493057251 13.7880582809448242 42.0244178771972727
  5.4773802757263184  0.9801680445671080 42.0681800842285227
  5.4921593666076660  9.8756437301635742 42.1943626403808594
 14.2877902984619141  1.1868977546691895 42.1599884033203125
 14.1712436676025391 10.7134275436401367 41.6960945129394602
  1.5513335466384888  2.9937443733215332 40.3085517883300781
  1.8036807775497437 12.6138620376586914 40.9093704223632812
 10.5154380798339844  3.0813367366790771 40.7085227966308594
 10.2940721511840820 12.2521648406982422 40.9688529968261719
  3.3022437095642085  7.4079403877258301 40.5936203002929688
  3.0798632362857461 16.6584982872009277 40.6385993957519531
 12.7645854949951172  7.3527026176452637 41.3112983703613281
 12.1905893543735147 16.5943195819854772 40.7426223754882812
  1.2288157939910889  3.2148766517639160 42.0288658142089915
  0.6264839172363281 12.3111352920532209 42.1701774597167969
 10.6407508850097656  4.4579172134399414 41.7981681823730540
  9.5717811584472656 12.8721828460693359 42.4128494262695312
  3.7984273433685303  7.9197378158569336 42.1884155273437500
  3.5874702194705606 17.2592152953147888 42.1875190734863352
 12.5113372802734357  8.8236045837402344 42.2199172973632884
 12.4968551853671652 17.3950983285903931 42.2654075622558665
  7.1672177314758301  5.3040060997009268 41.0293464660644531
  7.5910868644714347 15.1550226211547834 40.3159828186035227
 16.8624300956726074  5.8093051910400391 41.1710853576660227
 16.5319269895553589 14.8983154296875000 40.6909523010253906
  5.9857563972473145  1.3540000915527344 40.4389533996582031
  5.8788537979125977 10.4872264862060547 40.6116561889648438
 15.0022659301757812  1.4033833742141721 40.5708847045898509
 15.2162876129150391 10.4333209991455060 40.3260383605957031
  0.0561460405588150  4.6130876541137686 39.6607437133789062
  0.5456839203834534 14.2185716629028303 39.8626022338867188
  8.3064270019531250  3.5322372913360591 40.1078033447265625
  9.1256484985351562 13.6241483688354492 39.5437545776367188
  4.5389146069064736 17.9663892611861229 39.4308624267578125
  4.5728602409362793  9.0024366378784180 39.4912605285644531
 13.7292045811191201 17.7935818433761632 39.5791702270507884
 14.4574880599975568  8.2450637817382812 40.0022773742675781
  8.1032123565673828  5.4420318603515616 48.0459518432617259
  8.1007528305053711 14.4734306335449219 48.0459518432617259
 17.1336116790771484  5.4420318603515616 48.0459518432617259
 17.1311531066894531 14.4734306335449219 48.0459518432617259
  5.4410333633422852  0.9265221953392029 48.0449485778808594
  5.4385743141174316  9.9579219818115234 48.0449485778808594
 14.4714326858520490  0.9265221953392029 48.0449485778808594
 14.4689741134643555  9.9579219818115234 48.0449485778808594
  1.4218254089355467  3.0919990539550781 46.4558296203613281
  1.4193661212921143 12.1233978271484375 46.4558296203613281
 10.4522256851196289  3.0919990539550781 46.4558296203613281
 10.4497661590576172 12.1233978271484375 46.4558296203613281
  3.0899283885955806  7.6075901985168457 46.4545211791992188
  3.0874691009521484 16.6389904022216797 46.4545211791992188
 12.1203289031982422  7.6075901985168457 46.4545211791992188
 12.1178693771362305 16.6389904022216797 46.4545211791992188
  0.9247469902038573  3.5893490314483643 48.0459518432617259
  0.9222877025604248 12.6207475662231445 48.0459518432617259
  9.9551477432250977  3.5893490314483643 48.0459518432617259
  9.9526882171630859 12.6207475662231445 48.0459518432617259
  3.5868983268737793  8.1048498153686523 48.0448913574218821
  3.5844390392303462 17.1362495422363281 48.0448913574218821
 12.6172990798950195  8.1048498153686523 48.0448913574218821
 12.6148395538330078 17.1362495422363281 48.0448913574218821
  7.6061611175537109  5.9393639564514160 46.4558296203613281
  7.6037015914916992 14.9707632064819336 46.4558296203613281
 16.6365604400634766  5.9393639564514160 46.4558296203613281
 16.6341018676757812 14.9707632064819336 46.4558296203613281
  5.9380125999450684  1.4238001108169553 46.4545211791992188
  5.9355530738830566 10.4551992416381836 46.4545211791992188
 14.9684123992919904  1.4238001108169553 46.4545211791992188
 14.9659538269042951 10.4551992416381836 46.4545211791992188
 -0.0011664569610730  4.5157265663146973 45.3548011779785156
 -0.0036257810425013 13.5471258163452148 45.3548011779785156
  9.0292339324951172  4.5157265663146973 45.3548011779785156
  9.0267744064331037 13.5471258163452148 45.3548011779785156
  4.5152091979980469  0.0000000000000000 45.3536758422851562
  4.5127501487731934  9.0313997268676740 45.3536758422851562
 13.5456094741821289  0.0000000000000000 45.3536758422851562
 13.5431499481201172  9.0313997268676740 45.3536758422851562
 14.0073986053466797 10.0255556106567383 32.5323410034179688
 13.0039901733398438  8.5986509323120117 32.9199600219726562
 15.7835197448730469  9.0484075546264648 33.9048805236816406
 15.4604196548461914  8.6199369430541992 35.5895576477050781
 13.4062929153442383 11.5802783966064453 34.9929122924804759
 14.4882450103759766 10.7618284225463867 36.1293792724609446
 12.0687503814697266  9.8917875289916992 35.6678657531738281
 12.2413682937622070  8.2087574005126953 35.0878219604492188
 11.0794391632080078  9.9531278610229492 33.6103134155273509
 12.0769805908203125 11.4292812347412109 33.5678672790527344
 10.9364519119262695 11.6743917465209961 31.6116714477539062
 12.3979949951171875 10.8779258728027344 31.0189819335937536
 14.6092290878295898  7.0226840972900391 33.0955085754394531
 13.8941669464111310  6.7268166542053223 34.7121009826660227
 15.6359710693359375  6.5357108116149893 34.4970283508300781
 15.6057786941528320 12.5007610321044922 34.8059539794921875
 15.3023042678832990 11.6793479919433594 33.2873458862304688
 16.4030990600585938 10.9425535202026367 34.5044403076171875
 13.6241674423217773  9.4596443176269531 37.5183906555175781
 14.0174131393432617  7.8415112495422363 36.8804435729980469
 12.4078092575073242  8.1814451217651367 37.4835281372070312
  9.6514778137207031  9.5708084106445312 31.5429058074951172
 10.4149303436279297  9.9071416854858398 29.9779720306396520
 12.4884662628173828  8.6012353897094727 29.3034343719482422
 10.1324853897094727  7.5625972747802734 32.7379264831543040
 13.7298946380615234  6.4645876884460440 29.4955558776855469
 11.3651676177978516  5.4186701774597159 32.9363174438476562
 13.1712942123413068  4.8738708496093750 31.3411560058593786
  0.3943195343017618  4.5003871917724609 34.9170875549316406
  0.4840106964111320 13.5805015563964826 34.9550628662109375
  8.4305601119995117  4.0582752227783203 34.6133193969726562
  9.1706533432006836 13.9151563644409180 34.8954010009765625
  4.2840824127197266  9.4299182891845703 34.9136047363281250
  4.4073133468627930  0.2251327633857727 34.6822013854980469
 13.9015239933505654 17.7017619013786351 35.1550407409667969
  0.1749339401721954  4.4013991355895996 40.7105331420898438
  0.1476615667343139 13.7590866088867188 40.7656936645507812
  8.8293752670288086  4.1921286582946777 40.8189010620117188
  8.9494495391845703 13.6974706649780273 40.6261672973632884
  4.5865793228149414  8.9443426132202148 40.5801620483398438
  4.5314602116122842 18.0416951123625040 40.5140876770019531
 13.9924411773681641  8.8773260116577148 40.7753791809082031
 13.6009058216586691 18.0230277851223946 40.6355400085449219
  9.0289716720581055  4.5156092643737793 46.4455223083496165
  9.0265130996704102 13.5470085144042969 46.4455223083496165
 18.0593719482421875  4.5156092643737793 46.4455223083496165
 18.0569133758544922 13.5470085144042969 46.4455223083496165
  4.5152091979980469  0.0000180629995157 46.4442062377929759
  4.5127501487731934  9.0314178466796857 46.4442062377929759
 13.5456094741821289  0.0000180629995157 46.4442062377929759
 13.5431499481201172  9.0314178466796857 46.4442062377929759
 11.2402620315551740  8.2348747253417969 31.0193252563476562
 12.2495727539062500  7.9143710136413574 30.1072235107421911
 10.9120693206787109  7.3216876983642578 32.0196075439453125
 12.9464912414550781  6.7071738243103027 30.2040023803710973
 11.6080265045166016  6.1197466850280762 32.1373252868652415
 12.6292476654052717  5.8071064949035645 31.2395896911621094
 13.2260532379150391  9.6268720626831055 33.1964797973632812
 15.0439424514770508  8.6012630462646484 34.5735931396484375
 14.2695407867431641 10.8968391418457031 35.0647468566894531
 12.7473392486572266  9.0430345535278320 35.5842323303222656
 11.9184322357177734 10.4559297561645508 33.0942687988281250
 11.4942483901977539 10.7043542861938477 31.6279964447021520
 14.7722072601318359  7.1443810462951660 34.1789054870605469
 15.4668970108032227 11.5065383911132812 34.3580970764160156
 13.2509307861328125  8.6142711639404297 36.9391860961914134
 10.6066493988037109  9.5990877151489258 31.0054130554199219
  0.2784366607666009  3.3495643138885498 35.5791091918945384
  0.6139850616455086 12.4575595855712891 35.6246681213378906
  9.7158994674682617  3.9935047626495361 34.8898582458496165
  8.9246959686279297 12.7637262344360334 35.4686088562011719
  7.6218605041503906  4.9949522018432617 35.0661811828613281
  8.4686174392700195 15.0063247680664045 35.0627098083496165
  0.0121002197265627  5.6621251106262207 35.4017906188964844
 17.8164081573486328 14.6079368591308594 35.3346977233886719
  4.3253240585327148  8.1928291320800781 35.3703842163085938
  3.2756029823794961 17.6874268651008641 35.0049743652343750
 12.5993704060092551 17.6773265600204503 35.3861732482910227
  5.5809869030490509 18.0002081170678139 35.2105064392089915
  5.1655950546264648 10.3648109436035156 35.2087249755859375
 14.7086963653564453  0.5609948635101318 35.6274871826171875
  1.0294798612594604  3.4783539772033691 41.0571632385253977
  0.8946564197540283 12.8302965164184570 41.3199958801269531
 10.0713958740234357  3.9018836021423340 41.1387901306152344
  9.6478691101074219 12.8912582397460938 41.4029006958007812
  3.8631951808929439  8.0352163314819336 41.1702690124511719
  3.6717600086703897 17.2729863524436951 41.1590347290039062
 13.0238046646118146  8.3257951736450195 41.4813652038574290
 12.7039045551791787 17.2877591848373413 41.2607841491699219
  8.1516160964965820  5.2105174064636230 41.2957458496093821
  8.0685710906982422 14.5840826034545898 41.0287895202636719
 17.4897607564926147  5.1138396263122550 41.5500373840332031
 17.0384603738784790 14.1711597442626953 41.1941833496093750
  5.3791971206665039  0.8177009224891663 41.0577011108398509
  5.3698554039001465  9.8277606964111328 41.1718177795410227
 14.3364543914794922  0.9097211360931395 41.1722259521484446
 14.4604949951171875 10.0783786773681641 40.9422683715820312
  0.8273094892501831  3.6869695186614990 47.0359649658203125
  0.8248501420021057 12.7183685302734375 47.0359649658203125
  9.8577098846435547  3.6869695186614990 47.0359649658203125
  9.8552503585815412 12.7183685302734375 47.0359649658203125
  3.6843190193176270  8.2023353576660156 47.0346527099609375
  3.6818594932556152 17.2337341308593750 47.0346527099609375
 12.7147188186645508  8.2023353576660156 47.0346527099609375
 12.7122592926025391 17.2337341308593750 47.0346527099609375
  8.2006769180297852  5.3445744514465332 47.0360260009765696
  8.1982173919677734 14.3759746551513672 47.0360260009765696
 17.2310771942138672  5.3445744514465332 47.0360260009765696
 17.2286186218261719 14.3759746551513672 47.0360260009765696
  5.3436489105224600  0.8290914893150328 47.0346527099609375
  5.3411893844604483  9.8604917526245117 47.0346527099609375
 14.3740482330322266  0.8290914893150328 47.0346527099609375
 14.3715896606445312  9.8604917526245117 47.0346527099609375
 13.8290662765502912  9.5251483917236328 34.5922164916992188
  9.1312046051025391  0.3375534117221832 34.5590667724609446
  8.5382719039916992  9.1142864227294922 34.7353820800781250
 17.9231744119897485 18.0550238676369190 34.3685035705566406
  0.6950404644012450  8.9626846313476562 34.5617980957031250
  4.1762132644653320  4.2343883514404297 34.5950622558593750
  4.5957655906677246 13.7852811813354474 34.5840759277343821
 13.3478393554687500  3.7065916061401367 34.6970863342285156
 12.8073177337646467 14.2824306488037109 34.3381156921386719
  0.0247113993391395 17.8564200699329376 40.9097061157226562
  0.1930470466613770  8.9290380477905273 40.9617958068847656
  9.0384321212768555  0.1580174267292023 40.9122505187988281
  9.1982412338256836  8.8773422241210938 40.9732398986816406
  4.6693038940429688  4.4068732261657715 40.9039573669433594
  4.5199608802795401 13.5873842239379883 40.9332046508789062
 13.4939031600952131  4.8102240562438965 40.9093055725097656
 13.5209274291992170 13.5874462127685547 40.8741836547851634
  2.4748961925506592  1.9091540575027466 38.0293464660644531
  2.6577916145324707 10.9800119400024414 38.1263694763183594
 11.7207164764404297  1.8839761018753050 38.2341461181640696
 11.1481533050537092 11.4860658645629883 38.3669281005859375
  6.4900145530700684  7.0182247161865225 38.0183982849121094
  6.6146378517150879 16.0160446166992188 37.9527702331543040
 16.1318111419677734  6.5531320571899414 38.3465118408203125
 15.7413415908813477 15.7900581359863281 38.0749397277832102
  2.1931872367858887  6.4761343002319336 38.1527023315429688
  2.1961011886596680 15.7380228042602539 37.9310226440429759
 10.4844417572021484  5.9605588912963867 37.7233238220214844
 11.1011857986450195 15.7334032058715820 38.1849212646484375
  6.9555253982543945  2.4115359783172603 37.8631210327148509
  6.9756636619567871 11.4671993255615234 38.1580886840820312
 16.0701179504394531  2.5016057491302490 38.3497238159179688
 16.4280433654785156 11.6221313476562500 38.3958587646484375
  0.0000000000000000  0.0000000000000000 47.1735610961914062
 -0.0024593239650130  9.0313997268676740 47.1735610961914062
  9.0304002761840803  0.0000000000000000 47.1735610961914062
  9.0279407501220685  9.0313997268676740 47.1735610961914062
  4.5139794349670410  4.5156998634338379 47.1742515563964844
  4.5115203857421875 13.5470991134643537 47.1742515563964844
 13.5443792343139648  4.5156998634338379 47.1742515563964844
 13.5419197082519531 13.5470991134643537 47.1742515563964844
  2.4519233703613277  2.0629522800445557 44.0401268005371165
  2.4494640827178955 11.0943517684936523 44.0401268005371165
 11.4823226928710920  2.0629522800445557 44.0401268005371165
 11.4798641204833984 11.0943517684936523 44.0401268005371165
  6.5760178565979004  6.9684472084045410 44.0401268005371165
  6.5735583305358887 15.9998464584350586 44.0401268005371165
 15.6064186096191406  6.9684472084045410 44.0401268005371165
 15.6039590835571289 15.9998464584350586 44.0401268005371165
  2.0610768795013428  6.5788145065307617 44.0400009155273509
  2.0586175918579102 15.6102142333984375 44.0400009155273509
 11.0914773941040039  6.5788145065307617 44.0400009155273509
 11.0890178680419922 15.6102142333984375 44.0400009155273509
  6.9668641090393066  2.4525938034057613 44.0400657653808665
  6.9644045829772949 11.4839935302734375 44.0400657653808665
 15.9972639083862305  2.4525938034057613 44.0400657653808665
 15.9948053359985352 11.4839935302734375 44.0400657653808665
  2.4316265583038330  2.0832188129425049 50.0684852600097656
  2.4291670322418213 11.1146183013915998 50.0684852600097656
 11.4620265960693359  2.0832188129425049 50.0684852600097656
 11.4595670700073224 11.1146183013915998 50.0684852600097656
  6.5963144302368164  6.9481806755065918 50.0684852600097656
  6.5938549041748047 15.9795799255371076 50.0684852600097656
 15.6267137527465803  6.9481806755065918 50.0684852600097656
 15.6242542266845703 15.9795799255371076 50.0684852600097656
  2.0811281204223633  6.5990090370178223 50.0690460205078125
  2.0786688327789307 15.6304082870483398 50.0690460205078125
 11.1115283966064453  6.5990090370178223 50.0690460205078125
 11.1090688705444336 15.6304082870483398 50.0690460205078125
  6.9468131065368652  2.4323906898498531 50.0690460205078125
  6.9443535804748535 11.4637899398803711 50.0690460205078125
 15.9772129058837891  2.4323906898498531 50.0690460205078125
 15.9747543334960938 11.4637899398803711 50.0690460205078125
 17.9252162734046578 18.0191930271685123 37.8728752136230469
  0.1794311106204987  9.0140457153320312 37.8827819824218821
  9.0609350204467773  0.1589402854442596 37.7860908508300852
  8.9727582931518555  8.8925724029541016 37.7958221435546875
  4.4007959365844727  4.3437776565551758 37.7239646911621094
  4.4820709228515625 13.4892015457153320 37.7238578796386790
 13.3362112045288086  4.4662704467773438 37.6557731628417969
 13.2378549575805664 13.6339387893676758 37.6098937988281250
  0.0000090280000222  0.0000090310004452 44.0429992675781250
 -0.0024502959568053  9.0314083099365234 44.0429992675781250
  9.0304088592529297  0.0000090310004452 44.0429992675781250
  9.0279493331909180  9.0314083099365234 44.0429992675781250
  4.5139703750610352  4.5156903266906738 44.0427513122558594
  4.5115113258361816 13.5470905303955078 44.0427513122558594
 13.5443706512451172  4.5156903266906738 44.0427513122558594
 13.5419111251831037 13.5470905303955078 44.0427513122558594
  0.0000000000000000  0.0000000000000000 50.4472808837890696
 -0.0024593239650130  9.0313997268676740 50.4472808837890696
  9.0304002761840803  0.0000000000000000 50.4472808837890696
  9.0279407501220685  9.0313997268676740 50.4472808837890696
  4.5139703750610352  4.5156998634338379 50.4472808837890696
  4.5115113258361816 13.5470991134643537 50.4472808837890696
 13.5443706512451172  4.5156998634338379 50.4472808837890696
 13.5419111251831055 13.5470991134643537 50.4472808837890696
