 H  C  N  I Pb 
 1.0000000000000000
    18.0608005523681641    0.0000000000000000    0.0000000000000000
    -0.0049186488613486   18.0627994537353516    0.0000000000000000
     0.0000000000000000    0.0000000000000000   62.4874992370605469
 H   C   N   I   Pb 
 143  39  47  72  24
Cartesian
  7.9084920883178711  5.4661717414855948 35.8855018615722656
  7.8759846687316895 15.0516614913940430 35.9496040344238281
 17.7794570922851562  5.6088762283325186 36.3934783935546875
 17.4626865386962891 14.4812011718750000 36.3835601806640625
  5.7372893551364541 17.7128198146820068 36.0750770568847727
  5.7564129829406729 10.1137762069702148 36.1229782104492188
 14.2957363128662092  1.2351497411727905 36.3775863647460938
  0.8356227874755886  2.4646172523498535 35.0591850280761719
  0.9973945617675782 11.5820751190185547 34.9347648620605469
 10.5816335678100586  3.4414098262786861 34.5827178955078125
  9.7441520690917969 12.0530252456665039 35.1792449951171946
  6.2726445198059082  0.6996564269065857 34.8180732727050781
  5.2002563476562500 11.1351757049560547 34.8493576049804759
 15.5222463607788086  0.9441177248954773 35.2125244140625000
  0.4084663391113307  3.1809813976287842 36.5518760681152415
  0.3349742889404290 12.1733875274658185 36.4103317260742259
 10.1960716247558594  4.6771888732910156 35.7377052307128906
  8.5683345794677734 12.6940345764160156 36.3556556701660156
  4.7109584808349609  7.8322763442993164 36.2514343261718750
  3.2957245567813516 17.0677699446678162 36.0613403320312500
 12.2645506123080850 17.8657810091972351 36.3029670715332031
  6.7159442901611319  4.7012968063354492 34.8504066467285156
  8.6815385818481445 15.9110050201416016 34.6621131896972656
  0.0406723022460964  6.4302029609680176 34.8912086486816406
 17.6394577026367188 15.3949356079101545 34.9278488159179688
  3.4357635974884033  7.5007805824279785 35.1052627563476562
  2.3118778923526406 17.8192666321992874 34.8493995666503906
 12.2947477558627725 16.5812770128250122 35.1171073913574290
  8.3240165710449219  3.3596601486206055 33.8313217163085938
  9.9235363006591797 14.0318069458007795 34.0231513977050781
  0.6770095825195301  4.4123516082763672 33.8350715637207031
  0.5767612457275381 13.5904474258422852 33.7998390197753906
  3.6832087039947510  9.5558910369873047 34.0545387268066477
  4.1118578910827637  0.9269180893898010 33.9288215637207102
 14.3469251850619912 17.1755214929580688 34.2928581237792969
  8.3792600631713867  5.6902580261230469 42.1319656372070384
  7.8149633407592773 14.7918128967285156 41.9335289001464844
 17.5495693087577820  5.0062131881713867 42.6234169006347656
 16.7247290611267090 14.0468263626098633 42.1220855712890625
  5.3670921325683594  0.9917533993721008 42.1721687316894602
  5.5466399192810059  9.8134241104125977 42.1679382324218750
 14.2523603439331037  1.0897537469863892 42.2101516723632884
 14.4751091003417951 10.5952987670898438 41.8249549865722656
  1.5206023454666138  3.0357275009155273 40.2945480346679688
  1.8261790275573730 12.6215448379516602 40.9952774047851634
 10.3342485427856428  2.9272096157073975 40.7403602600097727
 10.3825693130493164 12.2518138885498047 41.1186103820800781
  3.1948959827423096  7.4599466323852539 40.5807113647461009
  3.1960908630862832 16.5327401161193848 40.5964622497558594
 12.6086673736572266  7.5085544586181641 41.2555618286132812
 12.1823000172153115 16.6427831649780273 40.4954490661621165
  1.2479528188705444  3.2341561317443848 41.9951553344726634
  0.7523767352104187 12.5452842712402344 42.3372077941894531
 10.3314218521118146  4.0538640022277832 42.0568656921386790
  9.5838985443115234 13.0002985000610352 42.5103874206542969
  3.8119139671325684  7.8566660881042472 42.1409111022949219
  3.6009275177493691 17.1097400188446045 42.1606445312500071
 12.7575435638427717  8.7891063690185547 42.4296340942382812
 12.4206575611606240 17.3012318611145020 42.0752220153808594
  7.2243447303771973  5.4789719581604004 40.8602333068847656
  7.6180658340454102 15.0361185073852539 40.2285385131836009
 16.8264838457107544  5.8189191818237296 41.2394714355468750
 16.6413474082946777 14.9713792800903320 40.6377716064453125
  5.9077043533325195  1.4662005901336670 40.5948944091796946
  5.8429088592529297 10.5173177719116211 40.6163482666015625
 15.0354423522949219  1.4297944307327271 40.7037506103515625
 15.1791496276855469 10.4430198669433594 40.2527770996093750
 18.0322760045528447  4.6631402969360343 39.6993675231933594
  0.5728138089179993 14.1592073440551758 39.8319740295410156
  8.3671226501464844  3.7249014377593994 39.8874206542968750
  9.2235622406005859 13.4659566879272461 39.6100959777832031
  4.5911058643832803 17.9812475144863129 39.4865150451660156
  4.4090938568115234  9.0860643386840820 39.4998512268066406
 13.8149837711825967 17.9594677537679672 39.5160408020019531
 14.0955734252929688  8.4553594589233398 39.7914123535156250
  8.1032123565673828  5.4420318603515616 48.0459518432617259
  8.1007528305053711 14.4734306335449219 48.0459518432617259
 17.1336116790771484  5.4420318603515616 48.0459518432617259
 17.1311531066894531 14.4734306335449219 48.0459518432617259
  5.4410333633422852  0.9265221953392029 48.0449485778808594
  5.4385743141174316  9.9579219818115234 48.0449485778808594
 14.4714326858520490  0.9265221953392029 48.0449485778808594
 14.4689741134643555  9.9579219818115234 48.0449485778808594
  1.4218254089355467  3.0919990539550781 46.4558296203613281
  1.4193661212921143 12.1233978271484375 46.4558296203613281
 10.4522256851196289  3.0919990539550781 46.4558296203613281
 10.4497661590576172 12.1233978271484375 46.4558296203613281
  3.0899283885955806  7.6075901985168457 46.4545211791992188
  3.0874691009521484 16.6389904022216797 46.4545211791992188
 12.1203289031982422  7.6075901985168457 46.4545211791992188
 12.1178693771362305 16.6389904022216797 46.4545211791992188
  0.9247469902038573  3.5893490314483643 48.0459518432617259
  0.9222877025604248 12.6207475662231445 48.0459518432617259
  9.9551477432250977  3.5893490314483643 48.0459518432617259
  9.9526882171630859 12.6207475662231445 48.0459518432617259
  3.5868983268737793  8.1048498153686523 48.0448913574218821
  3.5844390392303462 17.1362495422363281 48.0448913574218821
 12.6172990798950195  8.1048498153686523 48.0448913574218821
 12.6148395538330078 17.1362495422363281 48.0448913574218821
  7.6061611175537109  5.9393639564514160 46.4558296203613281
  7.6037015914916992 14.9707632064819336 46.4558296203613281
 16.6365604400634766  5.9393639564514160 46.4558296203613281
 16.6341018676757812 14.9707632064819336 46.4558296203613281
  5.9380125999450684  1.4238001108169553 46.4545211791992188
  5.9355530738830566 10.4551992416381836 46.4545211791992188
 14.9684123992919904  1.4238001108169553 46.4545211791992188
 14.9659538269042951 10.4551992416381836 46.4545211791992188
 -0.0011664569610730  4.5157265663146973 45.3548011779785156
 -0.0036257810425013 13.5471258163452148 45.3548011779785156
  9.0292339324951172  4.5157265663146973 45.3548011779785156
  9.0267744064331037 13.5471258163452148 45.3548011779785156
  4.5152091979980469  0.0000000000000000 45.3536758422851562
  4.5127501487731934  9.0313997268676740 45.3536758422851562
 13.5456094741821289  0.0000000000000000 45.3536758422851562
 13.5431499481201172  9.0313997268676740 45.3536758422851562
 13.9856233596801758 10.0506334304809570 32.6665267944336009
 13.0770978927612305  8.5566663742065430 32.9390869140625000
 15.7273845672607422  9.0413475036621094 34.0006942749023509
 15.4020652770996076  8.6496925354003906 35.6751937866210938
 13.3893032073974609 11.4847545623779297 35.0764884948730469
 14.4882144927978516 10.7411632537841797 36.2664947509765625
 11.9778871536254883  9.8097057342529297 35.6913986206054688
 12.2108526229858398  8.1703262329101562 35.0382804870605469
 11.1141510009765625  9.9024991989135742 33.6655502319336009
 12.0448131561279297 11.3911314010620117 33.7168540954589844
 11.0169973373413086 11.7029991149902344 31.7101669311523438
 12.4395694732666016 10.9013023376464844 31.1008739471435582
 14.9409828186035156  6.9730596542358398 33.1961784362792969
 13.7445812225341797  6.7719669342041016 34.4677810668945312
 15.4263896942138672  6.5335941314697266 34.8163223266601562
 15.5820112228393555 12.4800014495849609 34.8936119079589915
 15.3236827850341797 11.5239582061767578 33.4337310791015625
 16.3888893127441406 10.9207592010498047 34.7303085327148438
 13.7002172470092773  9.3267192840576172 37.5393066406250000
 13.8351354598999006  7.6419115066528311 36.9209632873535156
 12.2690792083740234  8.2365903854370117 37.5369720458984375
  9.7025909423828125  9.6818265914916992 31.6471920013427734
 10.3692378997802734 10.0202493667602539 30.0377902984619176
 12.6751785278320312  8.7904510498046875 29.4885559082031286
 10.0388870239257812  7.5842304229736319 32.6484336853027344
 13.8721084594726562  6.6167240142822257 29.6238956451416051
 11.2180776596069336  5.4043631553649893 32.8151779174804759
 13.1352319717407227  4.9169836044311515 31.3146457672119176
  0.3882389068603515  4.4206042289733887 34.8869438171386719
  0.2790927886962900 13.4761486053466779 34.8319587707519531
  8.6245222091674805  4.0452446937561035 34.6188621520996165
  9.2247190475463849 13.9637775421142578 34.8634986877441406
  4.3029928207397461  9.3084573745727539 34.9061241149902344
  4.2764968872070312  0.2634207606315613 34.7682380676269531
 13.9196562031283975 17.7655212879180908 35.0987968444824290
  0.1313596367835999  4.4359569549560547 40.7655296325683594
  0.2017123699188232 13.8024730682373047 40.8020172119140625
  8.7829294204711914  4.1933093070983887 40.7723007202148509
  9.0023031234741211 13.6471233367919922 40.6613807678222656
  4.5253162384033203  8.9929437637329102 40.5783233642578196
  4.5457419613376260 18.0267457515001297 40.5761451721191406
 13.8788566589355469  8.9563436508178711 40.7310829162597656
 13.6148824691772461  0.0014418400824070 40.5802459716796875
  9.0289716720581055  4.5156092643737793 46.4455223083496165
  9.0265130996704102 13.5470085144042969 46.4455223083496165
 18.0593719482421875  4.5156092643737793 46.4455223083496165
 18.0569133758544922 13.5470085144042969 46.4455223083496165
  4.5152091979980469  0.0000180629995157 46.4442062377929759
  4.5127501487731934  9.0314178466796857 46.4442062377929759
 13.5456094741821289  0.0000180629995157 46.4442062377929759
 13.5431499481201172  9.0314178466796857 46.4442062377929759
 11.2960176467895508  8.3596057891845703 31.0733432769775426
 12.3726329803466797  8.0445432662963867 30.2257518768310547
 10.8857135772705078  7.3660411834716797 31.9914703369140661
 13.0200815200805646  6.8072133064270020 30.2973041534423864
 11.5403928756713867  6.1308698654174796 32.0696983337402344
 12.6144981384277326  5.8660559654235840 31.2229576110839879
 13.1910104751586914  9.6018161773681641 33.2812576293945312
 14.9959039688110352  8.5742940902709961 34.6605453491210938
 14.2527599334716797 10.8514347076416016 35.2001800537109375
 12.7132530212402344  8.9806919097900391 35.5913810729980469
 11.9477396011352539 10.4218387603759748 33.1917457580566406
 11.5533180236816406 10.7715368270874023 31.7427520751953125
 14.7433338165283203  7.1629858016967773 34.2539215087890625
 15.4643669128417969 11.4558992385864258 34.5126876831054688
 13.1771945953369141  8.5312271118164062 36.9601631164550781
 10.6448745727539045  9.7149896621704102 31.0714950561523438
  0.5418491363525381  3.3184180259704590 35.5461463928222656
  0.5718898773193350 12.3514385223388672 35.4346237182617188
  9.8781900405883771  4.0376691818237305 34.9961013793945312
  9.1942520141601562 12.8372640609741211 35.5399131774902344
  7.7018985748291016  4.8406872749328613 35.1109580993652344
  8.5000448226928711 15.0267448425292969 35.1579322814941406
 17.9908313751220703  5.5390591621398926 35.3889045715332031
 17.7154388427734375 14.4833068847656250 35.3963165283203125
  4.1537723541259766  8.1278429031372070 35.4475860595703125
  3.2433718899264932 17.6675811409950292 35.2415428161621165
 12.7234272221103311 17.4406390786170959 35.5090141296386719
  5.4763727188110352  0.2189769744873047 35.2740440368652344
  5.1342039108276367 10.2157039642333984 35.3340034484863281
 14.6478366851806641  0.6478340625762939 35.6369895935058665
  1.0158340930938721  3.5132951736450191 41.0340194702148438
  0.9525384902954100 12.9365530014038086 41.4295959472656321
  9.8970794677734375  3.7031149864196777 41.2320556640625071
  9.6936283111572266 12.9288015365600586 41.5006446838378977
  3.8103661537170406  8.0551834106445312 41.1536369323730469
  3.7504631737247105 17.1996930837631226 41.1752510070800852
 13.0191059112548828  8.3856773376464844 41.5363082885742188
 12.6978906849399191 17.3089215755462646 41.1106605529785227
  8.1020917892456055  5.1895818710327148 41.2913818359375000
  8.0961446762084961 14.5400571823120117 40.9717826843261719
 17.4817718267440796  5.1204924583435059 41.6115875244140625
 17.1184266209602391 14.2869329452514648 41.2204933166503906
  5.3201255798339844  0.8575694561004638 41.1688232421875071
  5.3346738815307617  9.8071966171264648 41.1867179870605469
 14.3385896682739240  0.8947091102600098 41.2231025695800781
 14.5351428985595703 10.0821743011474609 40.9506759643554759
  0.8273094892501831  3.6869695186614990 47.0359649658203125
  0.8248501420021057 12.7183685302734375 47.0359649658203125
  9.8577098846435547  3.6869695186614990 47.0359649658203125
  9.8552503585815412 12.7183685302734375 47.0359649658203125
  3.6843190193176270  8.2023353576660156 47.0346527099609375
  3.6818594932556152 17.2337341308593750 47.0346527099609375
 12.7147188186645508  8.2023353576660156 47.0346527099609375
 12.7122592926025391 17.2337341308593750 47.0346527099609375
  8.2006769180297852  5.3445744514465332 47.0360260009765696
  8.1982173919677734 14.3759746551513672 47.0360260009765696
 17.2310771942138672  5.3445744514465332 47.0360260009765696
 17.2286186218261719 14.3759746551513672 47.0360260009765696
  5.3436489105224600  0.8290914893150328 47.0346527099609375
  5.3411893844604483  9.8604917526245117 47.0346527099609375
 14.3740482330322266  0.8290914893150328 47.0346527099609375
 14.3715896606445312  9.8604917526245117 47.0346527099609375
 13.7916412353515625  9.4968967437744141 34.6845741271972656
  9.0339298248291016  0.4337506294250488 34.4855537414550781
  8.4969663619995117  9.2253046035766602 34.8263893127441406
 17.8560341903939843 17.9911903738975525 34.3819274902343821
  0.6606987714767456  8.9205827713012695 34.5452346801757884
  4.1400423049926758  4.2568635940551758 34.5081787109375000
  4.6688599586486816 13.7236328125000000 34.5529785156250000
 13.4514884948730451  3.7875025272369385 34.7067146301269531
 12.9303274154663086 14.2222213745117170 34.2011413574218750
  0.0163646591827273 17.9365238547325134 40.8747863769531250
  0.2550033032894135  9.0032110214233398 40.9677696228027415
  8.9444513320922852  0.0757442265748978 40.9041023254394531
  9.1066322326660156  8.8781156539916992 40.9844131469726562
  4.5737299919128409  4.4556164741516113 40.9292106628417969
  4.4409108161926270 13.5870428085327148 40.8798408508300781
 13.4055299758911133  4.7143340110778809 40.9371719360351562
 13.5805797576904297 13.6428585052490234 40.8462944030761790
  2.5637044906616211  1.8812508583068848 38.1905174255371094
  2.6417374610900879 10.9360828399658203 38.0611839294433594
 11.7585611343383789  1.8701933622360229 38.1581153869628906
 11.1461696624755859 11.4959793090820312 38.4070663452148438
  6.3719477653503418  7.0583744049072266 38.0327949523925781
  6.5164852142333975 16.1151714324951172 38.0024909973144531
 16.1180133819580078  6.5450792312622061 38.3885765075683665
 15.5969953536987287 15.9799776077270508 38.0383644104003977
  2.0978779792785645  6.4464898109436035 38.2110710144043040
  2.0669579505920410 15.6356067657470685 37.9552345275878906
 10.4349908828735352  5.9269776344299316 37.9071464538574219
 11.0912275314331037 15.6098365783691406 38.2136573791503906
  6.9154553413391113  2.3750717639923096 37.9750518798828125
  7.0172429084777832 11.5612335205078125 38.2782630920410156
 16.0405788421630859  2.5436928272247314 38.2413673400878906
 16.5002899169921875 11.7148323059082031 38.4423675537109375
  0.0000000000000000  0.0000000000000000 47.1735610961914062
 -0.0024593239650130  9.0313997268676740 47.1735610961914062
  9.0304002761840803  0.0000000000000000 47.1735610961914062
  9.0279407501220685  9.0313997268676740 47.1735610961914062
  4.5139794349670410  4.5156998634338379 47.1742515563964844
  4.5115203857421875 13.5470991134643537 47.1742515563964844
 13.5443792343139648  4.5156998634338379 47.1742515563964844
 13.5419197082519531 13.5470991134643537 47.1742515563964844
  2.4519233703613277  2.0629522800445557 44.0401268005371165
  2.4494640827178955 11.0943517684936523 44.0401268005371165
 11.4823226928710920  2.0629522800445557 44.0401268005371165
 11.4798641204833984 11.0943517684936523 44.0401268005371165
  6.5760178565979004  6.9684472084045410 44.0401268005371165
  6.5735583305358887 15.9998464584350586 44.0401268005371165
 15.6064186096191406  6.9684472084045410 44.0401268005371165
 15.6039590835571289 15.9998464584350586 44.0401268005371165
  2.0610768795013428  6.5788145065307617 44.0400009155273509
  2.0586175918579102 15.6102142333984375 44.0400009155273509
 11.0914773941040039  6.5788145065307617 44.0400009155273509
 11.0890178680419922 15.6102142333984375 44.0400009155273509
  6.9668641090393066  2.4525938034057613 44.0400657653808665
  6.9644045829772949 11.4839935302734375 44.0400657653808665
 15.9972639083862305  2.4525938034057613 44.0400657653808665
 15.9948053359985352 11.4839935302734375 44.0400657653808665
  2.4316265583038330  2.0832188129425049 50.0684852600097656
  2.4291670322418213 11.1146183013915998 50.0684852600097656
 11.4620265960693359  2.0832188129425049 50.0684852600097656
 11.4595670700073224 11.1146183013915998 50.0684852600097656
  6.5963144302368164  6.9481806755065918 50.0684852600097656
  6.5938549041748047 15.9795799255371076 50.0684852600097656
 15.6267137527465803  6.9481806755065918 50.0684852600097656
 15.6242542266845703 15.9795799255371076 50.0684852600097656
  2.0811281204223633  6.5990090370178223 50.0690460205078125
  2.0786688327789307 15.6304082870483398 50.0690460205078125
 11.1115283966064453  6.5990090370178223 50.0690460205078125
 11.1090688705444336 15.6304082870483398 50.0690460205078125
  6.9468131065368652  2.4323906898498531 50.0690460205078125
  6.9443535804748535 11.4637899398803711 50.0690460205078125
 15.9772129058837891  2.4323906898498531 50.0690460205078125
 15.9747543334960938 11.4637899398803711 50.0690460205078125
 17.9617650434374809  0.0038083498366177 37.8025627136230469
  0.1066047847270966  9.0179758071899414 37.8967475891113281
  9.0467901229858398  0.1352833211421967 37.6916427612304688
  8.9619998931884766  8.9515190124511719 37.8401870727539062
  4.4284915924072266  4.4236855506896973 37.6795959472656250
  4.4794111251831055 13.4804630279541016 37.6330642700195312
 13.4513254165649414  4.5084261894226074 37.7329521179199219
 13.3713855743408203 13.6325845718383789 37.6813430786132812
  0.0000090280000222  0.0000090310004452 44.0429992675781250
 -0.0024502959568053  9.0314083099365234 44.0429992675781250
  9.0304088592529297  0.0000090310004452 44.0429992675781250
  9.0279493331909180  9.0314083099365234 44.0429992675781250
  4.5139703750610352  4.5156903266906738 44.0427513122558594
  4.5115113258361816 13.5470905303955078 44.0427513122558594
 13.5443706512451172  4.5156903266906738 44.0427513122558594
 13.5419111251831037 13.5470905303955078 44.0427513122558594
  0.0000000000000000  0.0000000000000000 50.4472808837890696
 -0.0024593239650130  9.0313997268676740 50.4472808837890696
  9.0304002761840803  0.0000000000000000 50.4472808837890696
  9.0279407501220685  9.0313997268676740 50.4472808837890696
  4.5139703750610352  4.5156998634338379 50.4472808837890696
  4.5115113258361816 13.5470991134643537 50.4472808837890696
 13.5443706512451172  4.5156998634338379 50.4472808837890696
 13.5419111251831055 13.5470991134643537 50.4472808837890696
