 H  C  N  I Pb 
 1.0000000000000000
    18.0608005523681641    0.0000000000000000    0.0000000000000000
    -0.0049186488613486   18.0627994537353516    0.0000000000000000
     0.0000000000000000    0.0000000000000000   62.4874992370605469
 H   C   N   I   Pb 
 143  39  47  72  24
Cartesian
  7.9866032600402823  5.8330698013305664 35.6607246398925781
  7.5841989517211914 14.9648275375366193 35.6220474243164134
 17.4999961853027344  5.8047971725463867 36.2159271240234375
 17.1685333251953125 14.6588602066040039 36.1082611083984375
  5.8216737965121865 17.2149620056152344 35.7898063659667969
  6.1400527954101562 10.1698808670043945 35.6141967773437571
 14.4066562652587891  1.4003254175186157 36.0399818420410156
  0.3838119506835945  2.4674799442291260 35.1162796020507812
  1.1498394012451179 11.7323303222656232 35.3953399658203125
 10.1534070968627930  3.1634464263916016 34.5471229553222656
  9.3397893905639648 11.8135232925415039 35.1831130981445312
  6.5183286666870117  0.3642324805259705 34.7538909912109375
  5.1342320442199707 11.3377742767333984 34.7766647338867188
 15.7196102142333984  0.4493107795715332 35.3441390991210938
 17.6801166534423828  3.3684990406036377 36.4218406677246094
 -0.0010795593261715 12.3742179870605451 36.5215797424316477
 10.1187839508056641  4.6114711761474609 35.5339736938476562
  7.9931111335754395 12.5111875534057617 36.0133476257324290
  5.1865158081054679  7.8635325431823730 35.8904991149902344
  3.3825201252475381 16.8457977771759033 35.6839408874511719
 12.1329832077026367  0.4856132268905640 35.7862892150878977
  6.6062779426574707  5.0987057685852051 34.8613700866699290
  8.7529487609863281 15.8310928344726562 34.6633796691894531
  0.3693065643310552  6.5482993125915527 34.9500961303710938
 17.9232807159423828 15.5594072341918928 34.8169555664062500
  3.5941791534423828  7.6188158988952628 35.2183761596679688
  2.4520224789157510 17.9312613010406494 34.6732482910156250
 12.0232929447665811 16.9430049657821655 35.0488929748535227
  7.8706822395324707  3.3275766372680664 34.0235061645507812
 10.0245513916015625 13.8928699493408203 34.2621536254882812
  0.9564075469970724  4.4791865348815918 33.9958648681640625
  1.2266101837158208 13.7784795761108398 34.1602134704589844
  3.4126915931701656  9.7631616592407227 34.4046440124511719
  4.3763675689697266  1.0482903718948364 33.9739608764648509
 14.2843403080478293 16.7871350049972534 34.6615028381347727
  8.6485824584960938  5.9951925277709961 41.8233032226562571
  7.9022426605224609 14.7094783782958984 42.0604438781738352
 17.4857310056686437  5.0543003082275391 42.4724273681640696
 16.6094636917114258 13.4405746459960938 42.0340766906738281
  5.6058402061462402  0.9658814668655396 41.9173736572265625
  5.4080381393432617  9.9166994094848615 42.2358169555664062
 14.2813844680786133  1.1476910114288330 42.1869506835937571
 13.8994903564453125 10.7435722351074219 41.5707054138183594
  1.5252978801727295  2.9642646312713623 40.3191909790039062
  1.9089106321334839 12.8073549270629865 40.7664413452148438
 10.5529918670654297  3.1495151519775391 40.6265335083007884
 10.2425985336303711 12.1835870742797852 40.8214950561523509
  3.3065993785858154  7.4641709327697754 40.4697227478027344
  3.0578922489657998 16.6633789539337158 40.6960334777832031
 12.7890157699584961  7.3048691749572754 41.3467636108398438
 12.2391847828403115 16.5393108129501343 40.7180442810058665
  1.1859397888183592  3.1905071735382080 42.0269165039062500
  0.7988116741180420 12.2420654296875000 42.0023880004882884
 10.7506666183471662  4.6299796104431152 41.5135421752929759
  9.5777854919433594 12.7459135055541992 42.3151664733886790
  3.6762576103210449  8.0094423294067383 42.1086921691894531
  3.7079028347507119 17.2918278574943542 42.2015800476074219
 12.3379535675048828  8.8500566482543945 42.0285072326660156
 12.5086483219638467 17.3381250500679016 42.2497558593750000
  7.1740236282348633  5.2972288131713867 41.1582221984863281
  7.6446766853332520 15.2167348861694336 40.4163551330566406
 16.8887062072753942  5.8629550933837891 41.0687713623046875
 16.3760271072387695 14.6610336303710938 40.8130340576171875
  6.0151515007019043  1.3191038370132446 40.2509269714355469
  5.9737801551818848 10.4901905059814453 40.6854591369628906
 15.0227727890014631  1.4078686237335205 40.6129302978515625
 15.1789093017578125 10.4323835372924805 40.4274978637695312
  0.0893067792057991  4.6296424865722656 39.5875854492187500
  0.4083602130413055 14.3628187179565430 39.8943405151367259
  8.2917375564575195  3.4694552421569824 40.2411575317382812
  9.0876808166503906 13.6861190795898438 39.5044517517089915
  4.4432472446933389 17.9306330382823944 39.3687477111816477
  4.6951274871826172  8.9896602630615234 39.4688491821289062
 13.8178552845492959 17.7958764433860814 39.5843276977539062
 14.6068449020385742  8.1910514831542969 40.1942710876464915
  8.1032123565673828  5.4420318603515616 48.0459518432617259
  8.1007528305053711 14.4734306335449219 48.0459518432617259
 17.1336116790771484  5.4420318603515616 48.0459518432617259
 17.1311531066894531 14.4734306335449219 48.0459518432617259
  5.4410333633422852  0.9265221953392029 48.0449485778808594
  5.4385743141174316  9.9579219818115234 48.0449485778808594
 14.4714326858520490  0.9265221953392029 48.0449485778808594
 14.4689741134643555  9.9579219818115234 48.0449485778808594
  1.4218254089355467  3.0919990539550781 46.4558296203613281
  1.4193661212921143 12.1233978271484375 46.4558296203613281
 10.4522256851196289  3.0919990539550781 46.4558296203613281
 10.4497661590576172 12.1233978271484375 46.4558296203613281
  3.0899283885955806  7.6075901985168457 46.4545211791992188
  3.0874691009521484 16.6389904022216797 46.4545211791992188
 12.1203289031982422  7.6075901985168457 46.4545211791992188
 12.1178693771362305 16.6389904022216797 46.4545211791992188
  0.9247469902038573  3.5893490314483643 48.0459518432617259
  0.9222877025604248 12.6207475662231445 48.0459518432617259
  9.9551477432250977  3.5893490314483643 48.0459518432617259
  9.9526882171630859 12.6207475662231445 48.0459518432617259
  3.5868983268737793  8.1048498153686523 48.0448913574218821
  3.5844390392303462 17.1362495422363281 48.0448913574218821
 12.6172990798950195  8.1048498153686523 48.0448913574218821
 12.6148395538330078 17.1362495422363281 48.0448913574218821
  7.6061611175537109  5.9393639564514160 46.4558296203613281
  7.6037015914916992 14.9707632064819336 46.4558296203613281
 16.6365604400634766  5.9393639564514160 46.4558296203613281
 16.6341018676757812 14.9707632064819336 46.4558296203613281
  5.9380125999450684  1.4238001108169553 46.4545211791992188
  5.9355530738830566 10.4551992416381836 46.4545211791992188
 14.9684123992919904  1.4238001108169553 46.4545211791992188
 14.9659538269042951 10.4551992416381836 46.4545211791992188
 -0.0011664569610730  4.5157265663146973 45.3548011779785156
 -0.0036257810425013 13.5471258163452148 45.3548011779785156
  9.0292339324951172  4.5157265663146973 45.3548011779785156
  9.0267744064331037 13.5471258163452148 45.3548011779785156
  4.5152091979980469  0.0000000000000000 45.3536758422851562
  4.5127501487731934  9.0313997268676740 45.3536758422851562
 13.5456094741821289  0.0000000000000000 45.3536758422851562
 13.5431499481201172  9.0313997268676740 45.3536758422851562
 13.9928216934204102 10.0280904769897461 32.5239906311035156
 13.0169525146484375  8.5900516510009766 32.8575973510742188
 15.7642669677734357  9.0485687255859375 33.8647766113281250
 15.4626464843749982  8.6741113662719727 35.5516090393066406
 13.4253444671630859 11.5715017318725586 34.9645614624023438
 14.5386171340942383 10.8019361495971680 36.1107101440429688
 12.0707073211669904  9.9167833328247070 35.6382560729980540
 12.2126703262329084  8.2412195205688477 35.0690689086914062
 11.1285524368286133  9.9799013137817383 33.5931015014648438
 12.1058835983276367 11.4583177566528320 33.5020599365234375
 10.9503316879272443 11.6401920318603516 31.5610275268554688
 12.3993663787841797 10.8480234146118164 30.9668407440185582
 14.3871002197265625  7.0470638275146484 33.1392974853515625
 13.9962959289550763  6.6914472579956055 34.8170776367187500
 15.6629543304443359  6.5908432006835938 34.2650794982910156
 15.6114625930786115 12.5359239578247053 34.7675514221191406
 15.2753515243530273 11.6973695755004883 33.2443275451660156
 16.3894500732421875 10.9589986801147461 34.4421768188476562
 13.6583156585693359  9.5177793502807617 37.5035514831542969
 14.0351715087890625  7.8930702209472656 36.8909606933593821
 12.4184064865112305  8.2841711044311523 37.4674377441406321
  9.6543312072753888  9.5666618347167969 31.4762744903564489
 10.3874616622924805  9.8759899139404297 29.8878116607666051
 12.5065822601318359  8.5763092041015625 29.2600669860839879
 10.1359024047851562  7.5861535072326660 32.7385902404785227
 13.7208232879638672  6.4238176345825195 29.4654350280761754
 11.3799543380737305  5.4150943756103516 32.9288558959960938
 13.1762847900390625  4.8458013534545898 31.3308086395263707
  0.3789482116699207  4.5041584968566895 34.9219169616699219
  0.5475883483886701 13.6503925323486328 35.0201721191406250
  8.3710870742797852  4.1105933189392090 34.6144104003906250
  9.1045055389404297 13.8261976242065430 34.8548927307128906
  4.3338980674743652  9.4673156738281250 34.9179306030273438
  4.4686107635498047  0.1924096494913101 34.6496849060058594
 13.8853840092197061 17.6897982358932495 35.1439590454101562
  0.1787592321634293  4.4092931747436523 40.6740112304687500
  0.1196634769439697 13.7401304244995117 40.7576904296875000
  8.8509807586669922  4.2134375572204590 40.8324699401855469
  8.9435882568359375 13.7030611038208008 40.5999565124511790
  4.6480731964111328  8.9850044250488281 40.5670852661132884
  4.5278720119968048 18.0217150747776031 40.4655609130859375
 13.9984455108642560  8.8350353240966797 40.8358001708984446
 13.6280454853549600 17.9898438453674316 40.6543617248535156
  9.0289716720581055  4.5156092643737793 46.4455223083496165
  9.0265130996704102 13.5470085144042969 46.4455223083496165
 18.0593719482421875  4.5156092643737793 46.4455223083496165
 18.0569133758544922 13.5470085144042969 46.4455223083496165
  4.5152091979980469  0.0000180629995157 46.4442062377929759
  4.5127501487731934  9.0314178466796857 46.4442062377929759
 13.5456094741821289  0.0000180629995157 46.4442062377929759
 13.5431499481201172  9.0314178466796857 46.4442062377929759
 11.2538976669311506  8.2415990829467773 30.9847602844238281
 12.2547845840454102  7.8906755447387695 30.0624465942382812
 10.9164218902587873  7.3187804222106934 32.0048370361328125
 12.9486265182495117  6.6783175468444824 30.1853485107421911
 11.6218843460083008  6.1089277267456046 32.1213150024414062
 12.6423788070678711  5.7953038215637207 31.2153053283691442
 13.2023868560790998  9.6273946762084961 33.1733856201171875
 15.0292949676513672  8.5983381271362305 34.5445709228515696
 14.3024168014526349 10.9198331832885742 35.0432205200195312
 12.7672996520996094  9.0695209503173810 35.5336456298828125
 11.9489297866821271 10.4686946868896484 33.0584144592285227
 11.5021362304687500 10.7000818252563477 31.5947456359863317
 14.7353582382202148  7.1702327728271475 34.1693687438964844
 15.4723653793334961 11.5419044494628906 34.3161087036132812
 13.2765760421752930  8.6793003082275391 36.9066390991210938
 10.6153316497802734  9.6109495162963867 30.9474830627441442
  0.1346149444580072  3.3784899711608882 35.5329589843750000
  0.5994892120361327 12.5357141494750977 35.7107200622558594
  9.6528358459472656  3.9953513145446773 34.8622856140136719
  8.7821626663208008 12.6504917144775391 35.3647003173828125
  7.6259570121765137  5.1276726722717285 35.0279006958007812
  8.3882455825805664 14.9320354461669922 35.0055389404296875
 -0.0009994506835936  5.6845345497131348 35.3609733581542969
 17.7991123199462891 14.6527547836303711 35.2931785583496094
  4.4055991172790527  8.2198934555053711 35.3131561279296875
  3.3778809765353799 17.6050466299057007 34.9764328002929688
 12.5788997868075967 17.7763271331787109 35.2769851684570312
  5.6647285679355264 17.9649614393711090 35.1027412414550781
  5.2683029174804688 10.3724288940429670 35.1035461425781321
 14.7279930114746076  0.5399278998374939 35.5646171569824219
  1.0008534193038940  3.4664831161499023 41.0399932861328125
  0.9723137617111206 12.8650150299072266 41.2051811218261790
 10.1284723281860352  3.9927611351013184 41.0180053710937571
  9.6212987899780273 12.8323173522949219 41.3039169311523438
  3.8315041065216064  8.0894393920898438 41.1102066040039062
  3.7201279858127236 17.2963738441467285 41.1879577636718821
 12.9583997726440412  8.3087034225463867 41.4359626770019531
 12.7456459263339639 17.2555277347564697 41.2696990966796875
  8.1956577301025391  5.2706336975097656 41.2837257385253906
  8.1193199157714844 14.5992498397827148 41.0696983337402415
 17.4960276484489441  5.1424608230590820 41.4635009765625000
 16.9872127771377563 13.9769582748413068 41.2569694519042969
  5.4460973739624023  0.8036129474639893 40.9337921142578125
  5.3811583518981934  9.8345565795898438 41.2296180725097727
 14.3559236526489258  0.8988197445869446 41.2069282531738281
 14.3877391815185547 10.1007795333862305 40.9493293762207102
  0.8273094892501831  3.6869695186614990 47.0359649658203125
  0.8248501420021057 12.7183685302734375 47.0359649658203125
  9.8577098846435547  3.6869695186614990 47.0359649658203125
  9.8552503585815412 12.7183685302734375 47.0359649658203125
  3.6843190193176270  8.2023353576660156 47.0346527099609375
  3.6818594932556152 17.2337341308593750 47.0346527099609375
 12.7147188186645508  8.2023353576660156 47.0346527099609375
 12.7122592926025391 17.2337341308593750 47.0346527099609375
  8.2006769180297852  5.3445744514465332 47.0360260009765696
  8.1982173919677734 14.3759746551513672 47.0360260009765696
 17.2310771942138672  5.3445744514465332 47.0360260009765696
 17.2286186218261719 14.3759746551513672 47.0360260009765696
  5.3436489105224600  0.8290914893150328 47.0346527099609375
  5.3411893844604483  9.8604917526245117 47.0346527099609375
 14.3740482330322266  0.8290914893150328 47.0346527099609375
 14.3715896606445312  9.8604917526245117 47.0346527099609375
 13.8280572891235352  9.5475158691406250 34.5634040832519602
  9.1345396041870117  0.3607749044895172 34.4943275451660156
  8.5701646804809570  9.0544929504394531 34.7058410644531250
 18.0278356522321701  0.0276463516056538 34.3710708618164134
  0.7119770050048828  9.0555038452148438 34.5427894592285156
  4.1520686149597168  4.3061733245849609 34.5231018066406250
  4.4834427833557129 13.9070768356323242 34.6218757629394531
 13.2999420166015625  3.6682739257812496 34.6999816894531250
 12.7589950561523438 14.3034934997558576 34.4625511169433665
  0.0305355610325933 17.7611967027187347 40.8783302307128977
  0.1670235246419907  8.9224958419799805 40.9527664184570384
  9.0584955215454084  0.1853711009025573 40.9113464355468821
  9.2965288162231445  8.8205776214599609 40.9536018371582102
  4.6991691589355460  4.4223766326904297 40.8998260498046875
  4.5228600502014160 13.6373033523559570 40.9041061401367188
 13.5794448852539062  4.7452349662780762 40.9079093933105540
 13.4325561523437500 13.6389770507812500 40.8763084411621094
  2.4407291412353516  1.9358590841293333 37.9948997497558665
  2.6658265590667725 10.9840383529663068 38.1350746154785156
 11.7253332138061523  1.9119681119918823 38.1979866027832031
 11.1490106582641602 11.4533061981201172 38.3093070983886719
  6.5012078285217285  6.9578733444213867 37.9012413024902344
  6.6835317611694336 15.9479913711547852 37.9737625122070312
 16.1251335144042969  6.5664124488830558 38.2928047180175852
 15.7665748596191406 15.7229003906250000 37.9893569946289062
  2.2430019378662109  6.5380716323852530 38.1522827148437500
  2.2503838539123535 15.7354688644409180 37.8892517089843750
 10.5370798110961914  5.9908108711242667 37.6742286682128906
 11.1274747848510742 15.7592191696166992 38.1767654418945312
  6.9811582565307617  2.4239528179168701 37.8841934204101562
  6.9336314201354972 11.3592538833618146 38.2013549804687571
 16.0272121429443359  2.4748528003692627 38.2644119262695312
 16.3717079162597656 11.5813837051391584 38.3409614562988281
  0.0000000000000000  0.0000000000000000 47.1735610961914062
 -0.0024593239650130  9.0313997268676740 47.1735610961914062
  9.0304002761840803  0.0000000000000000 47.1735610961914062
  9.0279407501220685  9.0313997268676740 47.1735610961914062
  4.5139794349670410  4.5156998634338379 47.1742515563964844
  4.5115203857421875 13.5470991134643537 47.1742515563964844
 13.5443792343139648  4.5156998634338379 47.1742515563964844
 13.5419197082519531 13.5470991134643537 47.1742515563964844
  2.4519233703613277  2.0629522800445557 44.0401268005371165
  2.4494640827178955 11.0943517684936523 44.0401268005371165
 11.4823226928710920  2.0629522800445557 44.0401268005371165
 11.4798641204833984 11.0943517684936523 44.0401268005371165
  6.5760178565979004  6.9684472084045410 44.0401268005371165
  6.5735583305358887 15.9998464584350586 44.0401268005371165
 15.6064186096191406  6.9684472084045410 44.0401268005371165
 15.6039590835571289 15.9998464584350586 44.0401268005371165
  2.0610768795013428  6.5788145065307617 44.0400009155273509
  2.0586175918579102 15.6102142333984375 44.0400009155273509
 11.0914773941040039  6.5788145065307617 44.0400009155273509
 11.0890178680419922 15.6102142333984375 44.0400009155273509
  6.9668641090393066  2.4525938034057613 44.0400657653808665
  6.9644045829772949 11.4839935302734375 44.0400657653808665
 15.9972639083862305  2.4525938034057613 44.0400657653808665
 15.9948053359985352 11.4839935302734375 44.0400657653808665
  2.4316265583038330  2.0832188129425049 50.0684852600097656
  2.4291670322418213 11.1146183013915998 50.0684852600097656
 11.4620265960693359  2.0832188129425049 50.0684852600097656
 11.4595670700073224 11.1146183013915998 50.0684852600097656
  6.5963144302368164  6.9481806755065918 50.0684852600097656
  6.5938549041748047 15.9795799255371076 50.0684852600097656
 15.6267137527465803  6.9481806755065918 50.0684852600097656
 15.6242542266845703 15.9795799255371076 50.0684852600097656
  2.0811281204223633  6.5990090370178223 50.0690460205078125
  2.0786688327789307 15.6304082870483398 50.0690460205078125
 11.1115283966064453  6.5990090370178223 50.0690460205078125
 11.1090688705444336 15.6304082870483398 50.0690460205078125
  6.9468131065368652  2.4323906898498531 50.0690460205078125
  6.9443535804748535 11.4637899398803711 50.0690460205078125
 15.9772129058837891  2.4323906898498531 50.0690460205078125
 15.9747543334960938 11.4637899398803711 50.0690460205078125
 17.9673942113295197 18.0033287405967712 37.8344230651855469
  0.1588042825460434  9.0381011962890625 37.8490905761718750
  9.0193300247192383  0.1270065009593964 37.7519760131835938
  8.9816055297851562  8.8909950256347656 37.7697601318359375
  4.4047727584838867  4.3575143814086914 37.6854400634765625
  4.4832921028137207 13.5006027221679688 37.7386398315429759
 13.3621110916137695  4.5262360572814941 37.6536216735839844
 13.2299985885620117 13.6748123168945312 37.5905036926269531
  0.0000090280000222  0.0000090310004452 44.0429992675781250
 -0.0024502959568053  9.0314083099365234 44.0429992675781250
  9.0304088592529297  0.0000090310004452 44.0429992675781250
  9.0279493331909180  9.0314083099365234 44.0429992675781250
  4.5139703750610352  4.5156903266906738 44.0427513122558594
  4.5115113258361816 13.5470905303955078 44.0427513122558594
 13.5443706512451172  4.5156903266906738 44.0427513122558594
 13.5419111251831037 13.5470905303955078 44.0427513122558594
  0.0000000000000000  0.0000000000000000 50.4472808837890696
 -0.0024593239650130  9.0313997268676740 50.4472808837890696
  9.0304002761840803  0.0000000000000000 50.4472808837890696
  9.0279407501220685  9.0313997268676740 50.4472808837890696
  4.5139703750610352  4.5156998634338379 50.4472808837890696
  4.5115113258361816 13.5470991134643537 50.4472808837890696
 13.5443706512451172  4.5156998634338379 50.4472808837890696
 13.5419111251831055 13.5470991134643537 50.4472808837890696
