 H  C  N  I Pb 
 1.0000000000000000
    18.0608005523681641    0.0000000000000000    0.0000000000000000
    -0.0049186488613486   18.0627994537353516    0.0000000000000000
     0.0000000000000000    0.0000000000000000   62.4874992370605469
 H   C   N   I   Pb 
 143  39  47  72  24
Cartesian
  7.3641886711120605  5.1235756874084473 35.0995140075683594
  7.5037202835083008 12.5621690750122070 35.7070655822753906
 16.7149372100830078  5.2874398231506339 36.2248115539550781
 16.7491645812988281 14.7282991409301758 35.7986488342285227
  5.8332228660583496  1.6535317897796631 35.1995010375976562
  5.8477621078491202 10.3537702560424805 35.5290260314941406
 14.4441471099853516  1.8561660051345823 35.3275642395019602
  1.9837532043457018  4.3611845970153809 35.1184310913085938
  1.4135570526123060 12.3187246322631836 35.5733757019042969
 10.5625934600830078  3.3661119937896729 35.3061714172363281
 10.8192396163940430 13.7546634674072266 34.9252052307128906
  6.8273372650146484  0.3121582567691803 34.6288032531738352
  4.6000766754150391 11.2403306961059553 34.6684074401855469
 15.8018074035644531  0.8631111979484557 34.7557106018066406
  1.1483802795410158  5.2176051139831543 36.3690910339355469
 17.9214000701904297 12.5410118103027344 36.3359146118164062
  8.8592214584350586  3.1269850730895996 35.6392478942871094
  9.9690694808959943 12.5370664596557617 35.8452987670898438
  5.5634546279907227  7.9000396728515616 35.7393646240234375
  3.4335951805114746  1.2334188222885132 35.5505027770996094
 12.3342561721801758  0.6033293604850769 35.8303833007812571
  8.2332973480224609  6.5957660675048828 34.6800117492675781
  6.7577857971191397 13.7446565628051758 34.6528091430664062
 15.9777002334594727  4.4043269157409668 34.9194526672363281
 17.5926723480224609 15.7757387161254883 34.6955871582031250
  4.2160882949829102  7.1804151535034180 34.9028167724609375
  2.8027023533359170 17.7722034156322479 35.0152473449707031
 12.3074011066928506 16.9763408899307251 35.3300743103027344
 10.3147058486938477  5.5406994819641104 34.6775627136230469
  8.8597812652587891 14.6645650863647461 34.0474472045898509
 18.0576667785644531  3.6807062625885010 34.0497093200683594
  1.2790985107421868 14.2848920822143555 34.3473663330078125
  3.4086520671844482  9.2650442123413086 34.1603698730468750
  4.9234122494235635 16.9715892076492310 34.4016036987304688
 14.4928917149081826 16.9971450567245483 34.6313438415527344
  8.2104005813598633  5.3498835563659659 42.0467414855957031
  7.9821934700012207 14.7172012329101562 41.9053573608398438
 17.2970860600471532  5.1301755905151367 42.2937889099121094
 16.4909754991531408 13.3499860763549805 41.5298614501953196
  5.3723354339599600  0.7552094459533691 42.1727867126464915
  5.4378700256347656 10.1290264129638672 42.0704689025878906
 14.4064855575561506  0.9369273185729980 42.2086601257324219
 15.0350494384765625  8.5942811965942383 41.6458473205566406
  1.6440079212188721  3.0862495899200435 40.4350967407226562
  1.9451032876968384 12.6449537277221680 40.8868980407714844
 10.4281187057495117  2.9609518051147461 40.3920288085937500
 10.3613872528076154 12.1653194427490234 40.7364387512207102
  3.3467562198638916  7.4316821098327628 40.6972312927246165
  2.9519666889682412 16.7839758396148682 40.2890014648437500
 11.4712266921997070  8.6884965896606445 40.8396377563476562
 12.1452707508578897 16.5880980491638184 40.5963745117187500
  1.1441631317138672  3.4059486389160152 42.0701751708984446
  0.4542954564094543 11.8453369140625000 41.3268814086914062
  9.8728628158569336  3.3941860198974609 41.9789543151855469
  9.8092060089111328 12.8907566070556641 42.2222862243652344
  3.8542797565460205  8.0711870193481445 42.2333641052246094
  3.3267981270328164 17.2113909721374512 41.9387969970703125
 12.6156291961669922  7.8624711036682129 41.8676376342773438
 12.5858034351840598 17.1245677471160889 42.1886558532714844
  7.8913321495056143  6.0927486419677725 40.5097045898437500
  7.5315775871276855 14.9856557846069336 40.2370948791503906
 16.7323515415191686  5.7688112258911133 40.7783584594726562
 16.7498033046722412 15.0105981826782227 41.1195869445800852
  6.1784782409667969  1.1213974952697754 40.6915740966796875
  5.7772641181945801 10.6302223205566406 40.4345588684082031
 14.9346685409545881  1.4321953058242796 40.6160736083984375
 15.3212118148803711  9.8917083740234375 40.5057945251464844
  0.1201241314411163  4.5509939193725586 39.4940414428710938
  0.9327055811882019 14.7163038253784180 40.6080551147460938
  9.2474460601806641  4.6264724731445312 39.3242149353027344
  8.9767246246337891 13.4085493087768555 39.3916130065917969
  4.7050742367282510 17.9604718983173370 39.3858871459961009
  4.5025844573974609  8.9767637252807617 39.4542236328125000
 13.5755838612094522 18.0133940279483795 39.5012054443359446
 13.0974750518798828 10.0327796936035156 39.8637771606445312
  8.1032123565673828  5.4420318603515616 48.0459518432617259
  8.1007528305053711 14.4734306335449219 48.0459518432617259
 17.1336116790771484  5.4420318603515616 48.0459518432617259
 17.1311531066894531 14.4734306335449219 48.0459518432617259
  5.4410333633422852  0.9265221953392029 48.0449485778808594
  5.4385743141174316  9.9579219818115234 48.0449485778808594
 14.4714326858520490  0.9265221953392029 48.0449485778808594
 14.4689741134643555  9.9579219818115234 48.0449485778808594
  1.4218254089355467  3.0919990539550781 46.4558296203613281
  1.4193661212921143 12.1233978271484375 46.4558296203613281
 10.4522256851196289  3.0919990539550781 46.4558296203613281
 10.4497661590576172 12.1233978271484375 46.4558296203613281
  3.0899283885955806  7.6075901985168457 46.4545211791992188
  3.0874691009521484 16.6389904022216797 46.4545211791992188
 12.1203289031982422  7.6075901985168457 46.4545211791992188
 12.1178693771362305 16.6389904022216797 46.4545211791992188
  0.9247469902038573  3.5893490314483643 48.0459518432617259
  0.9222877025604248 12.6207475662231445 48.0459518432617259
  9.9551477432250977  3.5893490314483643 48.0459518432617259
  9.9526882171630859 12.6207475662231445 48.0459518432617259
  3.5868983268737793  8.1048498153686523 48.0448913574218821
  3.5844390392303462 17.1362495422363281 48.0448913574218821
 12.6172990798950195  8.1048498153686523 48.0448913574218821
 12.6148395538330078 17.1362495422363281 48.0448913574218821
  7.6061611175537109  5.9393639564514160 46.4558296203613281
  7.6037015914916992 14.9707632064819336 46.4558296203613281
 16.6365604400634766  5.9393639564514160 46.4558296203613281
 16.6341018676757812 14.9707632064819336 46.4558296203613281
  5.9380125999450684  1.4238001108169553 46.4545211791992188
  5.9355530738830566 10.4551992416381836 46.4545211791992188
 14.9684123992919904  1.4238001108169553 46.4545211791992188
 14.9659538269042951 10.4551992416381836 46.4545211791992188
 -0.0011664569610730  4.5157265663146973 45.3548011779785156
 -0.0036257810425013 13.5471258163452148 45.3548011779785156
  9.0292339324951172  4.5157265663146973 45.3548011779785156
  9.0267744064331037 13.5471258163452148 45.3548011779785156
  4.5152091979980469  0.0000000000000000 45.3536758422851562
  4.5127501487731934  9.0313997268676740 45.3536758422851562
 13.5456094741821289  0.0000000000000000 45.3536758422851562
 13.5431499481201172  9.0313997268676740 45.3536758422851562
 14.4316129684448224  9.1788692474365234 32.1173706054687500
 15.8592844009399414  9.0384378433227539 33.1713447570800781
 13.6935644149780256 11.1731510162353516 33.2493247985839844
 13.6586999893188477 11.2185840606689453 35.0153083801269602
 12.4115324020385742  8.0033569335937500 34.3407592773437500
 12.0719461441040039  9.6673135757446289 34.8265266418457031
 14.3795833587646484  7.6351289749145508 35.3878364562988352
 15.6065464019775391  8.8997497558593750 35.5274810791015696
 15.4844236373901367  6.7469339370727539 33.6664009094238281
 13.7818975448608381  6.7963767051696777 33.2476119995117259
 14.1748781204223633  6.9185914993286133 30.9115467071533239
 15.8592939376831055  7.3961606025695801 31.0776786804199254
 16.1875419616699219 11.1464948654174787 33.2329597473144531
 16.2220363616943359 10.9350605010986328 35.0028266906738281
 15.5878248214721680 12.4345045089721662 34.3019409179687500
 10.8460988998413086  9.1657629013061523 32.8087348937988352
 12.2904939651489258  8.6986227035522461 31.9004840850830114
 12.0355863571166992 10.3916406631469709 32.4178085327148438
 12.7280015945434570  9.0490980148315430 36.6980743408203125
 14.0084314346313459 10.2868471145629883 36.9112510681152415
 14.1946268081665021  8.6708145141601562 37.5779838562011719
 14.8307847976684553  4.6625480651855469 31.9973888397216797
 15.3124284744262695  4.9548196792602539 30.3414440155029297
 16.6960258483886719  2.8754446506500244 31.1572093963623047
 17.5810565948486328  6.9467725753784180 32.3018531799316406
  1.0102596282959000  2.2778589725494385 31.4766273498535192
  1.8664321899414080  6.3431510925292969 32.6105957031250000
  2.6618137359619123  4.0194554328918457 32.1898002624511719
 18.0114936828613281  4.3079142570495605 34.9514579772949290
  0.4521484375000008 14.0070667266845703 35.0069923400878906
  9.4147253036499006  4.9697070121765137 34.9155502319335938
  8.7934207916259766 13.7887172698974609 34.7000007629394531
  4.3535928726196289  9.2107505798339844 34.7172164916992259
  4.8197011211886993 17.9985643029212952 34.7725982666015625
 14.0520347813144308 17.9331944137811661 35.0022888183593750
  0.1543700993061065  4.4278597831726074 40.5779685974121094
  0.3352698981761932 13.8622541427612287 40.9520454406738281
  9.1573400497436523  4.5310263633728027 40.4112968444824290
  8.9428853988647461 13.5698003768920881 40.4750404357910156
  4.5644631385803223  9.0271644592285156 40.5442276000976634
  4.5506724575534463 17.9903709664940834 40.4654846191406250
 13.3848638534545898  9.3018121719360352 40.6311874389648438
 13.5431179264560342 18.0340162254869938 40.5936088562011790
  9.0289716720581055  4.5156092643737793 46.4455223083496165
  9.0265130996704102 13.5470085144042969 46.4455223083496165
 18.0593719482421875  4.5156092643737793 46.4455223083496165
 18.0569133758544922 13.5470085144042969 46.4455223083496165
  4.5152091979980469  0.0000180629995157 46.4442062377929759
  4.5127501487731934  9.0314178466796857 46.4442062377929759
 13.5456094741821289  0.0000180629995157 46.4442062377929759
 13.5431499481201172  9.0314178466796857 46.4442062377929759
 16.9495258331298828  4.9582767486572257 31.6761760711669957
 17.4091434478759766  3.6465737819671631 31.4648323059082067
 17.8873825073242188  5.9187312126159668 32.0873146057128906
  0.6885108947753943  3.3055922985076904 31.6338748931884766
  1.1727085113525397  5.5761585235595703 32.2645187377929688
  1.6165828704833984  4.2748727798461914 32.0223579406738281
 14.8178071975708008  8.7066679000854492 33.0389137268066477
 14.2201833724975586 10.8395471572875977 34.1494750976562500
 12.5469675064086914  9.0502977371215820 34.0555038452148509
 14.5247154235839844  8.7185678482055664 35.4895019531250000
 14.7664709091186523  7.1872272491455078 32.9614295959472656
 15.0765676498413086  6.7493848800659171 31.5199737548828161
 15.6472139358520508 11.3458652496337891 34.1667900085449219
 11.9224739074707031  9.3446693420410156 32.7061271667480540
 13.8102750778198242  9.2310466766357422 36.7170906066894531
 15.4946050643920898  5.2832145690917969 31.3754425048828161
  1.0832118988037116  4.6361942291259757 35.5271987915039062
  0.5457973480224599 12.8575611114501935 35.6290168762207031
  9.6026296615600586  3.7072067260742188 35.2280540466308594
  9.9240312576293945 13.2932529449462873 35.1491699218750000
  8.2561883926391602  5.5813789367675781 34.8467330932617188
  7.6134366989135742 13.3047971725463867 35.0044441223144531
 16.8346614837646484  4.6939883232116699 35.3889770507812500
 17.4880943298339844 14.8273124694824201 35.0878067016601562
  4.7512345314025870  8.0236940383911133 35.1269454956054688
  3.6154091358184814  0.3295360505580902 35.1068420410156250
 12.7875045994296652 17.8799837082624435 35.3663864135742188
  5.8917965888977051  0.6983326673507690 34.8345756530761790
  5.0009927749633789 10.3245840072631836 34.9563560485839844
 14.8125867843627930  0.9452050924301147 35.0413093566894531
  1.0283446311950684  3.5831830501556396 41.0714187622070312
  0.9429924488067627 12.7047824859619123 41.0680618286132812
  9.8592672348022461  3.5693192481994629 40.9772071838378906
  9.7437801361083984 12.8267707824707031 41.2108764648437571
  3.8890526294708252  8.1269998550415039 41.2196159362793040
  3.5521222809329625 17.2989785075187683 40.9473075866699219
 12.4452800750732422  8.5539684295654297 41.1409263610839844
 12.7224706867709756 17.1966257095336914 41.1842994689941406
  8.3752412796020508  5.3722290992736816 41.0411682128906250
  8.0959835052490234 14.4715766906738281 40.9197998046875000
 17.3668605685234105  5.1480426788330078 41.2788314819335938
 17.1266946196556127 14.0699119567871094 41.1994094848632812
  5.3964581489562988  0.6429196596145630 41.1640625000000000
  5.3007535934448242  9.9829311370849609 41.0634040832519531
 14.3335161209106445  0.8368674516677856 41.1928558349609375
 14.6641616821289062  9.2597875595092773 40.9603500366210938
  0.8273094892501831  3.6869695186614990 47.0359649658203125
  0.8248501420021057 12.7183685302734375 47.0359649658203125
  9.8577098846435547  3.6869695186614990 47.0359649658203125
  9.8552503585815412 12.7183685302734375 47.0359649658203125
  3.6843190193176270  8.2023353576660156 47.0346527099609375
  3.6818594932556152 17.2337341308593750 47.0346527099609375
 12.7147188186645508  8.2023353576660156 47.0346527099609375
 12.7122592926025391 17.2337341308593750 47.0346527099609375
  8.2006769180297852  5.3445744514465332 47.0360260009765696
  8.1982173919677734 14.3759746551513672 47.0360260009765696
 17.2310771942138672  5.3445744514465332 47.0360260009765696
 17.2286186218261719 14.3759746551513672 47.0360260009765696
  5.3436489105224600  0.8290914893150328 47.0346527099609375
  5.3411893844604483  9.8604917526245117 47.0346527099609375
 14.3740482330322266  0.8290914893150328 47.0346527099609375
 14.3715896606445312  9.8604917526245117 47.0346527099609375
 14.0376205444335938  9.3284692764282227 34.1758232116699290
  9.2416071156039834 17.7355433702468872 34.5567398071289134
  8.5582199096679688  9.2238168716430664 34.5635299682617259
  0.1343052834272385  0.2323606908321381 34.4429969787597656
  0.5631188154220581  8.8251209259033203 34.6407012939453125
  4.6665291786193848  4.3352336883544922 34.6362838745117188
  4.1497883796691895 13.8385000228881836 34.4162940979003906
 13.2662076950073242  4.1539807319641113 34.6535911560058594
 13.2113647460937500 14.3656330108642578 34.6275558471679688
 17.9868541443720460 17.7786155045032501 40.8781242370605540
  0.1709337234497070  9.1203050613403320 40.9311180114746094
  8.9832735061645508  0.0308299995958805 40.8963584899902415
  8.9135036468505859  9.0741891860961914 40.8635673522949219
  4.7452321052551270  4.3641071319580078 40.9431037902832031
  4.4373331069946289 13.6533002853393555 40.8400917053222727
 13.4448394775390625  4.7879061698913574 40.9528350830078125
 13.5229377746582031 13.2531166076660156 40.9203262329101562
  2.4463424682617188  2.1260251998901367 38.0425491333007812
  2.6576206684112544 10.9922056198120099 37.8888893127441477
 11.5267877578735334  2.0379047393798828 38.0357551574707031
 11.1736354827880859 11.3913755416870117 37.9454269409179759
  6.6350011825561523  6.9447093009948730 37.9942970275878906
  6.5731739997863761 15.9924526214599609 37.8391380310058594
 16.0238018035888672  6.6121740341186523 38.2091369628906250
 15.5629520416259766 16.0848464965820312 37.8835144042968750
  2.2879674434661865  6.6650371551513672 38.2056503295898438
  2.0818383693695068 15.7659416198730469 37.8564567565917969
 11.0905742645263654  6.6116752624511719 37.6104850769043040
 11.1163291931152344 15.5940828323364258 38.2625236511230469
  7.1473131179809570  2.5120379924774170 37.7236099243164062
  6.8446350097656250 11.4461317062377912 37.9485626220703125
 15.9324550628662109  2.4321496486663818 38.2469749450683594
 16.2880439758300781 11.6905794143676758 38.1178588867187500
  0.0000000000000000  0.0000000000000000 47.1735610961914062
 -0.0024593239650130  9.0313997268676740 47.1735610961914062
  9.0304002761840803  0.0000000000000000 47.1735610961914062
  9.0279407501220685  9.0313997268676740 47.1735610961914062
  4.5139794349670410  4.5156998634338379 47.1742515563964844
  4.5115203857421875 13.5470991134643537 47.1742515563964844
 13.5443792343139648  4.5156998634338379 47.1742515563964844
 13.5419197082519531 13.5470991134643537 47.1742515563964844
  2.4519233703613277  2.0629522800445557 44.0401268005371165
  2.4494640827178955 11.0943517684936523 44.0401268005371165
 11.4823226928710920  2.0629522800445557 44.0401268005371165
 11.4798641204833984 11.0943517684936523 44.0401268005371165
  6.5760178565979004  6.9684472084045410 44.0401268005371165
  6.5735583305358887 15.9998464584350586 44.0401268005371165
 15.6064186096191406  6.9684472084045410 44.0401268005371165
 15.6039590835571289 15.9998464584350586 44.0401268005371165
  2.0610768795013428  6.5788145065307617 44.0400009155273509
  2.0586175918579102 15.6102142333984375 44.0400009155273509
 11.0914773941040039  6.5788145065307617 44.0400009155273509
 11.0890178680419922 15.6102142333984375 44.0400009155273509
  6.9668641090393066  2.4525938034057613 44.0400657653808665
  6.9644045829772949 11.4839935302734375 44.0400657653808665
 15.9972639083862305  2.4525938034057613 44.0400657653808665
 15.9948053359985352 11.4839935302734375 44.0400657653808665
  2.4316265583038330  2.0832188129425049 50.0684852600097656
  2.4291670322418213 11.1146183013915998 50.0684852600097656
 11.4620265960693359  2.0832188129425049 50.0684852600097656
 11.4595670700073224 11.1146183013915998 50.0684852600097656
  6.5963144302368164  6.9481806755065918 50.0684852600097656
  6.5938549041748047 15.9795799255371076 50.0684852600097656
 15.6267137527465803  6.9481806755065918 50.0684852600097656
 15.6242542266845703 15.9795799255371076 50.0684852600097656
  2.0811281204223633  6.5990090370178223 50.0690460205078125
  2.0786688327789307 15.6304082870483398 50.0690460205078125
 11.1115283966064453  6.5990090370178223 50.0690460205078125
 11.1090688705444336 15.6304082870483398 50.0690460205078125
  6.9468131065368652  2.4323906898498531 50.0690460205078125
  6.9443535804748535 11.4637899398803711 50.0690460205078125
 15.9772129058837891  2.4323906898498531 50.0690460205078125
 15.9747543334960938 11.4637899398803711 50.0690460205078125
 18.0089967958629167  0.1188977062702179 37.7501983642578125
  0.1816480755805969  9.0493278503417969 37.7286186218261719
  9.0580972889438272 17.9528003036975896 37.7079086303710938
  9.0279111862182617  9.0316362380981445 37.6523895263671875
  4.6123180389404297  4.4839229583740234 37.8459129333496094
  4.4021277427673340 13.6588354110717773 37.6783180236816406
 13.5019283294677734  4.5376362800598145 37.8523178100585938
 13.5619392395019531 13.6821069717407227 37.7866210937500000
  0.0000090280000222  0.0000090310004452 44.0429992675781250
 -0.0024502959568053  9.0314083099365234 44.0429992675781250
  9.0304088592529297  0.0000090310004452 44.0429992675781250
  9.0279493331909180  9.0314083099365234 44.0429992675781250
  4.5139703750610352  4.5156903266906738 44.0427513122558594
  4.5115113258361816 13.5470905303955078 44.0427513122558594
 13.5443706512451172  4.5156903266906738 44.0427513122558594
 13.5419111251831037 13.5470905303955078 44.0427513122558594
  0.0000000000000000  0.0000000000000000 50.4472808837890696
 -0.0024593239650130  9.0313997268676740 50.4472808837890696
  9.0304002761840803  0.0000000000000000 50.4472808837890696
  9.0279407501220685  9.0313997268676740 50.4472808837890696
  4.5139703750610352  4.5156998634338379 50.4472808837890696
  4.5115113258361816 13.5470991134643537 50.4472808837890696
 13.5443706512451172  4.5156998634338379 50.4472808837890696
 13.5419111251831055 13.5470991134643537 50.4472808837890696
