 H  C  N  I Pb 
 1.0000000000000000
    18.0608005523681641    0.0000000000000000    0.0000000000000000
    -0.0049186488613486   18.0627994537353516    0.0000000000000000
     0.0000000000000000    0.0000000000000000   62.4874992370605469
 H   C   N   I   Pb 
 143  39  47  72  24
Cartesian
  7.8968276977539062  5.6027340888977042 35.8090133666992188
  7.7384881973266602 15.0947885513305664 35.7986640930175781
 17.7185020446777344  5.7385540008544922 36.3840065002441406
 17.4009685516357422 14.6206016540527344 36.2961769104003906
  5.6483792522922158 17.3457394838333130 35.9795722961425852
  5.8600106239318848 10.1656417846679670 35.9409942626953125
 14.3695163726806623  1.2968747615814207 36.2736091613769531
  0.6130237579345693  2.4751391410827637 35.1048088073730469
  1.0601501464843746 11.5967521667480469 35.1409111022949219
 10.4092769622802717  3.2990622520446773 34.5335540771484446
  9.5382862091064453 11.9808044433593732 35.2639045715332031
  6.4031672477722168  0.4163151085376740 34.8839302062988281
  5.0647282600402832 11.2731704711914045 34.8292007446289062
 15.6723308563232422  0.6924763917922974 35.2763900756835938
  0.0957241058349602  3.2883265018463135 36.5742721557617188
  0.2151775360107445 12.2909841537475586 36.5077362060546875
 10.1540536880493164  4.6333584785461417 35.6405754089355469
  8.2973957061767578 12.6509275436401367 36.2331962585449219
  4.9820923805236816  7.8520975112915039 36.0628509521484375
  3.1806465843692417 17.0140346288681030 35.8101844787597656
 12.2218675613403303  0.1892956495285034 36.1404228210449219
  6.6423559188842773  4.8144617080688477 34.8845405578613352
  8.7831115722656250 15.9176015853881836 34.6607856750488281
  0.2789382934570317  6.5140080451965332 34.9451026916503906
 17.8470973968505859 15.4788961410522461 34.8747558593750000
  3.5122511386871338  7.5343437194824219 35.1390914916992259
  2.3434750298038121 18.0243033431470394 34.6642189025878906
 12.1553243855014443 16.7795761823654175 35.1426811218261719
  8.1334486007690430  3.2825345993041988 33.9023056030273438
 10.0274658203125000 13.9970550537109375 34.1943817138671875
  0.7961921691894543  4.4835066795349121 33.8959884643554688
  0.8892536163330058 13.6039686203002930 33.9234313964843750
  3.4834470748901367  9.6591110229492188 34.1837158203125000
  4.3137717247009277  1.0117679834365845 33.9243927001953196
 14.3197387913241982 16.9884729385375977 34.4388504028320312
  8.4896898269653320  5.8165225982666016 42.0387420654296946
  7.8155899047851562 14.7783060073852539 41.9709205627441406
 17.5304776430130005  4.9956259727478027 42.6068611145019531
 16.6059046983718908 13.8802413940429688 42.0434608459472727
  5.4079241752624512  0.9891809821128845 42.1355476379394531
  5.5407714843749991  9.8450889587402344 42.1724700927734446
 14.2620096206665039  1.1771255731582642 42.1778297424316406
 14.3057174682617188 10.6896677017211914 41.7374420166015625
  1.5577257871627808  3.0225222110748291 40.2973098754882812
  1.7967417240142822 12.6119804382324219 40.9597663879394531
 10.4428653717041016  3.0157253742218018 40.7270469665527344
 10.3255624771118164 12.2502117156982422 41.0428047180175852
  3.2816493511199951  7.4167385101318359 40.6153450012207031
  3.1252791145816445 16.6188145875930786 40.5895996093750000
 12.7229871749877930  7.3897686004638663 41.2896614074707031
 12.1880201557651162 16.6205772161483765 40.6419639587402415
  1.2482008934020996  3.2355828285217285 42.0087471008300781
  0.6434503197669982 12.3917217254638654 42.2323532104492188
 10.5423974990844727  4.3095293045043945 41.9041671752929688
  9.5654764175415039 12.9273433685302717 42.4723930358886719
  3.8265798091888428  7.8714523315429688 42.1865653991699219
  3.5532666901126504 17.1821323633193970 42.1563148498535156
 12.5985898971557617  8.8115825653076172 42.3043899536132884
 12.4529422977939230 17.3627293705940247 42.1901473999023509
  7.1963181495666504  5.3594493865966788 40.9713249206542969
  7.6099848747253418 15.1107921600341797 40.2630424499511790
 16.8422144651412964  5.7907905578613272 41.2159042358398438
 16.5769110918045044 14.9278259277343732 40.6589508056640625
  5.9336948394775391  1.4017419815063477 40.5353355407714915
  5.8545413017272949 10.4809436798095703 40.5935478210449290
 14.9889554977416974  1.4225395917892456 40.6191444396972656
 15.2265377044677734 10.4379529953002930 40.2840652465820312
  0.0348900407552719  4.6158671379089355 39.6910324096679688
  0.5763441920280457 14.1763153076171857 39.8590316772461009
  8.3041610717773438  3.5930075645446777 40.0388298034668040
  9.1684026718139648 13.5626430511474609 39.5756072998046875
  4.5718559483066201 17.9982046931982040 39.4531021118164062
  4.5134763717651358  9.0266809463500977 39.4956855773925781
 13.7375616291537881 17.8532458543777466 39.5485305786132884
 14.3493642807006836  8.2979288101196289 39.9200363159179688
  8.1032123565673828  5.4420318603515616 48.0459518432617259
  8.1007528305053711 14.4734306335449219 48.0459518432617259
 17.1336116790771484  5.4420318603515616 48.0459518432617259
 17.1311531066894531 14.4734306335449219 48.0459518432617259
  5.4410333633422852  0.9265221953392029 48.0449485778808594
  5.4385743141174316  9.9579219818115234 48.0449485778808594
 14.4714326858520490  0.9265221953392029 48.0449485778808594
 14.4689741134643555  9.9579219818115234 48.0449485778808594
  1.4218254089355467  3.0919990539550781 46.4558296203613281
  1.4193661212921143 12.1233978271484375 46.4558296203613281
 10.4522256851196289  3.0919990539550781 46.4558296203613281
 10.4497661590576172 12.1233978271484375 46.4558296203613281
  3.0899283885955806  7.6075901985168457 46.4545211791992188
  3.0874691009521484 16.6389904022216797 46.4545211791992188
 12.1203289031982422  7.6075901985168457 46.4545211791992188
 12.1178693771362305 16.6389904022216797 46.4545211791992188
  0.9247469902038573  3.5893490314483643 48.0459518432617259
  0.9222877025604248 12.6207475662231445 48.0459518432617259
  9.9551477432250977  3.5893490314483643 48.0459518432617259
  9.9526882171630859 12.6207475662231445 48.0459518432617259
  3.5868983268737793  8.1048498153686523 48.0448913574218821
  3.5844390392303462 17.1362495422363281 48.0448913574218821
 12.6172990798950195  8.1048498153686523 48.0448913574218821
 12.6148395538330078 17.1362495422363281 48.0448913574218821
  7.6061611175537109  5.9393639564514160 46.4558296203613281
  7.6037015914916992 14.9707632064819336 46.4558296203613281
 16.6365604400634766  5.9393639564514160 46.4558296203613281
 16.6341018676757812 14.9707632064819336 46.4558296203613281
  5.9380125999450684  1.4238001108169553 46.4545211791992188
  5.9355530738830566 10.4551992416381836 46.4545211791992188
 14.9684123992919904  1.4238001108169553 46.4545211791992188
 14.9659538269042951 10.4551992416381836 46.4545211791992188
 -0.0011664569610730  4.5157265663146973 45.3548011779785156
 -0.0036257810425013 13.5471258163452148 45.3548011779785156
  9.0292339324951172  4.5157265663146973 45.3548011779785156
  9.0267744064331037 13.5471258163452148 45.3548011779785156
  4.5152091979980469  0.0000000000000000 45.3536758422851562
  4.5127501487731934  9.0313997268676740 45.3536758422851562
 13.5456094741821289  0.0000000000000000 45.3536758422851562
 13.5431499481201172  9.0313997268676740 45.3536758422851562
 14.0027618408203125 10.0198545455932617 32.5677795410156321
 13.0107698440551758  8.5673341751098633 32.9262771606445312
 15.7700376510620117  9.0432071685791016 33.9232635498046875
 15.4540395736694336  8.6088638305664062 35.6100959777832031
 13.4036846160888672 11.5481033325195312 34.9988059997558594
 14.4886655807495117 10.7600822448730451 36.1783943176269602
 12.0481052398681641  9.8691625595092773 35.6835517883300781
 12.2420930862426758  8.1941070556640625 35.0669593811035156
 11.0728769302368164  9.9357213973999023 33.6372451782226562
 12.0562133789062500 11.4226770401000977 33.6117630004882812
 10.9434747695922852 11.6832113265991211 31.6376552581787145
 12.4001045227050781 10.8882331848144531 31.0430889129638707
 14.7418289184570312  6.9965524673461905 33.1100997924804688
 13.8509330749511719  6.7561974525451660 34.6226119995117188
 15.5851020812988281  6.5336685180664062 34.6149940490722656
 15.6004476547241211 12.4833393096923828 34.8250770568847727
 15.3133916854858398 11.6482200622558594 33.3220443725585938
 16.3954563140869141 10.9381589889526367 34.5603141784667969
 13.6506395339965820  9.4243602752685547 37.5374717712402344
 13.9949188232421875  7.7868862152099600 36.8817596435546875
 12.3859567642211914  8.1706867218017578 37.4937973022460938
  9.6510295867919922  9.6011600494384766 31.5877037048339879
 10.4117002487182617  9.9539213180541992 30.0180644989013672
 12.5287857055664062  8.6565217971801758 29.3476753234863281
 10.1315517425537109  7.5567073822021484 32.7273826599121165
 13.7603664398193359  6.4963955879211417 29.5117664337158239
 11.3378105163574219  5.4138813018798828 32.9116592407226562
 13.1577501296997070  4.8798103332519531 31.3269920349121129
  0.3971042633056641  4.4847307205200195 34.9118652343750000
  0.4322223663330104 13.5465621948242188 34.8996658325195312
  8.4773616790771484  4.0292997360229492 34.6095886230468821
  9.1933202743530273 13.9444227218627930 34.8958663940429688
  4.2755217552185059  9.4041881561279279 34.9071998596191406
  4.3708310127258301  0.2429120540618896 34.7107391357421875
 13.9087719181552529 17.7222006320953369 35.1498641967773438
  0.1619511842727661  4.4124636650085449 40.7281150817871094
  0.1595828533172607 13.7796087265014648 40.7733879089355469
  8.8057250976562500  4.1872687339782715 40.8030967712402344
  8.9717082977294922 13.6790790557861328 40.6266746520996165
  4.5560946464538574  8.9378242492675781 40.5703163146972656
  4.5357979992404580 18.0520974379032850 40.5298118591308665
 13.9707841873168928  8.9039592742919922 40.7523689270019531
 13.6040596226230246 18.0568675436079502 40.6019363403320384
  9.0289716720581055  4.5156092643737793 46.4455223083496165
  9.0265130996704102 13.5470085144042969 46.4455223083496165
 18.0593719482421875  4.5156092643737793 46.4455223083496165
 18.0569133758544922 13.5470085144042969 46.4455223083496165
  4.5152091979980469  0.0000180629995157 46.4442062377929759
  4.5127501487731934  9.0314178466796857 46.4442062377929759
 13.5456094741821289  0.0000180629995157 46.4442062377929759
 13.5431499481201172  9.0314178466796857 46.4442062377929759
 11.2558460235595703  8.2610063552856445 31.0541858673095703
 12.2773714065551758  7.9411120414733887 30.1558513641357422
 10.9218025207519531  7.3268041610717773 32.0248336791992188
 12.9531679153442383  6.7351460456848145 30.2275905609130895
 11.5902166366577148  6.1239743232727051 32.1248359680175852
 12.6177043914794922  5.8189482688903800 31.2336750030517614
 13.2208118438720703  9.6068344116210938 33.2156257629394602
 15.0324974060058594  8.5926847457885742 34.5961761474609375
 14.2733793258666992 10.8763656616210938 35.1049728393554688
 12.7310686111450195  9.0210313796997070 35.5957641601562500
 11.9115400314331055 10.4375295639038086 33.1117706298828125
 11.5010967254638654 10.7159957885742188 31.6569919586181676
 14.7707271575927734  7.1446676254272461 34.1951370239257812
 15.4568328857421875 11.4854536056518555 34.4006118774414062
 13.2419624328613263  8.5858116149902344 36.9579696655273438
 10.6154460906982404  9.6261272430419922 31.0425891876220739
  0.3679256439208979  3.3429667949676514 35.5741195678710938
  0.6049537658691381 12.4252576828002930 35.5557289123535156
  9.7604026794433594  3.9998416900634766 34.9179191589355469
  9.0026578903198242 12.8025140762329102 35.5105934143066477
  7.6412506103515616  4.9132051467895508 35.0728340148925781
  8.5027475357055664 15.0268697738647461 35.0816268920898438
  0.0014686584472648  5.6369948387145996 35.4084358215332031
 17.8004264831542969 14.5705804824829102 35.3475608825683594
  4.2738494873046875  8.1741867065429688 35.3977355957031250
  3.2460417011752725 17.7034063637256622 35.0629272460937500
 12.6429352024570107 17.6278350353241002 35.4523468017578196
  5.5293072918429971 18.0599984414875507 35.2522811889648438
  5.1283693313598624 10.3262300491332990 35.2521209716796875
 14.7068634033203125  0.5885342955589294 35.6393508911132812
  1.0502971410751343  3.4847993850708008 41.0531806945800781
  0.9129542708396912 12.8535137176513672 41.3717765808105540
 10.0171842575073224  3.8109238147735596 41.1716346740722656
  9.6584844589233398 12.9103679656982422 41.4487686157226562
  3.8558080196380611  8.0223140716552734 41.1628150939941406
  3.6812245110049844 17.2369534373283422 41.1325645446777415
 13.0421094894409180  8.3547105789184570 41.5020332336425781
 12.6901268223300576 17.2957767248153687 41.1844062805175781
  8.1453056335449219  5.1870846748352051 41.2904167175292969
  8.0777845382690430 14.5702838897705078 40.9923248291015625
 17.4922819137573242  5.0961604118347159 41.5808410644531321
 17.0618762373924255 14.2076740264892560 41.1936035156250000
  5.3288278579711914  0.8305311203002930 41.1067390441894531
  5.3666110038757315  9.8146963119506818 41.1520423889160156
 14.3161983489990217  0.9103862643241881 41.1745758056640625
 14.4886054992675781 10.0732564926147461 40.9486083984375000
  0.8273094892501831  3.6869695186614990 47.0359649658203125
  0.8248501420021057 12.7183685302734375 47.0359649658203125
  9.8577098846435547  3.6869695186614990 47.0359649658203125
  9.8552503585815412 12.7183685302734375 47.0359649658203125
  3.6843190193176270  8.2023353576660156 47.0346527099609375
  3.6818594932556152 17.2337341308593750 47.0346527099609375
 12.7147188186645508  8.2023353576660156 47.0346527099609375
 12.7122592926025391 17.2337341308593750 47.0346527099609375
  8.2006769180297852  5.3445744514465332 47.0360260009765696
  8.1982173919677734 14.3759746551513672 47.0360260009765696
 17.2310771942138672  5.3445744514465332 47.0360260009765696
 17.2286186218261719 14.3759746551513672 47.0360260009765696
  5.3436489105224600  0.8290914893150328 47.0346527099609375
  5.3411893844604483  9.8604917526245117 47.0346527099609375
 14.3740482330322266  0.8290914893150328 47.0346527099609375
 14.3715896606445312  9.8604917526245117 47.0346527099609375
 13.8274374008178711  9.5169916152954102 34.6111602783203125
  9.1209278106689453  0.3697485923767090 34.5599212646484446
  8.5222597122192383  9.1513566970825195 34.7578697204589844
 17.8659036615863442 18.0257230810821056 34.3637466430664062
  0.6851838827133179  8.9325456619262695 34.5650749206542969
  4.1705079078674316  4.2175359725952148 34.5835723876953125
  4.6532254219055167 13.7389898300170898 34.5625000000000000
 13.3789052963256836  3.7294857501983638 34.6937522888183594
 12.8414983749389648 14.2663593292236328 34.2799491882324219
  0.0258415872231126 17.8860829025506973 40.9218597412109375
  0.2035637795925140  8.9539165496826172 40.9799804687500000
  9.0208234786987305  0.1603378057479858 40.9111747741699219
  9.1424341201782209  8.9053440093994141 40.9643898010253906
  4.6234884262084961  4.4179515838623047 40.9213218688964844
  4.4783167839050293 13.5925836563110352 40.9230384826660156
 13.4601964950561523  4.8166890144348145 40.9145507812500000
 13.5593414306640625 13.5870409011840820 40.8609619140625000
  2.4972984790802002  1.8878055810928343 38.0858955383300781
  2.6559169292449947 10.9624471664428711 38.1170921325683594
 11.7153530120849592  1.8536728620529175 38.2227478027343750
 11.1466798782348633 11.4966764450073242 38.3868293762207031
  6.4633154869079590  7.0417470932006836 38.0614280700683594
  6.5756716728210440 16.0611305236816406 37.9744377136230540
 16.1321983337402344  6.5485463142395020 38.3655357360839844
 15.6923055648803693 15.8417444229125959 38.0964546203613281
  2.1588983535766602  6.4635033607482910 38.1721801757812500
  2.1803908348083496 15.7060136795043945 37.9689979553222656
 10.4612464904785156  5.9469270706176758 37.7672157287597656
 11.1014642715454084 15.6967010498046875 38.2112388610839844
  6.9404006004333496  2.3872036933898926 37.8734016418457031
  7.0011048316955558 11.5307817459106445 38.1764030456542969
 16.0727806091308594  2.5064370632171631 38.3371925354003906
 16.4542636871337891 11.6491622924804688 38.4172401428222727
  0.0000000000000000  0.0000000000000000 47.1735610961914062
 -0.0024593239650130  9.0313997268676740 47.1735610961914062
  9.0304002761840803  0.0000000000000000 47.1735610961914062
  9.0279407501220685  9.0313997268676740 47.1735610961914062
  4.5139794349670410  4.5156998634338379 47.1742515563964844
  4.5115203857421875 13.5470991134643537 47.1742515563964844
 13.5443792343139648  4.5156998634338379 47.1742515563964844
 13.5419197082519531 13.5470991134643537 47.1742515563964844
  2.4519233703613277  2.0629522800445557 44.0401268005371165
  2.4494640827178955 11.0943517684936523 44.0401268005371165
 11.4823226928710920  2.0629522800445557 44.0401268005371165
 11.4798641204833984 11.0943517684936523 44.0401268005371165
  6.5760178565979004  6.9684472084045410 44.0401268005371165
  6.5735583305358887 15.9998464584350586 44.0401268005371165
 15.6064186096191406  6.9684472084045410 44.0401268005371165
 15.6039590835571289 15.9998464584350586 44.0401268005371165
  2.0610768795013428  6.5788145065307617 44.0400009155273509
  2.0586175918579102 15.6102142333984375 44.0400009155273509
 11.0914773941040039  6.5788145065307617 44.0400009155273509
 11.0890178680419922 15.6102142333984375 44.0400009155273509
  6.9668641090393066  2.4525938034057613 44.0400657653808665
  6.9644045829772949 11.4839935302734375 44.0400657653808665
 15.9972639083862305  2.4525938034057613 44.0400657653808665
 15.9948053359985352 11.4839935302734375 44.0400657653808665
  2.4316265583038330  2.0832188129425049 50.0684852600097656
  2.4291670322418213 11.1146183013915998 50.0684852600097656
 11.4620265960693359  2.0832188129425049 50.0684852600097656
 11.4595670700073224 11.1146183013915998 50.0684852600097656
  6.5963144302368164  6.9481806755065918 50.0684852600097656
  6.5938549041748047 15.9795799255371076 50.0684852600097656
 15.6267137527465803  6.9481806755065918 50.0684852600097656
 15.6242542266845703 15.9795799255371076 50.0684852600097656
  2.0811281204223633  6.5990090370178223 50.0690460205078125
  2.0786688327789307 15.6304082870483398 50.0690460205078125
 11.1115283966064453  6.5990090370178223 50.0690460205078125
 11.1090688705444336 15.6304082870483398 50.0690460205078125
  6.9468131065368652  2.4323906898498531 50.0690460205078125
  6.9443535804748535 11.4637899398803711 50.0690460205078125
 15.9772129058837891  2.4323906898498531 50.0690460205078125
 15.9747543334960938 11.4637899398803711 50.0690460205078125
 17.9211494186893106 18.0443583093583584 37.8644599914550781
  0.1552349925041199  9.0058746337890625 37.9057540893554688
  9.0846090316772461  0.1703497171401978 37.7723045349121165
  8.9713592529296875  8.9053049087524414 37.8240928649902415
  4.4158678054809570  4.3580684661865234 37.7209167480468750
  4.4777164459228516 13.4751033782958984 37.7004776000976562
 13.3623456954956055  4.4551463127136230 37.6856384277343750
 13.2645158767700195 13.6225671768188477 37.6370544433593750
  0.0000090280000222  0.0000090310004452 44.0429992675781250
 -0.0024502959568053  9.0314083099365234 44.0429992675781250
  9.0304088592529297  0.0000090310004452 44.0429992675781250
  9.0279493331909180  9.0314083099365234 44.0429992675781250
  4.5139703750610352  4.5156903266906738 44.0427513122558594
  4.5115113258361816 13.5470905303955078 44.0427513122558594
 13.5443706512451172  4.5156903266906738 44.0427513122558594
 13.5419111251831037 13.5470905303955078 44.0427513122558594
  0.0000000000000000  0.0000000000000000 50.4472808837890696
 -0.0024593239650130  9.0313997268676740 50.4472808837890696
  9.0304002761840803  0.0000000000000000 50.4472808837890696
  9.0279407501220685  9.0313997268676740 50.4472808837890696
  4.5139703750610352  4.5156998634338379 50.4472808837890696
  4.5115113258361816 13.5470991134643537 50.4472808837890696
 13.5443706512451172  4.5156998634338379 50.4472808837890696
 13.5419111251831055 13.5470991134643537 50.4472808837890696
