 H  C  N  I Pb 
 1.0000000000000000
    18.0608005523681641    0.0000000000000000    0.0000000000000000
    -0.0049186488613486   18.0627994537353516    0.0000000000000000
     0.0000000000000000    0.0000000000000000   62.4874992370605469
 H   C   N   I   Pb 
 143  39  47  72  24
Cartesian
  7.4210438728332520  4.9879283905029297 35.4587631225585938
  7.4254159927368164 12.7256031036376953 35.8275222778320312
 16.7762184143066406  5.1942486763000488 36.3221969604492188
 16.8324260711669922 14.6900444030761719 35.8602294921875000
  5.8401103019714347  1.6368128061294553 35.3974685668945312
  5.7251777648925781 10.4240875244140625 35.6138496398925852
 14.4777212142944336  1.7406942844390869 35.6277961730957031
  1.9967384338378931  4.3315367698669434 35.1407241821289134
  1.4711360931396513 12.2800235748291016 35.5646972656250000
 10.7004356384277344  3.4260082244873047 35.3232307434082031
 10.8733921051025373 13.4569206237792969 34.9436798095703125
  6.8261175155639648  0.3672863543033599 34.7139701843261790
  4.5691413879394531 11.2553758621215820 34.6274757385253906
 15.7915353775024414  0.7875429391860962 34.9564132690429759
  1.1312522888183598  5.1624975204467773 36.4131088256835938
 17.9877738952636719 12.5189533233642578 36.3434753417968821
  9.0310182571411133  3.1046037673950195 35.7857704162597656
  9.8855676651000977 12.4182825088500977 35.9536285400390625
  5.5051498413085938  7.9558620452880850 35.8302497863769531
  3.4199697971343990  1.1815493106842041 35.6194953918457031
 12.2606906890869141  0.5776427984237671 35.7908058166503906
  8.1211690902709961  6.4897003173828125 34.9013786315917969
  6.8170828819274902 13.9570941925048828 34.7713584899902415
 15.9799118041992170  4.2894372940063477 35.0510330200195312
 17.6653900146484375 15.7714462280273438 34.7906608581542969
  4.2085862159729004  7.2188963890075684 34.9514961242675781
  2.7939368942752481 17.8175752162933350 34.8725814819335938
 12.2124504307284951 17.0169090032577515 35.1671714782714915
 10.2261037826538086  5.5926122665405273 34.6494712829589844
  9.0032014846801758 14.5780210494995099 34.0879325866699219
 18.0482597351074219  3.6101701259613033 34.1277503967285156
  1.3694801330566411 14.2995758056640625 34.4383850097656321
  3.4147503376007080  9.2552289962768555 34.1346549987792969
  4.9674777248874298 17.0855786800384557 34.2594871520996165
 14.4258474567905068 17.0194121599197388 34.5631523132324290
  8.1923208236694336  5.2862863540649405 42.1331672668457102
  7.9241819381713867 14.6578483581542969 41.9714584350585938
 17.3599824309349060  5.0875396728515616 42.3923568725586009
 16.5728265047073364 13.4322910308837891 41.8241653442382812
  5.4027714729309073  0.7495210170745850 42.1810073852539062
  5.5179667472839347 10.0207939147949219 42.1298675537109375
 14.3339700698852539  0.9723183512687682 42.1983222961425781
 14.9112806320190412  9.1890087127685547 41.9041900634765625
  1.6177883148193359  3.0852580070495605 40.4024848937988281
  1.8703672885894775 12.5683107376098615 40.7323112487792969
 10.4111890792846680  2.9827387332916260 40.3469467163085938
 10.3718843460083008 12.2435989379882812 40.7028083801269531
  3.3414492607116695  7.4659914970397949 40.6489868164062500
  2.9463731506839395 16.8217009305953979 40.3325080871582102
 11.6212339401245117  8.2255516052246094 40.6719818115234375
 12.2105974415317178 16.5493044853210449 40.5287361145019602
  1.1952519416809082  3.3735663890838619 42.0691146850586009
  0.5228421092033386 11.8987283706665039 41.6131896972656250
  9.8325357437133789  3.3065743446350098 41.9494857788085938
  9.7916564941406232 12.8600339889526367 42.2110290527343750
  3.9005265235900874  7.9896917343139640 42.2109947204589844
  3.3501335838809609 17.2212619781494141 41.9798431396484375
 12.6963968276977539  7.8774695396423331 41.9803428649902344
 12.5746530750766397 17.1198744177818334 42.1395187377929688
  7.9316735267639160  6.1563773155212402 40.6584701538086009
  7.4682641029357910 15.0000505447387695 40.3355941772461009
 16.7158658504486084  5.7728328704833984 40.9255943298339844
 16.7547633647918701 15.0147275924682617 41.0892524719238281
  6.1705546379089355  1.1210010051727295 40.6789245605468750
  5.8008189201354980 10.6332302093505859 40.5415267944335938
 14.9346923828124982  1.4443397521972656 40.6441841125488281
 15.0861864089965820 10.2849683761596680 40.5672531127929688
  0.0497961938381195  4.5651812553405753 39.5418319702148438
  0.7998982667922973 14.5736808776855469 40.2707405090332031
  9.2792015075683594  4.7800149917602539 39.3980216979980469
  8.9940509796142578 13.5289659500122070 39.4121589660644531
  4.6598481396213174 17.9755858927965164 39.3946380615234375
  4.4756503105163574  9.0851364135742188 39.4851226806640625
 13.6669849613681418 17.9677364081144368 39.4845428466796875
 13.0067253112792969  9.7663135528564453 39.6687774658203125
  8.1032123565673828  5.4420318603515616 48.0459518432617259
  8.1007528305053711 14.4734306335449219 48.0459518432617259
 17.1336116790771484  5.4420318603515616 48.0459518432617259
 17.1311531066894531 14.4734306335449219 48.0459518432617259
  5.4410333633422852  0.9265221953392029 48.0449485778808594
  5.4385743141174316  9.9579219818115234 48.0449485778808594
 14.4714326858520490  0.9265221953392029 48.0449485778808594
 14.4689741134643555  9.9579219818115234 48.0449485778808594
  1.4218254089355467  3.0919990539550781 46.4558296203613281
  1.4193661212921143 12.1233978271484375 46.4558296203613281
 10.4522256851196289  3.0919990539550781 46.4558296203613281
 10.4497661590576172 12.1233978271484375 46.4558296203613281
  3.0899283885955806  7.6075901985168457 46.4545211791992188
  3.0874691009521484 16.6389904022216797 46.4545211791992188
 12.1203289031982422  7.6075901985168457 46.4545211791992188
 12.1178693771362305 16.6389904022216797 46.4545211791992188
  0.9247469902038573  3.5893490314483643 48.0459518432617259
  0.9222877025604248 12.6207475662231445 48.0459518432617259
  9.9551477432250977  3.5893490314483643 48.0459518432617259
  9.9526882171630859 12.6207475662231445 48.0459518432617259
  3.5868983268737793  8.1048498153686523 48.0448913574218821
  3.5844390392303462 17.1362495422363281 48.0448913574218821
 12.6172990798950195  8.1048498153686523 48.0448913574218821
 12.6148395538330078 17.1362495422363281 48.0448913574218821
  7.6061611175537109  5.9393639564514160 46.4558296203613281
  7.6037015914916992 14.9707632064819336 46.4558296203613281
 16.6365604400634766  5.9393639564514160 46.4558296203613281
 16.6341018676757812 14.9707632064819336 46.4558296203613281
  5.9380125999450684  1.4238001108169553 46.4545211791992188
  5.9355530738830566 10.4551992416381836 46.4545211791992188
 14.9684123992919904  1.4238001108169553 46.4545211791992188
 14.9659538269042951 10.4551992416381836 46.4545211791992188
 -0.0011664569610730  4.5157265663146973 45.3548011779785156
 -0.0036257810425013 13.5471258163452148 45.3548011779785156
  9.0292339324951172  4.5157265663146973 45.3548011779785156
  9.0267744064331037 13.5471258163452148 45.3548011779785156
  4.5152091979980469  0.0000000000000000 45.3536758422851562
  4.5127501487731934  9.0313997268676740 45.3536758422851562
 13.5456094741821289  0.0000000000000000 45.3536758422851562
 13.5431499481201172  9.0313997268676740 45.3536758422851562
 14.4451370239257812  9.1987085342407227 32.1752319335937571
 15.8791904449462891  9.0397891998291016 33.2102127075195384
 13.7948055267333984 11.2697572708129883 33.2809295654296946
 13.7834548950195312 11.3405904769897461 35.0313720703125071
 12.3849086761474592  8.1314468383789062 34.4214477539062571
 12.1161460876464826  9.7904710769653320 34.9179534912109446
 14.4225921630859375  7.7463474273681641 35.4661636352539134
 15.6658687591552734  8.9824314117431641 35.5451965332031250
 15.5029563903808594  6.7964086532592773 33.7051239013671875
 13.7833557128906250  6.8387184143066406 33.3485870361328125
 14.1166172027587873  6.8915157318115234 30.9940814971923828
 15.7921009063720703  7.3911256790161133 31.1178550720214879
 16.2247085571289062 11.1803083419799805 33.1574096679687500
 16.3964195251464844 10.9454202651977539 34.9018936157226562
 15.7279548645019531 12.4675397872924805 34.2657012939453125
 10.8469085693359375  9.3198823928833008 32.9359512329101562
 12.2672643661499023  8.8089256286621094 31.9916591644287109
 12.0642786026000977 10.5095949172973633 32.4892272949218750
 12.8128585815429688  9.1503238677978516 36.7760009765625000
 14.0673284530639648 10.4140520095825195 36.9277191162109375
 14.3242006301879865  8.8066501617431641 37.6265563964843750
 14.8653697967529297  4.6198754310607910 32.0883865356445384
 15.2417774200439453  4.9741878509521484 30.4185314178466832
 16.6905879974365234  2.8955006599426270 31.1417751312255859
 17.5597114562988281  6.9480099678039551 32.3458862304687500
  1.0142326354980449  2.3081207275390625 31.4650726318359411
  1.8260498046875018  6.3838114738464355 32.6635360717773509
  2.6494789123535187  4.0559396743774414 32.1956253051757812
 18.0206985473632812  4.2520995140075684 35.0006561279296875
  0.5154590606689441 13.9865989685058594 35.0410346984863281
  9.4181137084960920  4.9491691589355469 35.0029258728027344
  8.8583984375000000 13.7466192245483398 34.7803306579589844
  4.3243255615234375  9.2349624633789062 34.7367095947265625
  4.8209595680236816  0.0013319253921509 34.7297935485839844
 13.9994158009067178 17.9203710258007050 35.0110168457031321
  0.1237697452306747  4.4360818862915039 40.6245880126953125
  0.2823770046234131 13.8163232803344727 40.8525238037109375
  9.1719312667846680  4.5765371322631836 40.4521865844726562
  8.9319458007812500 13.6255550384521484 40.4844932556152344
  4.5785584449768066  9.0495901107788086 40.5630874633789062
  4.5559553364291787 18.0020811744034290 40.4757766723632884
 13.3482179641723615  9.2684459686279297 40.5770645141601562
 13.5819763401523232 18.0229052454233170 40.5624694824218750
  9.0289716720581055  4.5156092643737793 46.4455223083496165
  9.0265130996704102 13.5470085144042969 46.4455223083496165
 18.0593719482421875  4.5156092643737793 46.4455223083496165
 18.0569133758544922 13.5470085144042969 46.4455223083496165
  4.5152091979980469  0.0000180629995157 46.4442062377929759
  4.5127501487731934  9.0314178466796857 46.4442062377929759
 13.5456094741821289  0.0000180629995157 46.4442062377929759
 13.5431499481201172  9.0314178466796857 46.4442062377929759
 16.9266681671142578  4.9777431488037109 31.7032337188720703
 17.3986949920654297  3.6581192016601562 31.4798088073730504
 17.8547306060791016  5.9253211021423340 32.1280059814453125
  0.6812725067138682  3.3355970382690430 31.6465091705322266
  1.1479091644287132  5.6116857528686523 32.3031692504882812
  1.5991783142089873  4.3180904388427734 32.0603485107421875
 14.8259983062744141  8.7474861145019531 33.0941619873046875
 14.3130979537963849 10.9071416854858398 34.1737518310546946
 12.5707216262817383  9.1699466705322266 34.1387939453125000
 14.5793247222900373  8.8188552856445312 35.5426025390625000
 14.7582931518554688  7.2262163162231436 33.0235214233398438
 15.0300445556640625  6.7370505332946777 31.5871181488037145
 15.7508649826049805 11.3753271102905256 34.1258621215820312
 11.9277133941650391  9.4720134735107422 32.8002090454101562
 13.8965826034545881  9.3479032516479492 36.7739334106445384
 15.4729843139648420  5.2848362922668457 31.4460506439208949
  1.0922737121582040  4.5858931541442871 35.5695533752441406
  0.6083259582519531 12.8267784118652326 35.6383705139160156
  9.7154636383056641  3.7131397724151611 35.3230018615722656
  9.9301586151123047 13.1092329025268537 35.2020912170410156
  8.2171459197998047  5.4763841629028320 35.0562248229980469
  7.6317954063415527 13.4476261138916016 35.1205787658691406
 16.8503837585449219  4.6351313591003418 35.4561157226562571
 17.5564994812011719 14.8078384399414062 35.1450080871582031
  4.7156763076782227  8.0675992965698242 35.1890373229980469
  3.5964298248291016  0.3459605574607849 35.0702056884765625
 12.7182811954990029 17.8844101130962372 35.2912254333496165
  5.8897051811218262  0.7365953326225281 34.9323883056640696
  4.9341201782226554 10.3738164901733398 34.9690475463867188
 14.8057565689086914  0.8757199048995972 35.2068252563476562
  1.0195004940032959  3.5834465026855469 41.0756072998046875
  0.9166010618209838 12.6809186935424805 41.0787429809570312
  9.8268480300903320  3.5574648380279541 40.9606475830078196
  9.7388648986816406 12.8715114593505859 41.1819458007812571
  3.9000833034515381  8.1094579696655273 41.1908950805664062
  3.5469884136691689 17.3158839941024780 40.9783554077148438
 12.5295886993408203  8.3996381759643555 41.1154632568359375
 12.7414373615756631 17.1785406470298803 41.1257629394531250
  8.3923482894897461  5.3815555572509766 41.1303176879882884
  8.0645380020141602 14.4725151062011719 40.9735145568847727
 17.3656599521636963  5.1438989639282218 41.3766555786132812
 17.1393826007843018 14.0948266983032227 41.2871437072753906
  5.4281349182128906  0.6519693136215210 41.1606101989746165
  5.3377017974853516  9.9436578750610352 41.1245117187500000
 14.3171129226684570  0.8399321436882018 41.1849899291992188
 14.5329084396362305  9.5858650207519513 41.0460624694824219
  0.8273094892501831  3.6869695186614990 47.0359649658203125
  0.8248501420021057 12.7183685302734375 47.0359649658203125
  9.8577098846435547  3.6869695186614990 47.0359649658203125
  9.8552503585815412 12.7183685302734375 47.0359649658203125
  3.6843190193176270  8.2023353576660156 47.0346527099609375
  3.6818594932556152 17.2337341308593750 47.0346527099609375
 12.7147188186645508  8.2023353576660156 47.0346527099609375
 12.7122592926025391 17.2337341308593750 47.0346527099609375
  8.2006769180297852  5.3445744514465332 47.0360260009765696
  8.1982173919677734 14.3759746551513672 47.0360260009765696
 17.2310771942138672  5.3445744514465332 47.0360260009765696
 17.2286186218261719 14.3759746551513672 47.0360260009765696
  5.3436489105224600  0.8290914893150328 47.0346527099609375
  5.3411893844604483  9.8604917526245117 47.0346527099609375
 14.3740482330322266  0.8290914893150328 47.0346527099609375
 14.3715896606445312  9.8604917526245117 47.0346527099609375
 14.0738172531127930  9.4021139144897461 34.2388534545898438
  9.1919779041782022 17.6260223686695099 34.5342826843261790
  8.4150447845458984  9.0385513305664062 34.6208572387695384
  0.1134730875492096  0.2278702408075333 34.4651985168457031
  0.6162348985671996  8.9218997955322266 34.6572227478027344
  4.5868291854858398  4.3836483955383301 34.6692771911621094
  4.2039704322814941 13.8924093246459943 34.4511642456054688
 13.3129158020019531  4.0314793586730957 34.6987419128417969
 13.0689144134521484 14.3876314163208008 34.6312789916992188
 17.9654370108619368 17.7900196313858032 40.8695716857910156
  0.0796402841806412  9.0637445449829102 40.9574432373046875
  8.9761857986450195  0.0356885828077793 40.9034347534179688
  9.0009517669677734  9.0466375350952131 40.8886566162109375
  4.7599949836730957  4.3391361236572266 40.9600410461425781
  4.4343752861022949 13.6172809600830078 40.8521156311035156
 13.4249420166015607  4.7093234062194824 40.9562225341796875
 13.5628547668457013 13.3646736145019531 40.8751258850097656
  2.5023903846740723  2.0626401901245117 38.0424880981445312
  2.6333317756652832 11.0030670166015625 37.9514770507812500
 11.5828275680541992  1.9539828300476072 38.0539665222167969
 11.1243267059326172 11.4017734527587873 38.0774192810058594
  6.6386489868164062  6.9342331886291495 38.1246070861816477
  6.5719785690307617 16.0000648498535156 37.8581237792968750
 16.0412540435791016  6.5546202659606934 38.3130722045898438
 15.5778121948242188 16.0627670288085938 37.8435859680175781
  2.2839472293853760  6.6832656860351562 38.2411956787109375
  2.1247420310974121 15.7735090255737287 37.9084281921386719
 11.2027702331542969  6.7195529937744141 37.6359901428222656
 11.1444978713989258 15.6585206985473633 38.2771224975585938
  7.2040581703186035  2.5760564804077148 37.7651786804199219
  6.8221092224121085 11.4166040420532227 37.9702873229980469
 15.9353761672973615  2.3969268798828125 38.2912788391113281
 16.3169784545898438 11.7478790283203125 38.1981506347656250
  0.0000000000000000  0.0000000000000000 47.1735610961914062
 -0.0024593239650130  9.0313997268676740 47.1735610961914062
  9.0304002761840803  0.0000000000000000 47.1735610961914062
  9.0279407501220685  9.0313997268676740 47.1735610961914062
  4.5139794349670410  4.5156998634338379 47.1742515563964844
  4.5115203857421875 13.5470991134643537 47.1742515563964844
 13.5443792343139648  4.5156998634338379 47.1742515563964844
 13.5419197082519531 13.5470991134643537 47.1742515563964844
  2.4519233703613277  2.0629522800445557 44.0401268005371165
  2.4494640827178955 11.0943517684936523 44.0401268005371165
 11.4823226928710920  2.0629522800445557 44.0401268005371165
 11.4798641204833984 11.0943517684936523 44.0401268005371165
  6.5760178565979004  6.9684472084045410 44.0401268005371165
  6.5735583305358887 15.9998464584350586 44.0401268005371165
 15.6064186096191406  6.9684472084045410 44.0401268005371165
 15.6039590835571289 15.9998464584350586 44.0401268005371165
  2.0610768795013428  6.5788145065307617 44.0400009155273509
  2.0586175918579102 15.6102142333984375 44.0400009155273509
 11.0914773941040039  6.5788145065307617 44.0400009155273509
 11.0890178680419922 15.6102142333984375 44.0400009155273509
  6.9668641090393066  2.4525938034057613 44.0400657653808665
  6.9644045829772949 11.4839935302734375 44.0400657653808665
 15.9972639083862305  2.4525938034057613 44.0400657653808665
 15.9948053359985352 11.4839935302734375 44.0400657653808665
  2.4316265583038330  2.0832188129425049 50.0684852600097656
  2.4291670322418213 11.1146183013915998 50.0684852600097656
 11.4620265960693359  2.0832188129425049 50.0684852600097656
 11.4595670700073224 11.1146183013915998 50.0684852600097656
  6.5963144302368164  6.9481806755065918 50.0684852600097656
  6.5938549041748047 15.9795799255371076 50.0684852600097656
 15.6267137527465803  6.9481806755065918 50.0684852600097656
 15.6242542266845703 15.9795799255371076 50.0684852600097656
  2.0811281204223633  6.5990090370178223 50.0690460205078125
  2.0786688327789307 15.6304082870483398 50.0690460205078125
 11.1115283966064453  6.5990090370178223 50.0690460205078125
 11.1090688705444336 15.6304082870483398 50.0690460205078125
  6.9468131065368652  2.4323906898498531 50.0690460205078125
  6.9443535804748535 11.4637899398803711 50.0690460205078125
 15.9772129058837891  2.4323906898498531 50.0690460205078125
 15.9747543334960938 11.4637899398803711 50.0690460205078125
 18.0561969550326467  0.1172628626227379 37.7491226196289062
  0.1397980302572250  9.1121902465820312 37.7664909362792969
  9.0796646336093545 17.9683615043759346 37.6863746643066406
  9.0013227462768555  9.0461158752441406 37.7154350280761719
  4.6188812255859375  4.5254993438720703 37.8629341125488352
  4.4190630912780762 13.6655282974243164 37.6931838989257884
 13.5210247039794904  4.5381841659545890 37.8699073791503906
 13.5541553497314453 13.7242698669433594 37.7287788391113352
  0.0000090280000222  0.0000090310004452 44.0429992675781250
 -0.0024502959568053  9.0314083099365234 44.0429992675781250
  9.0304088592529297  0.0000090310004452 44.0429992675781250
  9.0279493331909180  9.0314083099365234 44.0429992675781250
  4.5139703750610352  4.5156903266906738 44.0427513122558594
  4.5115113258361816 13.5470905303955078 44.0427513122558594
 13.5443706512451172  4.5156903266906738 44.0427513122558594
 13.5419111251831037 13.5470905303955078 44.0427513122558594
  0.0000000000000000  0.0000000000000000 50.4472808837890696
 -0.0024593239650130  9.0313997268676740 50.4472808837890696
  9.0304002761840803  0.0000000000000000 50.4472808837890696
  9.0279407501220685  9.0313997268676740 50.4472808837890696
  4.5139703750610352  4.5156998634338379 50.4472808837890696
  4.5115113258361816 13.5470991134643537 50.4472808837890696
 13.5443706512451172  4.5156998634338379 50.4472808837890696
 13.5419111251831055 13.5470991134643537 50.4472808837890696
