 H  C  N  I Pb 
 1.0000000000000000
    18.0608005523681641    0.0000000000000000    0.0000000000000000
    -0.0049186488613486   18.0627994537353516    0.0000000000000000
     0.0000000000000000    0.0000000000000000   62.4874992370605469
 H   C   N   I   Pb 
 143  39  47  72  24
Cartesian
  7.9415788650512695  5.7226471900939941 35.7438201904296875
  7.6441178321838379 15.0354070663452148 35.7095413208007884
 17.6174678802490234  5.7898621559143066 36.3082351684570312
 17.2946701049804688 14.6555051803588849 36.2204360961914062
  5.6963800648227334 17.2211964130401611 35.8821945190429688
  6.0120296478271484 10.1667337417602539 35.7939987182617259
 14.3655290603637678  1.3592972755432127 36.1694793701171875
  0.4785594940185570  2.4694638252258301 35.1221275329589915
  1.1023006439208984 11.6608390808105451 35.2936897277832031
 10.2575330734252930  3.2282757759094238 34.5241165161132812
  9.4362792968750000 11.9042997360229492 35.2381744384765625
  6.4628210067749023  0.3375685811042786 34.8417968750000000
  5.0833067893981934 11.3109464645385742 34.8241081237792969
 15.6949033737182599  0.5469805598258972 35.3414497375488281
 17.9032325744628906  3.3596804141998291 36.5219345092773438
  0.1058464050293003 12.3562631607055664 36.5400161743164062
 10.1230249404907227  4.6103467941284171 35.5814247131347656
  8.1396532058715820 12.5611553192138672 36.1136856079101562
  5.1198077201843253  7.8403043746948242 35.9586868286132812
  3.2435523727908731 16.9253919124603271 35.7148666381835938
 12.1605834960937482  0.3737915754318237 35.9492607116699219
  6.5976724624633789  4.9741644859313965 34.8875312805175852
  8.7729053497314453 15.8950452804565412 34.6816749572753906
  0.3616485595703109  6.5361466407775879 34.9526863098144531
 17.9126968383789062 15.5283479690551740 34.8507347106933665
  3.5687341690063477  7.5768380165100098 35.1796989440917969
  2.4042550781741738 18.0150712206959724 34.6345481872558665
 12.0793985584750772 16.8742988109588623 35.0904808044433594
  7.9687280654907227  3.2986648082733154 33.9585266113281250
 10.0563726425170898 13.9615230560302734 34.2657508850097656
  0.8802165985107435  4.4829173088073730 33.9434432983398438
  1.0773353576660134 13.6861829757690430 34.0384521484375000
  3.4329056739807129  9.7206573486328107 34.3048057556152344
  4.3640179634094238  1.0327537059783936 33.9401397705078196
 14.3162006596103293 16.8619759082794189 34.5765228271484375
  8.5523138046264648  5.9047760963439941 41.9330101013183594
  7.8479714393615723 14.7294893264770508 42.0253486633300781
 17.5043799877166748  5.0299315452575684 42.5366973876953125
 16.5653818845748937 13.7156391143798828 42.0219688415527344
  5.5155673027038574  0.9762288331985474 42.0262260437011719
  5.4663181304931641  9.8872756958007795 42.2072982788085938
 14.2912435531616211  1.1811051368713379 42.1620979309082031
 14.1039094924926758 10.7206459045410156 41.6702384948730469
  1.5443489551544189  2.9819400310516357 40.3134689331054688
  1.8243418931961057 12.6425342559814453 40.8769416809082031
 10.5403623580932617  3.1086587905883785 40.6922225952148438
 10.2809400558471680 12.2451972961425781 40.9301567077636719
  3.3046615123748779  7.4129171371459961 40.5695762634277344
  3.0634779194369912 16.6697237491607666 40.6647338867187500
 12.7747917175292969  7.3417434692382812 41.3222389221191477
 12.1988167027011514 16.5775464773178101 40.7646293640136719
  1.2175498008728025  3.2047619819641113 42.0351066589355469
  0.6482111811637878 12.2818355560302717 42.1335525512695312
 10.6781005859375000  4.5204424858093253 41.7319412231445312
  9.5754127502441406 12.8426694869995099 42.3828506469726562
  3.7731602191925049  7.9446697235107422 42.1776046752929688
  3.6173590878024697 17.2886527776718140 42.2007789611816406
 12.4684352874755842  8.8343152999877930 42.1736030578613281
 12.5105795124545693 17.3931426405906677 42.2824134826660156
  7.1585507392883301  5.2879166603088379 41.0588035583496094
  7.5930151939392090 15.1735696792602539 40.3436546325683594
 16.8711589574813843  5.8240718841552734 41.1455116271972727
 16.4949247837066650 14.8588142395019531 40.7137794494628906
  6.0056500434875488  1.3356270790100098 40.3821716308593821
  5.8986525535583496 10.4905605316162109 40.6286392211914062
 15.0094223022460938  1.4006670713424680 40.5671653747558594
 15.2096691131591779 10.4284801483154297 40.3498916625976562
  0.0647465139627457  4.6169266700744629 39.6417617797851562
  0.5175729393959045 14.2517957687377930 39.8659934997558665
  8.3084640502929688  3.5083580017089844 40.1400032043457031
  9.1099853515624982 13.6492052078247053 39.5291557312011790
  4.5131196239963174 17.9488614574074745 39.4168167114257884
  4.6021928787231445  8.9948940277099609 39.4880447387695312
 13.7422107914462686 17.7803613543510437 39.5889892578125000
 14.5017395019531250  8.2256488800048828 40.0475578308105469
  8.1032123565673828  5.4420318603515616 48.0459518432617259
  8.1007528305053711 14.4734306335449219 48.0459518432617259
 17.1336116790771484  5.4420318603515616 48.0459518432617259
 17.1311531066894531 14.4734306335449219 48.0459518432617259
  5.4410333633422852  0.9265221953392029 48.0449485778808594
  5.4385743141174316  9.9579219818115234 48.0449485778808594
 14.4714326858520490  0.9265221953392029 48.0449485778808594
 14.4689741134643555  9.9579219818115234 48.0449485778808594
  1.4218254089355467  3.0919990539550781 46.4558296203613281
  1.4193661212921143 12.1233978271484375 46.4558296203613281
 10.4522256851196289  3.0919990539550781 46.4558296203613281
 10.4497661590576172 12.1233978271484375 46.4558296203613281
  3.0899283885955806  7.6075901985168457 46.4545211791992188
  3.0874691009521484 16.6389904022216797 46.4545211791992188
 12.1203289031982422  7.6075901985168457 46.4545211791992188
 12.1178693771362305 16.6389904022216797 46.4545211791992188
  0.9247469902038573  3.5893490314483643 48.0459518432617259
  0.9222877025604248 12.6207475662231445 48.0459518432617259
  9.9551477432250977  3.5893490314483643 48.0459518432617259
  9.9526882171630859 12.6207475662231445 48.0459518432617259
  3.5868983268737793  8.1048498153686523 48.0448913574218821
  3.5844390392303462 17.1362495422363281 48.0448913574218821
 12.6172990798950195  8.1048498153686523 48.0448913574218821
 12.6148395538330078 17.1362495422363281 48.0448913574218821
  7.6061611175537109  5.9393639564514160 46.4558296203613281
  7.6037015914916992 14.9707632064819336 46.4558296203613281
 16.6365604400634766  5.9393639564514160 46.4558296203613281
 16.6341018676757812 14.9707632064819336 46.4558296203613281
  5.9380125999450684  1.4238001108169553 46.4545211791992188
  5.9355530738830566 10.4551992416381836 46.4545211791992188
 14.9684123992919904  1.4238001108169553 46.4545211791992188
 14.9659538269042951 10.4551992416381836 46.4545211791992188
 -0.0011664569610730  4.5157265663146973 45.3548011779785156
 -0.0036257810425013 13.5471258163452148 45.3548011779785156
  9.0292339324951172  4.5157265663146973 45.3548011779785156
  9.0267744064331037 13.5471258163452148 45.3548011779785156
  4.5152091979980469  0.0000000000000000 45.3536758422851562
  4.5127501487731934  9.0313997268676740 45.3536758422851562
 13.5456094741821289  0.0000000000000000 45.3536758422851562
 13.5431499481201172  9.0313997268676740 45.3536758422851562
 14.0050792694091797 10.0278310775756836 32.5237426757812500
 13.0065832138061523  8.6034355163574219 32.9080467224121094
 15.7855472564697266  9.0497903823852521 33.8947410583496094
 15.4617309570312500  8.6320028305053711 35.5796852111816406
 13.4106903076171857 11.5856399536132795 34.9880752563476562
 14.4954757690429688 10.7686576843261719 36.1138648986816406
 12.0749034881591797  9.9013719558715820 35.6599617004394531
 12.2355871200561523  8.2166643142700195 35.0907516479492188
 11.0924167633056623  9.9609270095825178 33.5988502502441406
 12.0854673385620117 11.4350910186767578 33.5491256713867259
 10.9379949569702131 11.6660423278808594 31.5995273590087926
 12.3976039886474609 10.8687314987182617 31.0065937042236328
 14.5448703765869141  7.0313224792480469 33.1001853942871094
 13.9194631576538086  6.7141380310058594 34.7491302490234375
 15.6517963409423810  6.5440144538879395 34.4356193542480469
 15.6090984344482422 12.5106248855590820 34.7964820861816406
 15.2958593368530256 11.6881074905395508 33.2732696533203196
 16.4030914306640625 10.9455327987670881 34.4822769165039062
 13.6229896545410156  9.4751672744750977 37.5128402709960938
 14.0237979888916016  7.8617887496948242 36.8815422058105540
 12.4128055572509766  8.1988477706909180 37.4794349670410227
  9.6549367904663068  9.5643005371093750 31.5217761993408203
 10.4061393737792951  9.8913230895996094 29.9492588043212926
 12.4757537841796875  8.5853824615478516 29.2902679443359375
 10.1320219039916992  7.5666656494140625 32.7463836669921875
 13.7179422378540039  6.4549064636230469 29.4866294860839844
 11.3755922317504865  5.4168729782104492 32.9425163269042969
 13.1763305664062482  4.8690843582153311 31.3410434722900391
  0.3916358947753915  4.5024785995483398 34.9194068908691406
  0.5024280548095733 13.5957803726196289 34.9792366027832102
  8.4141921997070312  4.0736846923828125 34.6137542724609375
  9.1571741104125977 13.8964242935180664 34.8891410827636719
  4.2966418266296387  9.4376316070556641 34.9175453186035156
  4.4218802452087402  0.2160709649324417 34.6691818237304688
 13.8978790501132607 17.6940123438835144 35.1548271179199290
  0.1785790622234344  4.3998494148254395 40.7030639648437500
  0.1415169239044189 13.7505693435668945 40.7634887695312500
  8.8388376235961914  4.1959404945373535 40.8228569030761719
  8.9434280395507812 13.7032356262207013 40.6243629455566477
  4.6026782989501953  8.9537038803100586 40.5825843811035156
  4.5288733700290322 18.0348727479577065 40.5052795410156321
 13.9975309371948242  8.8635730743408203 40.7884025573730469
 13.6031116703525186 18.0083122551441193 40.6499137878417969
  9.0289716720581055  4.5156092643737793 46.4455223083496165
  9.0265130996704102 13.5470085144042969 46.4455223083496165
 18.0593719482421875  4.5156092643737793 46.4455223083496165
 18.0569133758544922 13.5470085144042969 46.4455223083496165
  4.5152091979980469  0.0000180629995157 46.4442062377929759
  4.5127501487731934  9.0314178466796857 46.4442062377929759
 13.5456094741821289  0.0000180629995157 46.4442062377929759
 13.5431499481201172  9.0314178466796857 46.4442062377929759
 11.2347059249877930  8.2305459976196289 31.0091476440429723
 12.2410917282104492  7.9064426422119141 30.0884933471679723
 10.9094200134277344  7.3182210922241211 32.0198326110839844
 12.9437608718872070  6.6970224380493164 30.1954917907714844
 11.6164426803588867  6.1150522232055655 32.1390647888183665
 12.6345777511596680  5.8035564422607422 31.2359218597412145
 13.2212982177734375  9.6283063888549805 33.1891670227050781
 15.0447616577148438  8.6012573242187500 34.5647201538085938
 14.2736606597900391 10.9057559967041016 35.0532875061035156
 12.7560749053955078  9.0504417419433594 35.5726661682128977
 11.9275217056274414 10.4640445709228498 33.0879440307617188
 11.4930677413940412 10.7010307312011719 31.6190738677978551
 14.7679729461669922  7.1489658355712882 34.1737518310546946
 15.4726896286010742 11.5180644989013672 34.3423309326171875
 13.2582254409790039  8.6312141418457031 36.9283828735351562
 10.6060762405395508  9.5975971221923828 30.9844169616699254
  0.2371006011962927  3.3546669483184814 35.5745773315429688
  0.6122951507568344 12.4755411148071289 35.6541175842285156
  9.6978530883789045  3.9920830726623531 34.8782196044921875
  8.8903541564941406 12.7374448776245117 35.4410552978515625
  7.6200017929077140  5.0363931655883789 35.0611152648925781
  8.4453258514404297 14.9907827377319336 35.0527458190917969
  0.0124912261962884  5.6690177917480469 35.3943977355957031
 17.8129501342773438 14.6229877471923828 35.3299102783203125
  4.3500628471374512  8.1984291076660156 35.3568916320800852
  3.2969505051150914 17.6701455116271973 34.9886627197265625
 12.5855802753940225 17.7006070017814636 35.3525428771972656
  5.6057342747226349 17.9848798140883446 35.1804161071777344
  5.1934123039245605 10.3717317581176758 35.1859893798828196
 14.7106761932373047  0.5504794716835022 35.6180953979492188
  1.0178247690200806  3.4764871597290039 41.0547561645507884
  0.9009299874305725 12.8317108154296875 41.2920494079589844
 10.0928106307983381  3.9407939910888672 41.1150779724121094
  9.6426076889038086 12.8798742294311523 41.3773880004882812
  3.8578054904937740  8.0451498031616211 41.1660842895507884
  3.6780232647433873 17.2885761260986328 41.1754035949707031
 13.0083856582641602  8.3176383972167969 41.4713859558105469
 12.7149175861850381 17.2809301018714905 41.2839889526367188
  8.1572656631469727  5.2263393402099600 41.2946548461914062
  8.0724706649780273 14.5902633666992188 41.0431671142578125
 17.4900335073471105  5.1238145828247061 41.5307846069335938
 17.0223305225372314 14.1356849670410156 41.2035064697265625
  5.4046320915222168  0.8133330345153809 41.0270423889160227
  5.3705010414123535  9.8304471969604492 41.1889572143554759
 14.3447809219360352  0.9089836478233337 41.1809539794921875
 14.4479818344116211 10.0831365585327148 40.9402313232421946
  0.8273094892501831  3.6869695186614990 47.0359649658203125
  0.8248501420021057 12.7183685302734375 47.0359649658203125
  9.8577098846435547  3.6869695186614990 47.0359649658203125
  9.8552503585815412 12.7183685302734375 47.0359649658203125
  3.6843190193176270  8.2023353576660156 47.0346527099609375
  3.6818594932556152 17.2337341308593750 47.0346527099609375
 12.7147188186645508  8.2023353576660156 47.0346527099609375
 12.7122592926025391 17.2337341308593750 47.0346527099609375
  8.2006769180297852  5.3445744514465332 47.0360260009765696
  8.1982173919677734 14.3759746551513672 47.0360260009765696
 17.2310771942138672  5.3445744514465332 47.0360260009765696
 17.2286186218261719 14.3759746551513672 47.0360260009765696
  5.3436489105224600  0.8290914893150328 47.0346527099609375
  5.3411893844604483  9.8604917526245117 47.0346527099609375
 14.3740482330322266  0.8290914893150328 47.0346527099609375
 14.3715896606445312  9.8604917526245117 47.0346527099609375
 13.8284959793090803  9.5304822921752930 34.5848121643066406
  9.1333637237548828  0.3369509577751160 34.5463294982910156
  8.5462875366210938  9.0968761444091797 34.7268905639648438
 17.9578094184398651  0.0058564739301801 34.3721923828125000
  0.6996723413467407  8.9838075637817383 34.5569076538085938
  4.1702260971069336  4.2491555213928223 34.5846176147460938
  4.5598707199096680 13.8220434188842773 34.5999603271484375
 13.3338603973388672  3.6960716247558594 34.6987648010253906
 12.7929706573486328 14.2890567779541016 34.3698081970214844
  0.0251945471391082 17.8350214660167694 40.8998565673828125
  0.1909208446741104  8.9203157424926758 40.9547386169433594
  9.0432710647583008  0.1587089151144027 40.9150466918945384
  9.2277288436889648  8.8612232208251953 40.9743003845214844
  4.6857171058654785  4.4086861610412598 40.8994712829589844
  4.5312523841857910 13.5948600769042951 40.9276313781738352
 13.5125188827514648  4.7932848930358887 40.9075851440429688
 13.4943141937255859 13.5981464385986328 40.8781051635742188
  2.4655656814575195  1.9193359613418579 38.0111465454101562
  2.6596260070800781 10.9859285354614240 38.1305465698242188
 11.7262859344482422  1.8985534906387329 38.2343521118164134
 11.1487064361572248 11.4789819717407227 38.3546791076660156
  6.4967026710510254  7.0034694671630859 37.9879188537597656
  6.6341190338134766 15.9931364059448242 37.9521064758300781
 16.1306934356689453  6.5559778213500968 38.3348655700683594
 15.7577047348022461 15.7677459716796875 38.0548362731933594
  2.2087292671203613  6.4869689941406250 38.1497955322265625
  2.2065358161926270 15.7436819076538086 37.9109420776367188
 10.4975070953369141  5.9676141738891602 37.7091636657714844
 11.1051111221313459 15.7443895339965820 38.1761436462402344
  6.9648790359497070  2.4164388179779053 37.8671951293945312
  6.9622511863708496 11.4324979782104492 38.1638221740722656
 16.0621566772460938  2.4995992183685303 38.3364105224609375
 16.4144859313964844 11.6100444793701172 38.3834686279296875
  0.0000000000000000  0.0000000000000000 47.1735610961914062
 -0.0024593239650130  9.0313997268676740 47.1735610961914062
  9.0304002761840803  0.0000000000000000 47.1735610961914062
  9.0279407501220685  9.0313997268676740 47.1735610961914062
  4.5139794349670410  4.5156998634338379 47.1742515563964844
  4.5115203857421875 13.5470991134643537 47.1742515563964844
 13.5443792343139648  4.5156998634338379 47.1742515563964844
 13.5419197082519531 13.5470991134643537 47.1742515563964844
  2.4519233703613277  2.0629522800445557 44.0401268005371165
  2.4494640827178955 11.0943517684936523 44.0401268005371165
 11.4823226928710920  2.0629522800445557 44.0401268005371165
 11.4798641204833984 11.0943517684936523 44.0401268005371165
  6.5760178565979004  6.9684472084045410 44.0401268005371165
  6.5735583305358887 15.9998464584350586 44.0401268005371165
 15.6064186096191406  6.9684472084045410 44.0401268005371165
 15.6039590835571289 15.9998464584350586 44.0401268005371165
  2.0610768795013428  6.5788145065307617 44.0400009155273509
  2.0586175918579102 15.6102142333984375 44.0400009155273509
 11.0914773941040039  6.5788145065307617 44.0400009155273509
 11.0890178680419922 15.6102142333984375 44.0400009155273509
  6.9668641090393066  2.4525938034057613 44.0400657653808665
  6.9644045829772949 11.4839935302734375 44.0400657653808665
 15.9972639083862305  2.4525938034057613 44.0400657653808665
 15.9948053359985352 11.4839935302734375 44.0400657653808665
  2.4316265583038330  2.0832188129425049 50.0684852600097656
  2.4291670322418213 11.1146183013915998 50.0684852600097656
 11.4620265960693359  2.0832188129425049 50.0684852600097656
 11.4595670700073224 11.1146183013915998 50.0684852600097656
  6.5963144302368164  6.9481806755065918 50.0684852600097656
  6.5938549041748047 15.9795799255371076 50.0684852600097656
 15.6267137527465803  6.9481806755065918 50.0684852600097656
 15.6242542266845703 15.9795799255371076 50.0684852600097656
  2.0811281204223633  6.5990090370178223 50.0690460205078125
  2.0786688327789307 15.6304082870483398 50.0690460205078125
 11.1115283966064453  6.5990090370178223 50.0690460205078125
 11.1090688705444336 15.6304082870483398 50.0690460205078125
  6.9468131065368652  2.4323906898498531 50.0690460205078125
  6.9443535804748535 11.4637899398803711 50.0690460205078125
 15.9772129058837891  2.4323906898498531 50.0690460205078125
 15.9747543334960938 11.4637899398803711 50.0690460205078125
 17.9330005059018731 18.0090472027659416 37.8664741516113281
  0.1795551329851151  9.0197124481201172 37.8713836669921946
  9.0435476303100586  0.1499957144260406 37.7822952270507812
  8.9738883972167969  8.8896665573120117 37.7827911376953125
  4.3975019454956055  4.3417243957519531 37.7210998535156250
  4.4840540885925293 13.4972534179687500 37.7287406921386719
 13.3339166641235352  4.4837932586669922 37.6475677490234375
 13.2302894592285156 13.6440591812133789 37.5990753173828196
  0.0000090280000222  0.0000090310004452 44.0429992675781250
 -0.0024502959568053  9.0314083099365234 44.0429992675781250
  9.0304088592529297  0.0000090310004452 44.0429992675781250
  9.0279493331909180  9.0314083099365234 44.0429992675781250
  4.5139703750610352  4.5156903266906738 44.0427513122558594
  4.5115113258361816 13.5470905303955078 44.0427513122558594
 13.5443706512451172  4.5156903266906738 44.0427513122558594
 13.5419111251831037 13.5470905303955078 44.0427513122558594
  0.0000000000000000  0.0000000000000000 50.4472808837890696
 -0.0024593239650130  9.0313997268676740 50.4472808837890696
  9.0304002761840803  0.0000000000000000 50.4472808837890696
  9.0279407501220685  9.0313997268676740 50.4472808837890696
  4.5139703750610352  4.5156998634338379 50.4472808837890696
  4.5115113258361816 13.5470991134643537 50.4472808837890696
 13.5443706512451172  4.5156998634338379 50.4472808837890696
 13.5419111251831055 13.5470991134643537 50.4472808837890696
