 H  C  N  I Pb 
 1.0000000000000000
    18.0608005523681641    0.0000000000000000    0.0000000000000000
    -0.0049186488613486   18.0627994537353516    0.0000000000000000
     0.0000000000000000    0.0000000000000000   62.4874992370605469
 H   C   N   I   Pb 
 143  39  47  72  24
Cartesian
  8.1474552154541016  5.7095637321472168 36.1533584594726634
  8.1055250167846680 15.2654647827148420 35.9319686889648438
 16.7537670135498047  4.5898499488830558 36.3626289367675781
 17.2157821655273438 14.5673961639404297 36.4807128906250071
  5.3720803260803223  1.0263708829879761 36.2164649963378906
  5.6043863296508789 10.1300191879272461 36.2606124877929688
 14.2496757507324201  1.3087900876998901 36.3146972656250000
  1.9618358612060554  4.0594487190246582 34.8363456726074290
  1.6653327941894536 12.2977790832519531 35.1624946594238281
 10.3503894805908203  3.1681029796600342 34.7798385620117188
  9.1267557144165039 11.8069849014282227 35.4251899719238352
  6.4944324493408203  0.3807107210159302 35.0632705688476562
  5.1253933906555176 11.1440315246582031 34.9257011413574219
 15.5887937545776349  0.7886543869972229 35.3429527282714844
  1.1683959960937478  3.9953122138977051 36.3663215637207031
  0.6000995635986308 12.4877204895019531 36.4987373352050781
 10.2507305145263654  4.5063810348510742 35.9542808532714915
  8.6666898727416992 12.9374761581420898 36.6812019348144531
  4.6329727172851562  7.8202362060546875 36.3290901184082102
  3.0049996376037593  0.2152762115001678 36.0059814453125000
 12.1646055439487100 18.0304426327347755 36.2104110717773438
  6.8159885406494141  5.1617875099182129 35.1462326049804759
  8.5114679336547852 15.6589632034301758 34.2971343994140625
 15.9800701141357422  4.7374868392944336 34.8359146118164062
 17.5244216918945312 15.6737689971923810 35.1554298400878906
  3.5335671901702881  7.4069199562072754 35.0568847656250071
  2.6210800865665078 17.2491629123687744 34.6606826782226562
 12.2377809742465598 16.6037065982818604 35.1822319030761719
  8.0906934738159180  3.5425274372100830 34.0884132385253906
  9.1944293975830060 13.4578714370727539 33.8046722412109446
 18.0428562164306641  4.4959673881530762 33.6699638366699219
  1.0280132293701179 14.2919845581054688 34.1397247314453125
  3.7398772239685054  9.5005588531494141 34.0304374694824219
  4.8617567280307412 17.2183218002319336 33.9435386657714844
 14.3981260517612100 17.0240530967712402 34.4986801147460938
  8.3111572265625000  5.5760736465454102 42.2754745483398509
  7.7617025375366211 14.6801567077636719 41.9735145568847656
 17.3786734342575109  5.0579776763916016 42.4997215270996094
 16.8752536773681641 14.2096796035766602 42.1315650939941406
  5.5069975852966309  1.0237611532211304 42.0993385314941406
  5.3594865798950195  9.8246164321899396 42.3067169189453196
 14.3191032409667951  0.9005475044250487 42.3299484252929759
 15.2062835693359375  9.3089017868041992 41.8112983703613281
  1.5774258375167847  3.2030646800994873 40.2985534667968750
  1.7356091737747190 12.4621973037719727 40.8781051635742188
 10.3150873184204084  2.9569795131683350 40.6473808288574219
 10.4037609100341797 12.2805719375610352 41.0783920288085938
  3.1774804592132568  7.5195908546447754 40.5001411437988281
  3.1532086590304971 16.6280847787857056 40.7091026306152415
 11.7546253204345703  8.4766893386840820 41.0893821716308594
 12.1179718235507607 16.6692498922348022 40.4671211242675781
  1.2170256376266477  3.3482677936553955 41.9871101379394531
  0.7375252842903137 12.5161476135253906 42.2766380310058594
 10.1013803482055664  3.7234625816345215 42.2087135314941477
  9.5876131057739258 12.9349622726440430 42.4738578796386719
  3.6428790092468262  7.9012207984924316 42.1094055175781250
  3.6438862541690469 17.2335033416748047 42.2383880615234446
 13.0115861892700195  8.1164417266845703 42.1910552978515625
 12.4406589725986123 17.1463563442230225 42.0935287475585938
  7.5290575027465820  5.8521199226379395 40.7579345703125000
  7.5768280029296866 15.0276536941528303 40.2763710021972656
 16.6877682209014893  5.8249125480651855 41.0746002197265625
 16.7824057340621948 15.1047267913818359 40.6344451904296946
  5.9804263114929199  1.4174442291259766 40.4849395751953196
  5.8280129432678214 10.5079107284545898 40.8015632629394531
 15.0322828292846680  1.3590890169143677 40.8256950378417969
 15.3069114685058594 10.2598333358764648 40.3241386413574219
  0.0150853395462036  4.7166399955749512 39.6132888793945312
  0.5942533612251282 14.0786142349243164 39.7460823059082031
  8.7190799713134766  4.2415504455566406 39.6186561584472656
  9.2191238403320312 13.5708055496215820 39.5976638793945312
  4.5336393574252725 17.9758641570806503 39.4887771606445312
  4.5252184867858887  9.1469383239746094 39.5377426147460938
 13.7066377857699990 18.0499056382104754 39.5471267700195312
 13.1064157485961914  9.8558273315429688 39.7809791564941406
  8.1032123565673828  5.4420318603515616 48.0459518432617259
  8.1007528305053711 14.4734306335449219 48.0459518432617259
 17.1336116790771484  5.4420318603515616 48.0459518432617259
 17.1311531066894531 14.4734306335449219 48.0459518432617259
  5.4410333633422852  0.9265221953392029 48.0449485778808594
  5.4385743141174316  9.9579219818115234 48.0449485778808594
 14.4714326858520490  0.9265221953392029 48.0449485778808594
 14.4689741134643555  9.9579219818115234 48.0449485778808594
  1.4218254089355467  3.0919990539550781 46.4558296203613281
  1.4193661212921143 12.1233978271484375 46.4558296203613281
 10.4522256851196289  3.0919990539550781 46.4558296203613281
 10.4497661590576172 12.1233978271484375 46.4558296203613281
  3.0899283885955806  7.6075901985168457 46.4545211791992188
  3.0874691009521484 16.6389904022216797 46.4545211791992188
 12.1203289031982422  7.6075901985168457 46.4545211791992188
 12.1178693771362305 16.6389904022216797 46.4545211791992188
  0.9247469902038573  3.5893490314483643 48.0459518432617259
  0.9222877025604248 12.6207475662231445 48.0459518432617259
  9.9551477432250977  3.5893490314483643 48.0459518432617259
  9.9526882171630859 12.6207475662231445 48.0459518432617259
  3.5868983268737793  8.1048498153686523 48.0448913574218821
  3.5844390392303462 17.1362495422363281 48.0448913574218821
 12.6172990798950195  8.1048498153686523 48.0448913574218821
 12.6148395538330078 17.1362495422363281 48.0448913574218821
  7.6061611175537109  5.9393639564514160 46.4558296203613281
  7.6037015914916992 14.9707632064819336 46.4558296203613281
 16.6365604400634766  5.9393639564514160 46.4558296203613281
 16.6341018676757812 14.9707632064819336 46.4558296203613281
  5.9380125999450684  1.4238001108169553 46.4545211791992188
  5.9355530738830566 10.4551992416381836 46.4545211791992188
 14.9684123992919904  1.4238001108169553 46.4545211791992188
 14.9659538269042951 10.4551992416381836 46.4545211791992188
 -0.0011664569610730  4.5157265663146973 45.3548011779785156
 -0.0036257810425013 13.5471258163452148 45.3548011779785156
  9.0292339324951172  4.5157265663146973 45.3548011779785156
  9.0267744064331037 13.5471258163452148 45.3548011779785156
  4.5152091979980469  0.0000000000000000 45.3536758422851562
  4.5127501487731934  9.0313997268676740 45.3536758422851562
 13.5456094741821289  0.0000000000000000 45.3536758422851562
 13.5431499481201172  9.0313997268676740 45.3536758422851562
 12.9484176635742170  7.9440889358520508 33.8827629089355469
 13.2890825271606445  9.0167798995971680 32.5597686767578125
 11.7901105880737287  9.8582630157470703 35.0894317626953125
 12.5891065597534180 11.4337511062622070 35.0327720642089844
 15.1877422332763672  9.1060142517089844 35.8664741516113281
 13.9689025878906250 10.2565221786499023 36.4552383422851562
 15.6255559921264631 10.0691194534301758 33.4608993530273438
 14.3376512527465820 11.2093696594238281 33.0225715637207031
 15.6089859008789062  8.5214395523071289 32.5319900512695312
 15.6374855041503906  7.8427858352661124 34.1513595581054688
 15.8666162490844727  6.0916213989257812 32.5013656616210938
 14.2938613891601545  5.8946104049682617 33.2949600219726562
 11.4152746200561523  9.8792171478271467 32.6500473022460938
 12.4811353683471680 11.3096542358398438 32.4654655456542969
 10.9578495025634766 11.4408712387084961 33.3197517395019531
 13.6020441055297834  8.0860548019409180 37.4136810302734375
 13.3721523284912109  7.3084182739257812 35.8515319824218750
 12.1859493255615234  8.5032587051391602 36.4304428100585938
 14.9828920364379883 12.3344173431396484 35.4017601013183594
 15.9791650772094727 12.4783859252929688 33.9787254333496165
 16.4456977844238281 11.3081388473510742 35.2155609130859375
 14.8715257644653303  7.1126289367675772 30.5121994018554723
 14.2082643508911133  5.4803819656372070 30.7864570617675817
 11.9684476852416992  5.7482242584228516 32.6154823303222656
 13.3025550842285156  8.4380922317504883 29.5630321502685582
  9.7328433990478516  6.7663564682006836 32.5318069458007884
 11.0645790100097638  9.4834938049316406 29.4783439636230469
  9.2322492599487305  8.6345348358154297 30.9613437652587891
 18.0091667175292969  4.4200425148010254 34.7745246887207102
  0.5478382110595716 13.9743661880493164 35.0811004638671946
  8.5441656112670898  4.1542472839355469 34.8729743957519531
  8.8873395919799805 13.7314558029174787 34.8099746704101562
  4.3095145225524902  9.2755279541015625 34.9297943115234375
  4.5692381123080850 17.8275474905967712 34.7983398437500000
 13.9004263142123801 17.7135646641254425 35.1914672851562571
  0.0956839770078659  4.5208377838134766 40.6780471801757812
  0.2266297042369842 13.7972660064697266 40.7385635375976562
  8.9151811599731445  4.4112262725830078 40.6696128845214915
  8.9952068328857422 13.6631755828857404 40.6617469787597727
  4.4977836608886719  9.0193672180175781 40.6214065551757812
  4.5657891491428018 18.0540102329105139 40.5714263916015625
 13.5283002853393555  9.3585224151611310 40.6723251342773438
 13.5832037189975381 18.0543298963457346 40.6235466003417969
  9.0289716720581055  4.5156092643737793 46.4455223083496165
  9.0265130996704102 13.5470085144042969 46.4455223083496165
 18.0593719482421875  4.5156092643737793 46.4455223083496165
 18.0569133758544922 13.5470085144042969 46.4455223083496165
  4.5152091979980469  0.0000180629995157 46.4442062377929759
  4.5127501487731934  9.0314178466796857 46.4442062377929759
 13.5456094741821289  0.0000180629995157 46.4442062377929759
 13.5431499481201172  9.0314178466796857 46.4442062377929759
 12.8044338226318359  7.0369319915771484 31.0964927673339844
 11.7868318557739240  6.5540285110473624 31.9143104553222656
 12.5154914855957031  8.0939807891845703 30.2157096862792969
 10.5158424377441406  7.1216964721679688 31.8580818176269567
 11.2470264434814453  8.6497917175292969 30.1622905731201172
 10.2376050949096680  8.1799135208129883 30.9897842407226562
 13.7070026397705078  8.6304283142089844 33.4897727966308665
 12.4288597106933594 10.5057849884033203 34.4832992553710938
 14.1124334335327148  9.3561563491821289 35.8479080200195312
 14.8655176162719727 10.7384614944457990 33.8619613647460938
 15.0220317840576172  7.9259881973266602 33.2441406250000000
 14.8632392883300781  6.5404090881347656 32.6143646240234375
 11.8018579483032227 10.7770290374755859 33.1410789489746165
 13.2494878768920898  8.2443828582763672 36.3913116455078125
 15.5926523208618146 11.7573442459106445 34.7053985595703125
 14.2280111312866211  6.5141992568969727 31.1938571929931641
  1.0793132781982417  4.1258678436279297 35.3609428405761719
  0.9651489257812490 12.8576622009277344 35.6062316894531250
  9.7887544631957990  3.8889214992523193 35.2495727539062500
  8.9671258926391602 12.7945489883422852 35.7153701782226562
  7.8195829391479492  5.1132826805114746 35.3772010803222727
  8.4799928665161133 14.9540615081787092 35.0339813232421875
 16.8588771820068359  4.6191434860229492 35.3497276306152344
 17.6618251800537109 14.7380876541137695 35.5599822998046875
  4.1731696128845215  8.1110563278198242 35.4809379577636719
  3.3151537636294957 17.7766736745834351 35.1905784606933665
 12.6649107197299600 17.4904931783676147 35.5208396911621094
  5.4972372055053702  0.4522118568420410 35.3947601318359375
  5.0762324333190918 10.2283411026000977 35.4057083129882812
 14.6230411529541016  0.6448655724525452 35.6667404174804688
  1.0244773626327515  3.6409683227539062 41.0204887390136790
  0.9320276379585265 12.8596658706665039 41.3540611267089844
  9.8447675704956037  3.6464927196502686 41.2174072265625000
  9.7028951644897443 12.9153423309326172 41.4853630065917969
  3.7347276210784908  8.0866050720214844 41.1187133789062571
  3.7548906067386270 17.2712301611900330 41.2321929931640625
 12.7318286895751953  8.5709505081176758 41.3450469970703196
 12.6744589069858193 17.2521021366119385 41.1096649169921875
  8.2228841781616211  5.3292570114135742 41.2821960449218821
  8.0625209808349609 14.5052642822265625 41.0097846984863281
 17.3672920465469360  5.1582579612731934 41.4749031066894531
 17.2356347441673279 14.4079723358154297 41.2182846069336009
  5.3945336341857901  0.8533691763877869 41.0949554443359375
  5.2872323989868164  9.8410243988037109 41.2981338500976634
 14.3453855514526367  0.7916442155838013 41.3166351318359446
 14.7593965530395490  9.6437807083129883 40.9578857421875000
  0.8273094892501831  3.6869695186614990 47.0359649658203125
  0.8248501420021057 12.7183685302734375 47.0359649658203125
  9.8577098846435547  3.6869695186614990 47.0359649658203125
  9.8552503585815412 12.7183685302734375 47.0359649658203125
  3.6843190193176270  8.2023353576660156 47.0346527099609375
  3.6818594932556152 17.2337341308593750 47.0346527099609375
 12.7147188186645508  8.2023353576660156 47.0346527099609375
 12.7122592926025391 17.2337341308593750 47.0346527099609375
  8.2006769180297852  5.3445744514465332 47.0360260009765696
  8.1982173919677734 14.3759746551513672 47.0360260009765696
 17.2310771942138672  5.3445744514465332 47.0360260009765696
 17.2286186218261719 14.3759746551513672 47.0360260009765696
  5.3436489105224600  0.8290914893150328 47.0346527099609375
  5.3411893844604483  9.8604917526245117 47.0346527099609375
 14.3740482330322266  0.8290914893150328 47.0346527099609375
 14.3715896606445312  9.8604917526245117 47.0346527099609375
 13.7691087722778320  9.8231840133666992 34.4473915100097727
  8.9959726333618164  0.3476681411266327 34.4542083740234375
  8.7055206298828125  9.3317050933837891 34.7232513427734375
 17.9304958283901250  0.0427367500960827 34.5303039550781250
  0.6149930953979492  9.0946512222290039 34.5990066528320312
  4.4849014282226562  4.4122462272644043 34.4478797912597727
  4.6277537345886230 13.7123708724975586 34.5112991333007884
 13.4514274597167969  3.8669772148132320 34.8686485290527344
 12.8268070220947266 14.2523231506347656 34.2080497741699290
  0.1111091533675790 18.0561836329288781 40.9195938110351562
  0.2161409407854080  8.8532924652099609 40.9409751892089915
  9.0020456314086914  0.0979930683970451 40.8917961120605540
  9.1710767745971680  8.8789157867431641 40.9639282226562500
  4.5527811050415039  4.4611258506774902 40.9286575317382812
  4.4608473777770996 13.6542177200317383 40.9163475036621165
 13.3980512619018555  4.5950322151184082 40.9897232055664134
 13.5393543243408203 13.6402235031127930 40.7935180664062500
  2.5746617317199707  1.9533637762069702 37.9473915100097656
  2.5948302745819092 11.0469160079956037 38.2120323181152344
 11.6683034896850586  1.9160660505294800 38.1521873474121094
 11.1937665939331055 11.3944940567016602 38.4506874084472656
  6.4218354225158691  7.1178956031799308 38.1662864685058594
  6.6494574546813965 16.0180244445800781 38.0465660095214844
 15.9567794799804688  6.6976108551025391 38.3522071838378906
 15.5613727569580078 15.9963979721069318 38.1558723449707031
  2.0230169296264648  6.4058094024658203 38.0837249755859446
  2.2097010612487793 15.8292198181152344 38.0506591796875000
 10.5923604965209961  6.1927766799926758 37.8713264465332031
 11.0276756286621094 15.5984525680541974 38.1689910888671875
  6.9950375556945801  2.4150466918945312 38.0285224914550781
  6.8986749649047852 11.4172410964965803 38.3037948608398438
 16.0115280151367188  2.5540323257446289 38.3152809143066477
 16.5158653259277344 11.7766990661621094 38.5710754394531250
  0.0000000000000000  0.0000000000000000 47.1735610961914062
 -0.0024593239650130  9.0313997268676740 47.1735610961914062
  9.0304002761840803  0.0000000000000000 47.1735610961914062
  9.0279407501220685  9.0313997268676740 47.1735610961914062
  4.5139794349670410  4.5156998634338379 47.1742515563964844
  4.5115203857421875 13.5470991134643537 47.1742515563964844
 13.5443792343139648  4.5156998634338379 47.1742515563964844
 13.5419197082519531 13.5470991134643537 47.1742515563964844
  2.4519233703613277  2.0629522800445557 44.0401268005371165
  2.4494640827178955 11.0943517684936523 44.0401268005371165
 11.4823226928710920  2.0629522800445557 44.0401268005371165
 11.4798641204833984 11.0943517684936523 44.0401268005371165
  6.5760178565979004  6.9684472084045410 44.0401268005371165
  6.5735583305358887 15.9998464584350586 44.0401268005371165
 15.6064186096191406  6.9684472084045410 44.0401268005371165
 15.6039590835571289 15.9998464584350586 44.0401268005371165
  2.0610768795013428  6.5788145065307617 44.0400009155273509
  2.0586175918579102 15.6102142333984375 44.0400009155273509
 11.0914773941040039  6.5788145065307617 44.0400009155273509
 11.0890178680419922 15.6102142333984375 44.0400009155273509
  6.9668641090393066  2.4525938034057613 44.0400657653808665
  6.9644045829772949 11.4839935302734375 44.0400657653808665
 15.9972639083862305  2.4525938034057613 44.0400657653808665
 15.9948053359985352 11.4839935302734375 44.0400657653808665
  2.4316265583038330  2.0832188129425049 50.0684852600097656
  2.4291670322418213 11.1146183013915998 50.0684852600097656
 11.4620265960693359  2.0832188129425049 50.0684852600097656
 11.4595670700073224 11.1146183013915998 50.0684852600097656
  6.5963144302368164  6.9481806755065918 50.0684852600097656
  6.5938549041748047 15.9795799255371076 50.0684852600097656
 15.6267137527465803  6.9481806755065918 50.0684852600097656
 15.6242542266845703 15.9795799255371076 50.0684852600097656
  2.0811281204223633  6.5990090370178223 50.0690460205078125
  2.0786688327789307 15.6304082870483398 50.0690460205078125
 11.1115283966064453  6.5990090370178223 50.0690460205078125
 11.1090688705444336 15.6304082870483398 50.0690460205078125
  6.9468131065368652  2.4323906898498531 50.0690460205078125
  6.9443535804748535 11.4637899398803711 50.0690460205078125
 15.9772129058837891  2.4323906898498531 50.0690460205078125
 15.9747543334960938 11.4637899398803711 50.0690460205078125
 17.9319337308406865  0.0957795381546021 37.8186492919921946
  0.1273821741342545  9.1296405792236328 37.7598495483398509
  9.0846223831176740  0.1592421531677246 37.7015724182128977
  9.0069112777709961  9.0733289718627930 37.8278961181640625
  4.5173258781433105  4.5847167968750000 37.7551345825195384
  4.4667606353759766 13.6405630111694336 37.7157554626464915
 13.4396495819091797  4.6642651557922363 37.9158935546875000
 13.3821973800659180 13.6756801605224592 37.6500015258789062
  0.0000090280000222  0.0000090310004452 44.0429992675781250
 -0.0024502959568053  9.0314083099365234 44.0429992675781250
  9.0304088592529297  0.0000090310004452 44.0429992675781250
  9.0279493331909180  9.0314083099365234 44.0429992675781250
  4.5139703750610352  4.5156903266906738 44.0427513122558594
  4.5115113258361816 13.5470905303955078 44.0427513122558594
 13.5443706512451172  4.5156903266906738 44.0427513122558594
 13.5419111251831037 13.5470905303955078 44.0427513122558594
  0.0000000000000000  0.0000000000000000 50.4472808837890696
 -0.0024593239650130  9.0313997268676740 50.4472808837890696
  9.0304002761840803  0.0000000000000000 50.4472808837890696
  9.0279407501220685  9.0313997268676740 50.4472808837890696
  4.5139703750610352  4.5156998634338379 50.4472808837890696
  4.5115113258361816 13.5470991134643537 50.4472808837890696
 13.5443706512451172  4.5156998634338379 50.4472808837890696
 13.5419111251831055 13.5470991134643537 50.4472808837890696
